LAMMPS (22 Jul 2025 - Update 1)
units real
atom_style full
boundary p p p

pair_style lj/cut/tip4p/long 1 2 1 1 0.1546 9.5
bond_style zero
angle_style zero
pair_modify tail yes

read_data data_225.data
Reading data file ...
  triclinic box = (-0.20081916 -0.20081916 -0.20081916) to (49.991339 49.991339 49.991339) with tilt (0 0 0)
  2 by 4 by 7 MPI processor grid
  reading atoms ...
  12288 atoms
  reading velocities ...
  12288 velocities
  scanning bonds ...
  2 = max bonds/atom
  scanning angles ...
  1 = max angles/atom
  triclinic box = (-0.20081916 -0.20081916 -0.20081916) to (49.991339 49.991339 49.991339) with tilt (0 0 0)
  2 by 4 by 7 MPI processor grid
  reading bonds ...
  8192 bonds
  reading angles ...
  4096 angles
Finding 1-2 1-3 1-4 neighbors ...
  special bond factors lj:    0        0        0       
  special bond factors coul:  0        0        0       
     2 = max # of 1-2 neighbors
     1 = max # of 1-3 neighbors
     1 = max # of 1-4 neighbors
     2 = max # of special neighbors
  special bonds CPU = 0.005 seconds
  read_data CPU = 0.120 seconds
print "Equilibrium configuration loaded from NPT run"
Equilibrium configuration loaded from NPT run

kspace_style pppm/tip4p 1.0e-5
pair_coeff 1 1 0.18521 3.1589 #O-O
pair_coeff * 2 0.0 0.0 #O-H/H-H
bond_coeff 1 0.9572 #O-H
angle_coeff 1 104.52 #H-O-H

group gH2O type 1 2
12288 atoms in group gH2O
group gO type 1
4096 atoms in group gO

neighbor 3.0 bin
neigh_modify delay 0 every 1 check yes

timestep 1.0
fix 1 all shake 1.0e-4 100 0 b 1 a 1
Finding SHAKE clusters ...
       0 = # of size 2 clusters
       0 = # of size 3 clusters
       0 = # of size 4 clusters
    4096 = # of frozen angles
  find clusters CPU = 0.004 seconds

thermo 1000
thermo_style custom step temp vol etotal pe lx
thermo_modify flush yes

fix fnpt all npt temp 225.0 225.0 100.0 iso 0.9869 0.9869 1000.0
run 7000000 # 7ns
PPPM initialization ...
  extracting TIP4P info from pair style
  using 12-bit tables for long-range coulomb
  G vector (1/distance) = 0.32754946
  grid = 50 50 50
  stencil order = 5
  estimated absolute RMS force accuracy = 0.0036668591
  estimated relative force accuracy = 1.1042637e-05
  using double precision KISS FFT
  3d grid and FFT values/proc = 11424 2800
WARNING: Communication cutoff 0 is shorter than a bond length based estimate of 4.4358. This may lead to errors. (../comm.cpp:743)
WARNING: Increasing communication cutoff to 13.6118 for TIP4P pair style (../pair_lj_cut_tip4p_long.cpp:497)
Generated 0 of 1 mixed pair_coeff terms from geometric mixing rule
Neighbor list info ...
  update: every = 1 steps, delay = 0 steps, check = yes
  max neighbors/atom: 2000, page size: 100000
  master list distance cutoff = 12.8092
  ghost atom cutoff = 13.6118
  binsize = 6.4046, bins = 8 8 8
  1 neighbor lists, perpetual/occasional/extra = 1 0 0
  (1) pair lj/cut/tip4p/long, perpetual
      attributes: half, newton on
      pair build: half/bin/newton/tri
      stencil: half/bin/3d/tri
      bin: standard
Per MPI rank memory allocation (min/avg/max) = 9.159 | 9.283 | 9.641 Mbytes
   Step          Temp          Volume         TotEng         PotEng           Lx      
         0   226.11034      126446.73     -46573.443     -52094.111      50.192158    
      1000   224.94675      126679.7      -46532.014     -52024.272      50.222964    
      2000   223.795        126866.4      -46495.019     -51959.157      50.247626    
      3000   227.16942      126705.9      -46433.234     -51979.761      50.226427    
      4000   227.36407      127017.39     -46488.406     -52039.685      50.267551    
      5000   225.80834      126877.16     -46427.466     -51940.761      50.249046    
      6000   225.19636      126418.79     -46561.051     -52059.404      50.18846     
      7000   227.3056       126527.77     -46522.02      -52071.872      50.202879    
      8000   224.19352      126491.16     -46567.293     -52041.16       50.198036    
      9000   223.45155      126630.58     -46585.056     -52040.808      50.216472    
     10000   223.41557      126570.52     -46605.373     -52060.247      50.208532    
     11000   223.04127      126563.79     -46542.885     -51988.62       50.207641    
     12000   223.95274      126120.24     -46680.246     -52148.234      50.148922    
     13000   225.58953      126822.39     -46616.755     -52124.707      50.241814    
     14000   225.63251      127148.02     -46536.584     -52045.585      50.284778    
     15000   221.99961      126654.47     -46730.012     -52150.313      50.21963     
     16000   225.31822      127114        -46534.135     -52035.463      50.280293    
     17000   225.00934      126717.24     -46513.137     -52006.924      50.227925    
     18000   223.88567      127121.11     -46589.64      -52055.991      50.28123     
     19000   225.18046      126592.97     -46553.091     -52051.055      50.2115      
     20000   224.99011      126478.1      -46575.017     -52068.334      50.196308    
     21000   223.23987      126701.33     -46612.073     -52062.657      50.225822    
     22000   228.24781      126976.91     -46466.773     -52039.629      50.26221     
     23000   222.84014      126180.87     -46547.392     -51988.216      50.156957    
     24000   223.77318      126271.85     -46527.604     -51991.209      50.169008    
     25000   224.80368      126850.24     -46569.863     -52058.628      50.245492    
     26000   225.40035      127225.93     -46534.824     -52038.157      50.295046    
     27000   221.80865      126956.24     -46699.701     -52115.34       50.259483    
     28000   228.29179      126581.87     -46541.197     -52115.127      50.210032    
     29000   225.10475      126603.83     -46581.562     -52077.678      50.212936    
     30000   223.36652      126469.94     -46547.635     -52001.31       50.195229    
     31000   224.59324      126732.99     -46471.25      -51954.877      50.230006    
     32000   226.82577      126611.57     -46442.029     -51980.165      50.213959    
     33000   223.58739      126397.57     -46532.504     -51991.572      50.185652    
     34000   226.56829      126741.96     -46455.192     -51987.042      50.23119     
     35000   227.88639      126723.11     -46379.012     -51943.044      50.2287      
     36000   226.73485      127246.88     -46481.525     -52017.441      50.297807    
     37000   224.22743      126612.01     -46571.54      -52046.235      50.214017    
     38000   229.34951      126510.59     -46493.424     -52093.179      50.200606    
     39000   227.8478       126681.89     -46407.979     -51971.069      50.223253    
     40000   225.08808      126363.31     -46606.074     -52101.783      50.181118    
     41000   225.0402       126756.82     -46535.503     -52030.043      50.233154    
     42000   226.48756      126754.26     -46477.471     -52007.349      50.232815    
     43000   226.24397      126589.59     -46477.041     -52000.972      50.211053    
     44000   223.65767      126602.02     -46508.538     -51969.322      50.212696    
     45000   226.09487      126697.5      -46514.996     -52035.286      50.225317    
     46000   226.96415      126740.42     -46442.301     -51983.816      50.230988    
     47000   223.2754       126743.28     -46542.917     -51994.368      50.231365    
     48000   228.72761      126919.73     -46374.489     -51959.061      50.254665    
     49000   224.13523      126957.21     -46529.683     -52002.128      50.259611    
     50000   221.29562      126574.65     -46589.742     -51992.855      50.209077    
     51000   227.53238      126741.16     -46439.625     -51995.013      50.231085    
     52000   224.67195      126580.93     -46571.178     -52056.727      50.209908    
     53000   229.52756      127024.41     -46335.723     -51939.825      50.268477    
     54000   225.76596      126521.49     -46629.613     -52141.873      50.202048    
     55000   227.02958      126849.15     -46481.431     -52024.544      50.245347    
     56000   229.23391      126839.21     -46449.105     -52046.037      50.244035    
     57000   226.04294      126527.82     -46571.923     -52090.946      50.202885    
     58000   224.15573      126658.67     -46596.379     -52069.323      50.220185    
     59000   226.58184      126799.55     -46526.9       -52059.08       50.238797    
     60000   224.38433      126436.1      -46550.387     -52028.914      50.190751    
     61000   226.74122      126533.03     -46461.31      -51997.382      50.203574    
     62000   222.56796      126816.88     -46614.941     -52049.12       50.241087    
     63000   225.08049      126977.79     -46510.664     -52006.188      50.262327    
     64000   227.08925      126996.36     -46401.361     -51945.93       50.264776    
     65000   225.70051      127306.71     -46433.797     -51944.459      50.305688    
     66000   227.97498      126461.91     -46597.222     -52163.417      50.194166    
     67000   222.74617      126617.42     -46638.172     -52076.701      50.214732    
     68000   226.10025      126624.25     -46559.893     -52080.315      50.215635    
     69000   226.84135      126198.46     -46532.603     -52071.12       50.159286    
     70000   224.18808      126402.33     -46558.278     -52032.013      50.186282    
     71000   227.61978      126545.07     -46300.578     -51858.1        50.205166    
     72000   224.70651      127045.68     -46488.823     -51975.216      50.271283    
     73000   222.55142      126512.47     -46561.14      -51994.914      50.200854    
     74000   224.97307      126296.84     -46557.16      -52050.061      50.172318    
     75000   224.73286      127141.53     -46569.381     -52056.417      50.283923    
     76000   225.05302      126974.12     -46504.16      -51999.013      50.261842    
     77000   227.8619       126664.34     -46507.115     -52070.549      50.220934    
     78000   224.12969      126855        -46538.737     -52011.046      50.24612     
     79000   222.75132      126796.45     -46610.654     -52049.309      50.238388    
     80000   223.45805      126540.54     -46494.928     -51950.839      50.204567    
     81000   228.60732      126893.82     -46359.634     -51941.268      50.251245    
     82000   227.63015      126820.8      -46453.244     -52011.019      50.241604    
     83000   222.0781       126792.17     -46593.99      -52016.207      50.237823    
     84000   222.75174      126834.56     -46527.309     -51965.974      50.243421    
     85000   222.43587      126928.85     -46680.104     -52111.057      50.255868    
     86000   225.21074      126466.93     -46501.446     -52000.15       50.194831    
     87000   225.04         126098.79     -46471.856     -51966.391      50.146078    
     88000   226.44014      126441.72     -46419.348     -51948.069      50.191495    
     89000   226.33176      126197.34     -46530         -52056.074      50.159139    
     90000   224.63632      126910.45     -46546.409     -52031.088      50.253439    
     91000   227.38239      126950.47     -46398.854     -51950.581      50.258722    
     92000   222.62822      126520.56     -46552.533     -51988.183      50.201925    
     93000   226.00647      126485.48     -46494.674     -52012.806      50.197284    
     94000   225.16827      126614.66     -46488.388     -51986.055      50.214367    
     95000   226.75518      126313.5      -46504.973     -52041.386      50.174524    
     96000   224.44841      126520.07     -46427.128     -51907.219      50.20186     
     97000   225.85237      126581.14     -46627.091     -52141.461      50.209936    
     98000   225.73581      126351.59     -46502.021     -52013.545      50.179566    
     99000   225.47748      126541.14     -46607.808     -52113.025      50.204646    
    100000   225.60313      126371.33     -46453.873     -51962.157      50.18218     
    101000   226.35302      126353.04     -46465.735     -51992.329      50.179759    
    102000   225.90801      126033.87     -46406.925     -51922.653      50.137471    
    103000   225.2872       126252.07     -46576.976     -52077.547      50.166389    
    104000   227.27405      126491.26     -46452.685     -52001.766      50.198049    
    105000   221.24014      126171.36     -46524.042     -51925.8        50.155696    
    106000   223.0121       126787.32     -46542.836     -51987.858      50.237182    
    107000   226.07784      126905.5      -46418.203     -51938.078      50.252786    
    108000   222.26372      126507.97     -46536.559     -51963.309      50.20026     
    109000   225.0938       126627.91     -46436.222     -51932.071      50.216119    
    110000   221.65864      126177.55     -46573.256     -51985.233      50.156517    
    111000   222.8006       126424.75     -46612.363     -52052.221      50.18925     
    112000   226.96249      126384.13     -46534.345     -52075.819      50.183873    
    113000   229.16005      126618.12     -46435.599     -52030.729      50.214825    
    114000   225.58092      126501.84     -46528.9       -52036.642      50.199449    
    115000   227.80797      126860.95     -46432.62      -51994.738      50.246905    
    116000   223.06226      126564.68     -46522.568     -51968.815      50.20776     
    117000   222.42246      126206.16     -46542.026     -51972.651      50.160307    
    118000   224.49037      126613.26     -46446.555     -51927.67       50.214183    
    119000   222.81844      126783.88     -46648.171     -52088.465      50.236727    
    120000   225.83406      126533.48     -46478.782     -51992.705      50.203634    
    121000   222.28338      126332.86     -46675.449     -52102.679      50.177086    
    122000   226.35658      126490.27     -46487.035     -52013.715      50.197918    
    123000   222.96249      126978.18     -46552.872     -51996.683      50.262379    
    124000   226.04194      126194.15     -46546.806     -52065.804      50.158716    
    125000   229.47744      126716.26     -46420.845     -52023.724      50.227795    
    126000   225.50799      126499.2      -46519.146     -52025.107      50.199099    
    127000   226.78067      126117.17     -46423.44      -51960.475      50.148514    
    128000   226.20964      126166.84     -46499.331     -52022.424      50.155097    
    129000   228.08004      126566.41     -46443.075     -52011.835      50.207989    
    130000   222.10543      126151.23     -46666.44      -52089.326      50.153029    
    131000   227.64359      126621.41     -46420.866     -51978.97       50.21526     
    132000   225.37313      126852.71     -46601.268     -52103.936      50.245817    
    133000   224.22781      126270.15     -46588.339     -52063.043      50.168783    
    134000   226.15361      126263.28     -46539.755     -52061.48       50.167873    
    135000   223.0405       126401.89     -46539.309     -51985.024      50.186224    
    136000   225.85538      126154.27     -46505.838     -52020.281      50.153432    
    137000   225.05242      126407.55     -46579.435     -52074.273      50.186974    
    138000   225.59373      126368.27     -46561.773     -52069.828      50.181775    
    139000   222.5384       126744.4      -46613.684     -52047.14       50.231513    
    140000   225.53137      126654.98     -46485.405     -51991.937      50.219697    
    141000   222.47898      126219.42     -46610.96      -52042.966      50.162063    
    142000   222.29312      126635.42     -46585.13      -52012.597      50.217113    
    143000   224.6668       126330.59     -46506.234     -51991.657      50.176786    
    144000   226.0106       126209.59     -46408.451     -51926.685      50.160762    
    145000   227.02405      126445.2      -46315.663     -51858.64       50.191956    
    146000   222.57426      126156.15     -46550.759     -51985.091      50.15368     
    147000   226.90221      126580.07     -46469.349     -52009.352      50.209795    
    148000   226.0464       126424.95     -46440.709     -51959.816      50.189276    
    149000   226.2653       126258.96     -46468.736     -51993.187      50.167301    
    150000   226.6249       125920.71     -46500.485     -52033.716      50.122461    
    151000   224.99379      126135.72     -46423.574     -51916.98       50.150973    
    152000   224.32138      126116.22     -46491.776     -51968.765      50.148388    
    153000   228.13395      126559.73     -46325.604     -51895.68       50.207105    
    154000   223.66584      126631.32     -46588.407     -52049.391      50.21657     
    155000   224.6912       126585.71     -46311.561     -51797.58       50.21054     
    156000   225.36533      127086.22     -46494.901     -51997.379      50.27663     
    157000   222.12061      126679.47     -46605.167     -52028.423      50.222934    
    158000   222.73852      126771.18     -46526.327     -51964.669      50.23505     
    159000   225.85343      126128.47     -46421.054     -51935.449      50.150012    
    160000   223.82812      126026.02     -46563.147     -52028.093      50.13643     
    161000   225.39599      126384.98     -46475.905     -51979.132      50.183987    
    162000   226.46515      126263.27     -46595.314     -52124.646      50.167872    
    163000   224.57688      126669.97     -46476.829     -51960.057      50.221679    
    164000   223.00668      126734.9      -46548.569     -51993.459      50.230257    
    165000   227.0593       126131.65     -46426.763     -51970.601      50.150434    
    166000   226.44386      126503.94     -46479.634     -52008.446      50.199727    
    167000   225.23515      126255.44     -46512.211     -52011.51       50.166835    
    168000   226.73389      126402.75     -46574.461     -52110.354      50.186337    
    169000   227.26139      126183.44     -46536.023     -52084.796      50.157296    
    170000   227.27436      126303.95     -46581.033     -52130.122      50.173259    
    171000   223.61921      126108.91     -46685.483     -52145.329      50.147419    
    172000   225.78925      126482.19     -46510.895     -52023.723      50.196849    
    173000   222.96277      126278.92     -46618.562     -52062.38       50.169944    
    174000   226.99178      126339.19     -46562.622     -52104.811      50.177924    
    175000   222.80217      126415.9      -46578.902     -52018.799      50.188079    
    176000   226.14271      126509.67     -46509.844     -52031.302      50.200484    
    177000   225.53614      126341.84     -46490.171     -51996.819      50.178276    
    178000   225.31849      126333.59     -46554.876     -52056.211      50.177183    
    179000   222.58282      125997.58     -46525.766     -51960.307      50.132658    
    180000   223.40639      126020.19     -46601.045     -52055.694      50.135656    
    181000   227.3998       126195.51     -46563.891     -52116.043      50.158896    
    182000   225.83989      126109.65     -46534.833     -52048.898      50.147518    
    183000   222.39077      126542.92     -46560.036     -51989.888      50.204882    
    184000   222.72194      126476.64     -46581.602     -52019.539      50.196115    
    185000   225.19054      125935.76     -46579.142     -52077.353      50.124458    
    186000   222.58901      126066.19     -46564.6       -51999.292      50.141756    
    187000   224.93156      126295.6      -46569.138     -52061.026      50.172153    
    188000   223.82616      126613.78     -46507.554     -51972.452      50.214251    
    189000   225.19612      126337        -46503.928     -52002.274      50.177634    
    190000   224.00747      126023.73     -46697.07      -52166.395      50.136126    
    191000   230.08051      126077.97     -46494.349     -52111.952      50.143318    
    192000   226.03561      125928.59     -46646.536     -52165.379      50.123507    
    193000   226.16944      126577.14     -46562.339     -52084.45       50.209408    
    194000   223.48594      126692.37     -46615.851     -52072.442      50.224638    
    195000   224.20746      126698.16     -46720.429     -52194.637      50.225403    
    196000   226.70143      126860.28     -46606.495     -52141.595      50.246816    
    197000   220.45236      126452.52     -46719.796     -52102.32       50.192924    
    198000   222.48715      126703.32     -46523.433     -51955.638      50.226085    
    199000   223.35053      126783.76     -46630.053     -52083.338      50.236712    
    200000   223.20343      126621.78     -46753.754     -52203.448      50.215309    
    201000   224.2385       126397.64     -46544.973     -52019.939      50.185662    
    202000   225.89259      126476.86     -46634.294     -52149.646      50.196144    
    203000   226.47431      126952.81     -46577.265     -52106.82       50.259031    
    204000   222.57669      126294.09     -46685.275     -52119.666      50.171953    
    205000   223.7079       126092.44     -46568.894     -52030.905      50.145237    
    206000   230.01787      125873.17     -46428.084     -52044.157      50.116153    
    207000   222.66982      125736.49     -46639.297     -52075.962      50.098006    
    208000   223.26708      126076.43     -46715.851     -52167.098      50.143114    
    209000   224.24059      126379.47     -46619.61      -52094.627      50.183257    
    210000   222.9178       125923.64     -46604.306     -52047.026      50.12285     
    211000   225.83881      126124.75     -46518.069     -52032.107      50.14952     
    212000   223.6416       126349.31     -46655.828     -52116.22       50.179264    
    213000   223.63483      126622.8      -46733.394     -52193.62       50.215444    
    214000   224.27179      126197.04     -46662.08      -52137.858      50.159099    
    215000   225.90893      125912.46     -46583.129     -52098.88       50.121366    
    216000   226.33966      125823.84     -46554.644     -52080.911      50.109605    
    217000   224.64477      126368.1      -46695.805     -52180.69       50.181752    
    218000   225.5274       126460.37     -46550.952     -52057.388      50.193963    
    219000   224.9771       126293.94     -46608.222     -52101.221      50.171933    
    220000   222.54554      126221.41     -46617.605     -52051.236      50.162327    
    221000   223.66257      126460.82     -46723.268     -52184.172      50.194023    
    222000   222.89709      125840.76     -46642.949     -52085.163      50.111851    
    223000   224.50907      126454.35     -46674.949     -52156.521      50.193166    
    224000   226.47144      126820.47     -46483.654     -52013.139      50.241561    
    225000   222.50733      126511.21     -46690.505     -52123.203      50.200688    
    226000   222.14366      126432.2      -46626.609     -52050.428      50.190235    
    227000   226.15154      126382.71     -46611.522     -52133.196      50.183686    
    228000   224.77896      126417.36     -46678.296     -52166.458      50.188272    
    229000   225.25565      125821.96     -46720.59      -52220.391      50.109355    
    230000   224.0239       126520.1      -46651.435     -52121.161      50.201865    
    231000   225.01121      126345.4      -46719.208     -52213.04       50.178746    
    232000   225.11671      126583.38     -46550.327     -52046.736      50.210233    
    233000   222.85056      125915.73     -46697.51      -52138.588      50.121801    
    234000   229.87416      126126.19     -46549.216     -52161.781      50.14971     
    235000   225.60803      126392.25     -46491.851     -52000.255      50.184949    
    236000   226.98145      126371.3      -46399.896     -51941.833      50.182176    
    237000   227.53644      126020.27     -46569.157     -52124.644      50.135667    
    238000   222.47262      125825.97     -46704.746     -52136.597      50.109888    
    239000   225.80454      126351.31     -46457.683     -51970.885      50.179529    
    240000   229.11559      126537.86     -46409.357     -52003.401      50.204213    
    241000   225.73401      126400.36     -46397.008     -51908.488      50.186022    
    242000   223.50047      126508.47     -46524.191     -51981.138      50.200326    
    243000   222.86948      126511.72     -46615.199     -52056.739      50.200756    
    244000   223.27858      125846.97     -46631.201     -52082.73       50.112676    
    245000   224.78135      125798.26     -46521.469     -52009.689      50.106209    
    246000   226.12911      126072.66     -46424.43      -51945.556      50.142614    
    247000   227.89248      125885.97     -46392.958     -51957.138      50.117852    
    248000   222.49675      125633.41     -46605.48      -52037.919      50.084312    
    249000   227.14643      125470.33     -46429.172     -51975.137      50.062632    
    250000   220.26274      125788.14     -46560.735     -51938.629      50.104865    
    251000   225.69305      126177.88     -46447.18      -51957.66       50.15656     
    252000   224.61472      126424.86     -46442.578     -51926.73       50.189264    
    253000   226.18001      126008.27     -46584.078     -52106.448      50.134077    
    254000   223.33048      125474.66     -46575.498     -52028.294      50.063208    
    255000   228.4708       125692.62     -46505.344     -52083.645      50.092179    
    256000   225.58409      125719.02     -46543.928     -52051.747      50.095686    
    257000   223.84871      125580.5      -46620.908     -52086.356      50.07728     
    258000   222.78949      125830.97     -46600.919     -52040.506      50.110551    
    259000   224.3497       125949.71     -46477.812     -51955.492      50.126309    
    260000   222.29484      126131.94     -46618.938     -52046.448      50.150472    
    261000   224.13842      126028.27     -46591.237     -52063.76       50.136729    
    262000   226.95039      126643.68     -46506.301     -52047.48       50.218204    
    263000   225.99111      125666.28     -46566         -52083.757      50.08868     
    264000   221.95931      126160.31     -46588.956     -52008.274      50.154232    
    265000   229.12848      126253.48     -46343.699     -51938.058      50.166576    
    266000   221.85598      125972.28     -46659.498     -52076.292      50.129303    
    267000   227.00176      126099.19     -46414.528     -51956.961      50.146131    
    268000   224.665        125779.99     -46498.934     -51984.313      50.103783    
    269000   225.94073      125604.41     -46434.985     -51951.512      50.080459    
    270000   227.76217      126231.58     -46448.017     -52009.016      50.163675    
    271000   226.37348      125581.14     -46548.887     -52075.98       50.077365    
    272000   225.73807      126349.57     -46422.967     -51934.546      50.179298    
    273000   220.77274      126064.29     -46627.875     -52018.221      50.141505    
    274000   228.2456       125833.73     -46474.166     -52046.968      50.110918    
    275000   226.80662      126282.5      -46349.16      -51886.828      50.170418    
    276000   226.77969      126293.33     -46442.705     -51979.716      50.171852    
    277000   227.26248      126440.31     -46428.485     -51977.284      50.191308    
    278000   225.55332      126792.4      -46459.278     -51966.346      50.237854    
    279000   223.83348      126262.74     -46630.895     -52095.972      50.167802    
    280000   220.2901       126182.3      -46727.585     -52106.147      50.157146    
    281000   224.2149       126417.18     -46523.906     -51998.296      50.188248    
    282000   228.10712      125971.9      -46460.871     -52030.292      50.129252    
    283000   224.87588      126490.92     -46562.769     -52053.297      50.198004    
    284000   225.10073      126056.37     -46476.618     -51972.636      50.140454    
    285000   226.17401      126810.49     -46587.734     -52109.957      50.240243    
    286000   224.17871      126376.28     -46540.515     -52014.021      50.182834    
    287000   224.329        126356.9      -46608.062     -52085.237      50.180269    
    288000   224.45068      126142.89     -46491.669     -51971.816      50.151923    
    289000   224.42388      125694.66     -46597.784     -52077.276      50.09245     
    290000   225.96049      126130.14     -46352.987     -51869.996      50.150233    
    291000   225.5267       125776.35     -46574.994     -52081.413      50.103299    
    292000   223.98732      125860.7      -46447.235     -51916.068      50.114497    
    293000   223.50299      126406.08     -46558.619     -52015.627      50.186778    
    294000   224.37471      126531.78     -46562.612     -52040.904      50.203409    
    295000   227.71153      126002.99     -46397.184     -51956.947      50.133375    
    296000   225.20645      126277.28     -46469.597     -51968.196      50.169727    
    297000   220.76755      126038.79     -46675.414     -52065.634      50.138123    
    298000   224.18614      125924.86     -46476.879     -51950.566      50.123011    
    299000   223.11814      126882.9      -46363.183     -51810.794      50.249803    
    300000   223.65269      126606.1      -46566.24      -52026.903      50.213236    
    301000   227.99596      126418.92     -46469.117     -52035.825      50.188478    
    302000   224.45524      126215.9      -46479.733     -51959.991      50.161597    
    303000   224.63957      126449.19     -46505.81      -51990.568      50.192484    
    304000   223.07431      126897.61     -46497.069     -51943.61       50.251745    
    305000   225.259        126204.06     -46447.038     -51946.92       50.160029    
    306000   227.68564      126850.74     -46454.18      -52013.311      50.245557    
    307000   223.26316      126884.43     -46495.996     -51947.148      50.250005    
    308000   223.22994      126442.5      -46526.956     -51977.298      50.191598    
    309000   225.50279      126424.38     -46409.69      -51915.525      50.189201    
    310000   222.82037      126651.55     -46499.738     -51940.078      50.219244    
    311000   229.11993      126389.77     -46409.633     -52003.783      50.18462     
    312000   227.25706      127071.36     -46516.95      -52065.616      50.27467     
    313000   223.75647      126467.98     -46528.613     -51991.81       50.194969    
    314000   226.29907      126934.53     -46355.387     -51880.663      50.256618    
    315000   225.36554      126445.77     -46421.503     -51923.986      50.192031    
    316000   224.498        126388.33     -46522.737     -52004.039      50.184429    
    317000   225.1369       126294.6      -46540.779     -52037.68       50.172021    
    318000   226.01595      126595.2      -46432.079     -51950.443      50.211795    
    319000   223.6693       126780.44     -46585.158     -52046.226      50.236273    
    320000   223.6999       126455.27     -46553.446     -52015.261      50.193287    
    321000   223.54329      126274.66     -46419.053     -51877.045      50.16938     
    322000   226.85156      126342.72     -46548.502     -52087.268      50.178391    
    323000   225.27306      125954.08     -46552.097     -52052.322      50.126889    
    324000   222.96802      126694.94     -46533.744     -51977.69       50.224978    
    325000   226.90255      126381.19     -46392.124     -51932.134      50.183485    
    326000   225.53458      126235.66     -46517.662     -52024.273      50.164215    
    327000   226.61128      126565.76     -46429.888     -51962.787      50.207902    
    328000   225.64527      126587.68     -46492.946     -52002.259      50.210801    
    329000   222.86819      126385.14     -46506.262     -51947.771      50.184007    
    330000   228.30086      125966.06     -46453.767     -52027.918      50.128477    
    331000   228.23327      126476.31     -46452.175     -52024.676      50.196071    
    332000   226.99867      126871.36     -46410.262     -51952.62       50.24828     
    333000   224.24735      126508.47     -46515.939     -51991.121      50.200325    
    334000   222.79173      126622.9      -46564.207     -52003.849      50.215457    
    335000   223.66892      126509.25     -46606.141     -52067.2        50.200429    
    336000   226.57592      126209.86     -46485.07      -52017.106      50.160797    
    337000   225.54227      126346.44     -46383.441     -51890.239      50.178885    
    338000   223.17402      126447.18     -46653.553     -52102.529      50.192218    
    339000   226.19446      126652.52     -46469.717     -51992.439      50.219372    
    340000   224.47744      126288.29     -46628.237     -52109.036      50.171185    
    341000   225.03311      126635.4      -46357.372     -51851.739      50.217109    
    342000   224.89874      126420.02     -46527.89      -52018.976      50.188624    
    343000   221.97857      126782.64     -46527.269     -51947.057      50.236564    
    344000   224.51491      126282.39     -46462.864     -51944.579      50.170404    
    345000   226.3404       126080.45     -46596.62      -52122.905      50.143647    
    346000   226.50972      126262.34     -46476.221     -52006.64       50.167749    
    347000   220.7308       125824.08     -46708.621     -52097.943      50.109637    
    348000   229.74327      126407.05     -46480.026     -52089.396      50.186908    
    349000   222.10842      126523.32     -46662.37      -52085.328      50.20229     
    350000   226.65063      126751.26     -46542.977     -52076.836      50.232419    
    351000   224.68311      126776.78     -46398.037     -51883.859      50.23579     
    352000   226.01297      126816.43     -46453.193     -51971.484      50.241027    
    353000   222.19023      126500.44     -46670.976     -52095.932      50.199263    
    354000   226.96819      126712.98     -46463.566     -52005.18       50.227362    
    355000   231.11544      126127.27     -46490.481     -52133.353      50.149853    
    356000   223.78474      126260.73     -46590.903     -52054.79       50.167535    
    357000   225.93759      126136.16     -46574.114     -52090.565      50.151032    
    358000   226.72035      126939.63     -46531.613     -52067.175      50.257291    
    359000   225.43838      126337.58     -46601.766     -52106.028      50.177712    
    360000   225.0509       126910.92     -46492.983     -51987.784      50.253502    
    361000   221.8138       127127.15     -46590.563     -52006.327      50.282026    
    362000   227.25526      126251.25     -46535.778     -52084.4        50.16628     
    363000   226.08315      126702.36     -46522.739     -52042.743      50.225959    
    364000   224.22538      126892.67     -46618.14      -52092.785      50.251092    
    365000   223.65039      127093.92     -46532.437     -51993.044      50.277645    
    366000   224.60862      126825.74     -46570.442     -52054.444      50.242257    
    367000   221.76343      126642.47     -46528.196     -51942.731      50.218044    
    368000   222.80692      126928.69     -46505.714     -51945.727      50.255848    
    369000   230.1478       126583.86     -46529.818     -52149.064      50.210296    
    370000   224.02506      126806.67     -46650.126     -52119.881      50.239738    
    371000   226.5208       126634.29     -46551.753     -52082.443      50.216963    
    372000   225.22988      126870.44     -46616.554     -52115.725      50.248158    
    373000   224.01508      127283.28     -46534.147     -52003.658      50.302602    
    374000   222.52085      126692.17     -46612.628     -52045.656      50.224613    
    375000   227.20129      126863.57     -46509.363     -52056.668      50.247251    
    376000   225.2593       126787.68     -46634.859     -52134.749      50.237229    
    377000   222.96433      126974.11     -46638.942     -52082.797      50.261841    
    378000   223.70216      126769.05     -46697.23      -52159.101      50.23477     
    379000   223.94808      127173.49     -46595.593     -52063.468      50.288135    
    380000   222.06458      126753.68     -46783.102     -52204.99       50.232738    
    381000   223.70796      127064.44     -46654.165     -52116.177      50.273757    
    382000   227.0794       127724.5      -46520.999     -52065.327      50.360659    
    383000   226.36208      126635.76     -46639.54      -52166.355      50.217157    
    384000   227.56495      127086.46     -46608.631     -52164.815      50.276661    
    385000   220.53964      126656.28     -46679.167     -52063.822      50.219869    
    386000   222.72575      127157.46     -46621.983     -52060.014      50.286022    
    387000   226.87009      127020.15     -46596.311     -52135.529      50.267915    
    388000   226.55564      127180.1      -46639.7       -52171.24       50.289006    
    389000   223.63868      127329.51     -46659.989     -52120.31       50.308692    
    390000   227.3219       127240.55     -46487.395     -52037.644      50.296972    
    391000   221.62311      127146.56     -46717.292     -52128.401      50.284586    
    392000   227.43469      127599.08     -46546.976     -52099.979      50.344169    
    393000   229.18767      127752.27     -46525.174     -52120.977      50.364309    
    394000   221.54229      127237.44     -46700.045     -52109.181      50.296563    
    395000   224.8203       127282.28     -46587.581     -52076.752      50.302471    
    396000   225.76201      127071.98     -46737.09      -52249.254      50.274752    
    397000   221.93965      127377.19     -46692.367     -52111.205      50.31497     
    398000   224.0278       127555        -46644.011     -52113.833      50.338371    
    399000   227.46382      126873.98     -46571.246     -52124.96       50.248625    
    400000   222.12912      127338.18     -46718.655     -52142.118      50.309833    
    401000   223.47484      127407.86     -46546.408     -52002.729      50.319009    
    402000   222.50198      126916.76     -46695.143     -52127.711      50.254272    
    403000   223.51554      126928.51     -46710.793     -52168.107      50.255824    
    404000   224.40461      126871.8      -46662.249     -52141.271      50.248338    
    405000   221.75312      127643.91     -46687.322     -52101.605      50.350064    
    406000   227.03489      126975.19     -46609.218     -52152.46       50.261983    
    407000   226.64452      126963.48     -46488.312     -52022.023      50.260439    
    408000   223.04733      127002.18     -46649.487     -52095.369      50.265545    
    409000   229.34086      127026.35     -46455.982     -52055.526      50.268733    
    410000   225.15319      127411.73     -46537.889     -52035.188      50.319518    
    411000   225.43735      127050.97     -46661.205     -52165.442      50.271981    
    412000   224.11806      127354.29     -46623.213     -52095.238      50.311955    
    413000   224.74126      127479.44     -46525.68      -52012.922      50.328431    
    414000   224.97111      126928.18     -46658.564     -52151.417      50.25578     
    415000   224.32298      126951.02     -46605.139     -52082.167      50.258795    
    416000   226.94782      127430.16     -46615.241     -52156.357      50.321944    
    417000   229.65525      127533.93     -46447.219     -52054.439      50.3356      
    418000   224.83254      127317.65     -46608.099     -52097.569      50.307129    
    419000   224.34502      127341.83     -46492.902     -51970.468      50.310315    
    420000   226.13144      127804.46     -46568.358     -52089.542      50.371165    
    421000   223.59031      127155.02     -46744.584     -52203.723      50.285701    
    422000   221.26765      127143.99     -46713.65      -52116.08       50.284247    
    423000   227.50094      127402.62     -46564.5       -52119.121      50.318319    
    424000   224.52449      127498.75     -46620.767     -52102.715      50.330971    
    425000   222.66294      127084.71     -46656.595     -52093.092      50.27643     
    426000   225.36383      127515.19     -46550.744     -52053.186      50.333134    
    427000   224.78741      126905.62     -46713.278     -52201.646      50.252803    
    428000   221.50371      127093.97     -46705.475     -52113.669      50.277652    
    429000   224.19823      127251.68     -46708.203     -52182.186      50.29844     
    430000   225.32774      127635.4      -46608.986     -52110.547      50.348945    
    431000   223.68369      127720.01     -46724.358     -52185.777      50.360068    
    432000   223.86327      127002.42     -46739.076     -52204.88       50.265576    
    433000   226.71014      127430.58     -46538.217     -52073.53       50.321999    
    434000   226.55804      126990.67     -46555.847     -52087.446      50.264026    
    435000   222.43705      126960.98     -46620.785     -52051.767      50.260108    
    436000   227.03285      127020.94     -46575.452     -52118.644      50.268019    
    437000   224.41656      127141.41     -46530.654     -52009.967      50.283906    
    438000   224.90645      127098.78     -46715.233     -52206.507      50.278285    
    439000   224.01741      127414.09     -46633.436     -52103.004      50.319828    
    440000   227.41082      126988.9      -46472.417     -52024.838      50.263792    
    441000   222.9387       127114.18     -46635.521     -52078.751      50.280316    
    442000   224.04649      126985.56     -46696.373     -52166.651      50.263351    
    443000   223.87712      127333.74     -46561.806     -52027.949      50.309249    
    444000   224.16491      126833.46     -46699.294     -52172.463      50.243275    
    445000   227.8431       127030.82     -46493.684     -52056.659      50.269323    
    446000   225.82435      127121.11     -46700.361     -52214.047      50.281229    
    447000   225.44663      126954.87     -46669.994     -52174.457      50.259303    
    448000   227.99174      127193.6      -46531.238     -52097.843      50.290785    
    449000   224.33517      127084.5      -46642.453     -52119.779      50.276403    
    450000   221.09071      126961.93     -46657.687     -52055.797      50.260234    
    451000   225.25128      127095.35     -46472.784     -51972.478      50.277834    
    452000   221.02056      126743.89     -46722.382     -52118.779      50.231446    
    453000   224.07238      126712.39     -46490.486     -51961.396      50.227284    
    454000   224.45278      126815.6      -46702.058     -52182.256      50.240917    
    455000   224.85731      126899.72     -46630.77      -52120.844      50.252023    
    456000   224.1717       126785.4      -46589.776     -52063.111      50.236928    
    457000   222.02703      126808.73     -46663.848     -52084.819      50.24001     
    458000   223.44933      126933.16     -46657.789     -52113.486      50.256437    
    459000   224.88638      126681.31     -46509.27      -52000.054      50.223177    
    460000   224.86413      126491.29     -46614.879     -52105.12       50.198053    
    461000   226.86752      126603.36     -46574.538     -52113.694      50.212874    
    462000   227.68801      126889.49     -46503.806     -52062.994      50.250673    
    463000   222.35693      126569.22     -46710.76      -52139.786      50.20836     
    464000   226.63399      126327.78     -46495.282     -52028.736      50.176415    
    465000   226.61934      126554.69     -46612.365     -52145.461      50.206438    
    466000   228.12432      126916.12     -46433.025     -52002.866      50.254188    
    467000   226.25581      126867.45     -46527.17      -52051.39       50.247764    
    468000   227.5692       126361.87     -46565.272     -52121.559      50.180927    
    469000   225.531        126616.94     -46595.174     -52101.697      50.214669    
    470000   225.51482      126470.25     -46618.199     -52124.327      50.195269    
    471000   226.19564      126988.08     -46578.234     -52100.985      50.263685    
    472000   221.90502      126722.28     -46586.667     -52004.659      50.228591    
    473000   228.02032      126464.14     -46459.838     -52027.14       50.194461    
    474000   226.6224       126717.55     -46561.323     -52094.493      50.227966    
    475000   223.32504      126595.72     -46570.333     -52022.996      50.211864    
    476000   227.63881      126161.16     -46593.024     -52151.011      50.154344    
    477000   221.46664      126732.55     -46591.704     -51998.993      50.229948    
    478000   224.59998      126755.77     -46623.775     -52107.566      50.233016    
    479000   225.70784      126241.82     -46619.782     -52130.623      50.165031    
    480000   224.54794      126555.97     -46651.07      -52133.591      50.206608    
    481000   224.95999      126740.15     -46588.539     -52081.121      50.230951    
    482000   228.31098      126199.21     -46556.277     -52130.676      50.159386    
    483000   224.4946       126460.83     -46591.345     -52072.564      50.194023    
    484000   225.96803      126743.83     -46621.41      -52138.603      50.231437    
    485000   222.385        126713.84     -46633.363     -52063.074      50.227476    
    486000   228.23737      126809.15     -46538.298     -52110.899      50.240065    
    487000   224.56881      126593.5      -46608.999     -52092.029      50.211571    
    488000   225.5672       126594.6      -46591.78      -52099.187      50.211716    
    489000   223.87074      126242.41     -46625.418     -52091.404      50.165109    
    490000   226.04941      126853.72     -46592.379     -52111.56       50.245951    
    491000   226.11356      126761.8      -46554.996     -52075.743      50.233812    
    492000   224.25011      126414.76     -46635.287     -52110.536      50.187927    
    493000   228.39034      126562.07     -46458.016     -52034.352      50.207415    
    494000   225.91175      126638.72     -46569.268     -52085.088      50.217548    
    495000   224.30598      126678.42     -46556.868     -52033.482      50.222796    
    496000   222.3601       126539.58     -46612.849     -52041.952      50.204441    
    497000   219.7497       126635.33     -46701.348     -52066.716      50.2171      
    498000   222.43783      126667.01     -46553.363     -51984.364      50.221287    
    499000   227.7274       126474.01     -46664.08      -52224.23       50.195767    
    500000   226.97834      127259.6      -46514.689     -52056.55       50.299482    
    501000   224.13213      126513.85     -46606.839     -52079.208      50.201038    
    502000   226.8268       126704        -46615.344     -52153.505      50.226176    
    503000   226.35705      126936.54     -46645.16      -52171.852      50.256884    
    504000   224.77731      126676.02     -46618.177     -52106.298      50.222478    
    505000   223.402        126784.21     -46751.121     -52205.663      50.236772    
    506000   224.29689      126907.05     -46610.451     -52086.842      50.252991    
    507000   225.37184      126970.04     -46701.974     -52204.611      50.261303    
    508000   224.0827       127171.71     -46658.328     -52129.49       50.2879      
    509000   224.04606      126982.99     -46699.819     -52170.086      50.263013    
    510000   225.63427      126997.97     -46608.513     -52117.558      50.264989    
    511000   224.08039      126898.55     -46639.172     -52110.278      50.251869    
    512000   222.50997      126785.93     -46765.734     -52198.497      50.236999    
    513000   222.57686      127165.35     -46764.247     -52198.642      50.287062    
    514000   221.19727      126331.94     -46793.066     -52193.777      50.176965    
    515000   224.72852      126917.61     -46686.569     -52173.499      50.254384    
    516000   224.47647      127291.78     -46693.638     -52174.414      50.303722    
    517000   225.17994      126721.57     -46566.785     -52064.737      50.228497    
    518000   222.7209       126889.32     -46598.554     -52036.466      50.25065     
    519000   226.85208      126763.52     -46493.467     -52032.245      50.234039    
    520000   230.5218       127013.99     -46461.881     -52090.259      50.267103    
    521000   223.92052      126803.09     -46661.851     -52129.053      50.239265    
    522000   224.89525      127528.36     -46630.115     -52121.116      50.334868    
    523000   221.84199      127217.09     -46782.054     -52198.507      50.293882    
    524000   227.23341      127690.14     -46491.098     -52039.187      50.356142    
    525000   225.11626      126852.98     -46557.947     -52054.344      50.245853    
    526000   223.01788      126732.58     -46657.923     -52103.087      50.229951    
    527000   224.78508      126948.02     -46585.559     -52073.87       50.258398    
    528000   226.87147      126541.96     -46687.247     -52226.499      50.204756    
    529000   225.97912      126952.45     -46456.481     -51973.945      50.258983    
    530000   224.12793      126888.35     -46665.18      -52137.446      50.250523    
    531000   224.74168      126626.13     -46576.515     -52063.766      50.215884    
    532000   225.50273      127228.92     -46584.05      -52089.883      50.295441    
    533000   224.17567      126974.42     -46597.714     -52071.146      50.261882    
    534000   226.05259      127195.01     -46587.478     -52106.736      50.290971    
    535000   224.44178      127502.32     -46740.183     -52220.112      50.331441    
    536000   226.58022      126729.14     -46603.858     -52135.999      50.229498    
    537000   223.87192      127111.28     -46739.377     -52205.392      50.279934    
    538000   226.50916      127296.88     -46674.849     -52205.255      50.304394    
    539000   225.94517      126802.31     -46631.856     -52148.492      50.239162    
    540000   225.99139      127575.67     -46729.475     -52247.239      50.341091    
    541000   224.66964      127386.59     -46531.938     -52017.43       50.316209    
    542000   223.63791      127406.02     -46628.407     -52088.709      50.318765    
    543000   225.00593      127330.07     -46676.037     -52169.74       50.308765    
    544000   222.9195       126771.91     -46804.503     -52247.264      50.235147    
    545000   226.37924      126656.91     -46600.972     -52128.206      50.219952    
    546000   223.06304      126347.08     -46665.702     -52111.968      50.17897     
    547000   224.58501      126674.31     -46544.132     -52027.558      50.222251    
    548000   222.61603      126920.2      -46554.017     -51989.369      50.254727    
    549000   226.67191      126966.99     -46633.971     -52168.35       50.260902    
    550000   223.65286      127038.89     -46659.876     -52120.543      50.270387    
    551000   228.28478      126624.18     -46495.382     -52069.141      50.215627    
    552000   227.74453      126747.61     -46660.54      -52221.108      50.231938    
    553000   227.27832      126638.32     -46506.212     -52055.398      50.217495    
    554000   224.90154      126983.99     -46651.22      -52142.374      50.263145    
    555000   225.84435      126952.94     -46589.269     -52103.443      50.259048    
    556000   225.24047      127027.06     -46527.601     -52027.03       50.268826    
    557000   227.03714      127228.94     -46587.802     -52131.099      50.295443    
    558000   224.86541      126780.71     -46691.623     -52181.895      50.23631     
    559000   225.55067      126515.77     -46603.447     -52110.451      50.201291    
    560000   226.7969       126973.76     -46561.473     -52098.904      50.261795    
    561000   225.9351       126611.38     -46706.538     -52222.928      50.213934    
    562000   223.61252      126874.11     -46671.384     -52131.066      50.248642    
    563000   225.20355      126978.69     -46715.562     -52214.091      50.262446    
    564000   220.50076      126888.61     -46616.279     -51999.985      50.250557    
    565000   227.0738       126539.48     -46502.777     -52046.969      50.204427    
    566000   221.98585      126768.27     -46648.731     -52068.696      50.234666    
    567000   223.51253      126623.29     -46512.793     -51970.033      50.215508    
    568000   225.59628      127258.9      -46547.476     -52055.593      50.29939     
    569000   226.67266      127008.53     -46596.414     -52130.812      50.266383    
    570000   224.77914      127178.31     -46691.639     -52179.804      50.28877     
    571000   225.76358      126190.1      -46741.635     -52253.837      50.15818     
    572000   221.63162      127073.69     -46743.351     -52154.668      50.274977    
    573000   221.36413      126868.97     -46806.141     -52210.927      50.247965    
    574000   225.81367      126847.65     -46598.932     -52112.356      50.245149    
    575000   222.14824      127060.54     -46692.624     -52116.555      50.273243    
    576000   227.01253      127074.37     -46671.167     -52213.863      50.275066    
    577000   224.31661      127355.91     -46606.532     -52083.405      50.312169    
    578000   224.40486      127257.88     -46574.784     -52053.812      50.299256    
    579000   221.47079      127261.8      -46728.489     -52135.879      50.299772    
    580000   225.19766      126968.16     -46689.777     -52188.161      50.261056    
    581000   225.8378       126695.5      -46608.064     -52122.078      50.225052    
    582000   220.77224      127073.99     -46769.326     -52159.66       50.275017    
    583000   222.44462      127091.55     -46683.471     -52114.638      50.277333    
    584000   223.1643       126993.54     -46608.824     -52057.562      50.264404    
    585000   227.29876      127430.8      -46613.665     -52163.349      50.322028    
    586000   221.11087      127233.24     -46791.003     -52189.605      50.29601     
    587000   224.22478      127260.78     -46685.308     -52159.939      50.299639    
    588000   225.77649      127280.79     -46615.455     -52127.972      50.302274    
    589000   229.65955      127374.39     -46498.962     -52106.287      50.314602    
    590000   226.66517      126720        -46682.397     -52216.612      50.22829     
    591000   224.74834      126807.16     -46768.108     -52255.521      50.239803    
    592000   222.76029      127025.73     -46696.918     -52135.793      50.268652    
    593000   227.10884      127205.59     -46581.233     -52126.281      50.292365    
    594000   224.04363      126806.26     -46727.992     -52198.2        50.239684    
    595000   223.29179      126914.39     -46661.282     -52113.133      50.25396     
    596000   225.97796      127321.85     -46657.539     -52174.975      50.307682    
    597000   225.72961      127582.15     -46702.09      -52213.462      50.341942    
    598000   223.34482      127930.25     -46679.695     -52132.841      50.387686    
    599000   225.51654      127301.64     -46736.722     -52242.892      50.305021    
    600000   227.11519      127417.32     -46614.674     -52159.877      50.320253    
    601000   223.60211      127916.93     -46780.745     -52240.173      50.385938    
    602000   224.51171      126843.59     -46643.037     -52124.673      50.244613    
    603000   224.95856      127288.3      -46606.289     -52098.836      50.303264    
    604000   223.99407      127047.79     -46691.093     -52160.091      50.271561    
    605000   225.95787      126459.79     -46618.244     -52135.189      50.193886    
    606000   224.66659      126778.24     -46693.256     -52178.674      50.235984    
    607000   226.12012      127005.48     -46660.325     -52181.232      50.265979    
    608000   227.9728       127299.4      -46442.305     -52008.446      50.304725    
    609000   223.83801      127101.19     -46731.37      -52196.557      50.278603    
    610000   230.06598      126851.46     -46546.161     -52163.409      50.245653    
    611000   226.48507      126993.74     -46620.584     -52150.402      50.264432    
    612000   226.21244      127235.34     -46547.546     -52070.707      50.296286    
    613000   223.61418      126990.16     -46597.708     -52057.431      50.263959    
    614000   222.76193      126322.65     -46761.683     -52200.597      50.175734    
    615000   222.81594      127107.58     -46632.077     -52072.31       50.279446    
    616000   224.95715      127257.53     -46573.901     -52066.414      50.29921     
    617000   224.96062      127210.6      -46640.182     -52132.779      50.293027    
    618000   224.74714      126778.17     -46798.83      -52286.214      50.235974    
    619000   225.20794      126517.78     -46804.401     -52303.036      50.201557    
    620000   228.81383      127017.81     -46601.405     -52188.081      50.267606    
    621000   224.1519       126474.94     -46652.118     -52124.969      50.19589     
    622000   224.56541      126894.01     -46736.203     -52219.151      50.251269    
    623000   223.48738      127295.97     -46745.673     -52202.299      50.304274    
    624000   225.93028      126882.24     -46747.223     -52263.494      50.249716    
    625000   220.47122      126727.92     -46712.49      -52095.475      50.229336    
    626000   225.42727      126707.3      -46675.21      -52179.201      50.226611    
    627000   224.58449      126788.54     -46706.367     -52189.781      50.237343    
    628000   224.297        126928.35     -46669.622     -52146.016      50.255802    
    629000   222.61716      127071        -46847.874     -52283.253      50.274622    
    630000   225.95668      127664.48     -46631.442     -52148.359      50.352769    
    631000   223.31084      127244.8      -46818.046     -52270.363      50.297533    
    632000   225.95185      127262.71     -46731.388     -52248.187      50.299892    
    633000   221.90692      127269.96     -46795.429     -52213.467      50.300847    
    634000   224.14203      127340.15     -46728.252     -52200.862      50.310093    
    635000   226.72552      127160.84     -46568.774     -52104.462      50.286468    
    636000   224.12116      127428.34     -46714.055     -52186.156      50.321704    
    637000   224.66697      126836.98     -46601.071     -52086.498      50.24374     
    638000   226.41665      127518.13     -46558.4       -52086.548      50.333521    
    639000   223.19839      127688.03     -46798.929     -52248.499      50.355865    
    640000   227.54504      127200.49     -46638.209     -52193.907      50.291694    
    641000   225.62507      127251.29     -46645.637     -52154.457      50.298388    
    642000   222.46876      127390.26     -46672.943     -52104.699      50.316692    
    643000   222.38641      127206        -46740.35      -52170.095      50.292419    
    644000   222.56453      127206.64     -46782.496     -52216.591      50.292504    
    645000   224.73152      127729.49     -46621.202     -52108.206      50.361315    
    646000   222.62139      127780.17     -46877.209     -52312.692      50.367974    
    647000   225.30934      127510.76     -46712.711     -52213.823      50.332552    
    648000   222.83157      127516.22     -46822.724     -52263.339      50.33327     
    649000   227.67424      127227.48     -46638.588     -52197.44       50.295251    
    650000   223.51079      127923.63     -46745.238     -52202.436      50.386818    
    651000   223.34034      127145.41     -46809.914     -52262.95       50.284433    
    652000   222.73727      127357.33     -46731.471     -52169.783      50.312356    
    653000   227.67376      126936.79     -46703.915     -52262.756      50.256917    
    654000   227.55965      127047.43     -46753.012     -52309.066      50.271514    
    655000   225.41307      127204.45     -46765.117     -52268.761      50.292215    
    656000   227.65972      127051.21     -46631.306     -52189.804      50.272012    
    657000   223.78564      127010.42     -46711.224     -52175.133      50.266631    
    658000   225.52242      127075.89     -46703.168     -52209.481      50.275268    
    659000   228.0604       127468.88     -46657.898     -52226.179      50.32704     
    660000   225.35046      127496.03     -46825.469     -52327.584      50.330613    
    661000   225.5012       127507.82     -46673.454     -52179.249      50.332165    
    662000   226.92684      127012.11     -46750.391     -52290.995      50.266855    
    663000   221.84056      127323.08     -46779.824     -52196.242      50.307845    
    664000   223.55739      127557.91     -46707.465     -52165.801      50.338755    
    665000   223.34192      127120.61     -46876.134     -52329.209      50.281164    
    666000   224.36422      126849.53     -46792.555     -52270.59       50.245397    
    667000   223.81849      127061.49     -46775.638     -52240.349      50.273368    
    668000   222.21598      127015.71     -46723.866     -52149.45       50.26733     
    669000   225.29047      126863.64     -46636.807     -52137.458      50.247261    
    670000   226.36498      127069.83     -46693.606     -52220.492      50.274468    
    671000   223.79714      127108.88     -46738.726     -52202.915      50.279617    
    672000   228.23571      126823.26     -46858.824     -52431.384      50.241929    
    673000   225.83877      127087.29     -46691.633     -52205.671      50.276771    
    674000   221.97061      126806.49     -46847.192     -52266.786      50.239714    
    675000   225.39378      127357.49     -46574.428     -52077.6        50.312376    
    676000   225.88434      127036.22     -46670.271     -52185.422      50.270035    
    677000   222.5809       127382.81     -46762.542     -52197.036      50.31571     
    678000   224.48133      127458.43     -46674.422     -52155.317      50.325665    
    679000   223.63889      127291.98     -46745.502     -52205.827      50.303748    
    680000   222.28021      127042.31     -46653.078     -52080.23       50.270839    
    681000   224.9122       126873.75     -46625.361     -52116.775      50.248596    
    682000   226.93677      127109.93     -46619.601     -52160.447      50.279756    
    683000   225.26617      127014.26     -46785.948     -52286.005      50.267138    
    684000   227.34767      126759.46     -46709.171     -52260.05       50.233502    
    685000   221.98299      126689.33     -46726.214     -52146.11       50.224237    
    686000   225.92199      126761.4      -46809.882     -52325.952      50.233759    
    687000   228.50522      126843.57     -46537.821     -52116.963      50.244611    
    688000   224.529        127351.27     -46737.107     -52219.166      50.311558    
    689000   224.81058      126986.15     -46642.955     -52131.888      50.26343     
    690000   228.70971      127019.59     -46708.008     -52292.142      50.267841    
    691000   231.9215       127204.77     -46584.159     -52246.712      50.292258    
    692000   223.90709      127035.76     -46775.892     -52242.766      50.269974    
    693000   224.6511       126933.62     -46752.033     -52237.072      50.256499    
    694000   226.79708      126885.65     -46634.153     -52171.589      50.250166    
    695000   224.95515      127078.25     -46723.784     -52216.248      50.275579    
    696000   223.8019       126895.4      -46663.262     -52127.568      50.251454    
    697000   227.19188      126499.08     -46745.656     -52292.731      50.199083    
    698000   224.58082      126777.13     -46738.272     -52221.596      50.235836    
    699000   224.90191      126963.47     -46750.968     -52242.131      50.260438    
    700000   225.27613      127099.85     -46642.024     -52142.325      50.278427    
    701000   221.93014      126561.47     -46709.906     -52128.511      50.207335    
    702000   225.07184      127056.38     -46823.83      -52319.143      50.272693    
    703000   225.19796      126858.76     -46669.99      -52168.382      50.246616    
    704000   225.8439       126680.79     -46752.339     -52266.502      50.223108    
    705000   222.11888      126877.79     -46832.143     -52255.357      50.249128    
    706000   226.6888       127129.7      -46668.275     -52203.067      50.282363    
    707000   224.77564      126999.14     -46622.576     -52110.656      50.265144    
    708000   228.55525      127077.51     -46486.917     -52067.28       50.275481    
    709000   225.14042      127133.44     -46661.571     -52158.558      50.282855    
    710000   227.40108      126884.17     -46874.46      -52426.643      50.249971    
    711000   225.43331      126723.02     -46850.938     -52355.076      50.228688    
    712000   226.88422      126589.6      -46726.083     -52265.646      50.211054    
    713000   222.46246      126430.24     -46873.255     -52304.857      50.189976    
    714000   227.34067      127247.98     -46659.878     -52210.586      50.297952    
    715000   226.42789      126965.65     -46656.048     -52184.469      50.260724    
    716000   228.65578      126480.15     -46524.547     -52107.364      50.196579    
    717000   223.63679      126438.88     -46769.819     -52230.093      50.191119    
    718000   225.36615      126193.95     -46714.396     -52216.894      50.15869     
    719000   225.22333      126411.95     -46627.983     -52126.995      50.187555    
    720000   225.54715      126890.21     -46614.48      -52121.398      50.250768    
    721000   222.03917      126520.04     -46760.322     -52181.589      50.201855    
    722000   221.99318      126950.26     -46631.595     -52051.74       50.258694    
    723000   224.25026      126507.59     -46706.945     -52182.198      50.200209    
    724000   225.97956      127126.48     -46664.917     -52182.392      50.281938    
    725000   226.44797      127117.77     -46526.011     -52054.923      50.28079     
    726000   226.49163      126445.56     -46647.141     -52177.118      50.192003    
    727000   223.94725      126881.77     -46712.928     -52180.783      50.249654    
    728000   222.93246      126809.44     -46613.783     -52056.861      50.240103    
    729000   224.47895      127468.23     -46592.689     -52073.525      50.326955    
    730000   221.42363      127247.14     -46714.487     -52120.726      50.297841    
    731000   226.14901      127088.39     -46677.873     -52199.485      50.276916    
    732000   229.2647       127099.12     -46580.783     -52178.467      50.27833     
    733000   224.31764      127047.44     -46711.89      -52188.788      50.271515    
    734000   226.47372      127312.54     -46585.99      -52115.53       50.306456    
    735000   225.34459      127222.58     -46652.537     -52154.509      50.294604    
    736000   226.31184      127012.04     -46627.125     -52152.713      50.266845    
    737000   221.24956      126961.05     -46748.857     -52150.845      50.260118    
    738000   221.71237      126996.8      -46734.802     -52148.09       50.264835    
    739000   224.79449      127129.75     -46688.753     -52177.293      50.282369    
    740000   225.85211      126905.35     -46746.45      -52260.813      50.252767    
    741000   225.9587       127259.77     -46605.775     -52122.741      50.299505    
    742000   223.64314      126991.58     -46769.724     -52230.153      50.264147    
    743000   222.56491      127232.72     -46805.142     -52239.245      50.295941    
    744000   224.52266      126955.27     -46656.655     -52138.558      50.259355    
    745000   227.07366      126714.7      -46486.639     -52030.827      50.227589    
    746000   223.49087      126646.93     -46727.689     -52184.401      50.218633    
    747000   226.87076      126650.78     -46559.524     -52098.759      50.219142    
    748000   229.97683      127090.79     -46510.514     -52125.585      50.277232    
    749000   227.16276      127526.73     -46658.023     -52204.387      50.334652    
    750000   222.22649      126997.39     -46684.836     -52110.677      50.264913    
    751000   224.09903      127100.68     -46667.008     -52138.569      50.278536    
    752000   225.18051      126976.79     -46628.67      -52126.635      50.262195    
    753000   224.20013      127389.88     -46529.998     -52004.027      50.316642    
    754000   222.77449      127075.49     -46701.705     -52140.926      50.275214    
    755000   222.83506      127158.81     -46677.625     -52118.324      50.2862      
    756000   224.60366      126805.41     -46728.808     -52212.689      50.239572    
    757000   224.41007      127404.89     -46615.644     -52094.799      50.318617    
    758000   225.64153      127259.96     -46639.695     -52148.917      50.29953     
    759000   223.40815      127030.54     -46776.807     -52231.499      50.269285    
    760000   224.9309       127057.83     -46611.016     -52102.888      50.272886    
    761000   224.46137      127570.96     -46687.888     -52168.295      50.340471    
    762000   222.67231      127352.88     -46759.52      -52196.245      50.311769    
    763000   225.80067      127244.91     -46552.239     -52065.346      50.297547    
    764000   223.47016      127363.28     -46702.265     -52158.472      50.313139    
    765000   227.61627      127154.07     -46574.177     -52131.614      50.285575    
    766000   226.2543       126942.3      -46563.182     -52087.365      50.257644    
    767000   226.4175       127572.23     -46593.067     -52121.235      50.340638    
    768000   226.07019      127192.62     -46612.601     -52132.289      50.290657    
    769000   223.06409      127292.76     -46711.16      -52157.452      50.303851    
    770000   224.13062      127225.51     -46695.917     -52168.249      50.29499     
    771000   228.86809      127706.16     -46536.263     -52124.264      50.358248    
    772000   225.1663       127708.47     -46719.278     -52216.896      50.358551    
    773000   222.99907      127201.64     -46701.246     -52145.95       50.291845    
    774000   228.92276      127108.83     -46478.127     -52067.463      50.279611    
    775000   226.49193      127249.03     -46655.082     -52185.068      50.29809     
    776000   225.3561       126934.64     -46655.581     -52157.834      50.256633    
    777000   224.53159      127244.01     -46661.6       -52143.722      50.297429    
    778000   225.80714      127654.67     -46514.147     -52027.412      50.35148     
    779000   222.12616      127389.3      -46674.359     -52097.75       50.316565    
    780000   225.91885      126913.69     -46602.846     -52118.839      50.253868    
    781000   228.1234       127038.11     -46696.698     -52266.517      50.270284    
    782000   225.12291      126854.92     -46681.415     -52177.975      50.246109    
    783000   229.65082      127181.64     -46613.297     -52220.409      50.28921     
    784000   222.60906      127503.45     -46709.238     -52144.419      50.331589    
    785000   224.55289      126953.09     -46704.396     -52187.038      50.259067    
    786000   221.75647      126885.33     -46753.147     -52167.512      50.250124    
    787000   225.15649      126942.17     -46777.252     -52274.631      50.257626    
    788000   225.01084      127137.49     -46672.95      -52166.773      50.283389    
    789000   224.63941      127715.93     -46712.443     -52197.197      50.359533    
    790000   224.66259      126948.2      -46697.199     -52182.519      50.258422    
    791000   223.85334      127094.21     -46736.318     -52201.88       50.277683    
    792000   221.82398      126669.28     -46712.059     -52128.072      50.221587    
    793000   226.33082      127213.69     -46670.861     -52196.913      50.293433    
    794000   220.4641       126850.06     -46777.848     -52160.659      50.245467    
    795000   228.16829      126654.42     -46572.089     -52143.004      50.219623    
    796000   225.71595      126626.46     -46651.328     -52162.367      50.215928    
    797000   222.94786      126689.04     -46671.505     -52114.959      50.224199    
    798000   226.00261      126877.25     -46656.513     -52174.55       50.249057    
    799000   226.86069      127155.74     -46685.246     -52224.235      50.285796    
    800000   224.25686      127095.65     -46671.631     -52147.045      50.277873    
    801000   223.07052      127204.76     -46800.438     -52246.886      50.292257    
    802000   224.27072      127324        -46704.44      -52180.192      50.307966    
    803000   226.81255      127626.06     -46634.214     -52172.027      50.347718    
    804000   225.31387      127228.71     -46712.426     -52213.648      50.295412    
    805000   222.27761      127141.87     -46877.617     -52304.706      50.283968    
    806000   223.31091      127378        -46655.948     -52108.266      50.315077    
    807000   221.65797      127221.09     -46663.907     -52075.867      50.294408    
    808000   223.37585      127569.77     -46753.731     -52207.635      50.340315    
    809000   227.56905      127783.89     -46650.094     -52206.378      50.368464    
    810000   223.5508       127331.06     -46651.837     -52110.012      50.308895    
    811000   225.40162      127211.57     -46693.265     -52196.63       50.293154    
    812000   225.46681      126857.61     -46588.565     -52093.521      50.246465    
    813000   223.74066      127076.35     -46572.546     -52035.357      50.275327    
    814000   223.81742      127257.6      -46669.603     -52134.288      50.299219    
    815000   224.14893      126968.19     -46625.556     -52098.335      50.26106     
    816000   228.00168      126256.39     -46656.695     -52223.542      50.166961    
    817000   221.9942       126421.43     -46752.683     -52172.852      50.18881     
    818000   222.30648      126945.17     -46645.786     -52073.58       50.258022    
    819000   224.60946      126986.55     -46517.625     -52001.649      50.263483    
    820000   223.71666      126524.93     -46675.398     -52137.623      50.202503    
    821000   228.08847      126996.27     -46479.578     -52048.544      50.264765    
    822000   227.89116      126624.32     -46602.081     -52166.23       50.215645    
    823000   220.72053      127091.16     -46692.87      -52081.942      50.277281    
    824000   228.2082       127119.13     -46558.168     -52130.057      50.280969    
    825000   229.9917       126676.72     -46447.176     -52062.611      50.22257     
    826000   222.74557      127319.88     -46675.458     -52113.973      50.307423    
    827000   228.54535      127122.96     -46470.533     -52050.654      50.281473    
    828000   228.19605      126894.56     -46664.069     -52235.662      50.251342    
    829000   225.31426      126712.93     -46533.515     -52034.746      50.227355    
    830000   224.78281      126449.43     -46589.031     -52077.287      50.192515    
    831000   226.34689      127191.76     -46457.04      -51983.484      50.290542    
    832000   223.63552      126916.42     -46587.2       -52047.444      50.254227    
    833000   221.80471      126750.01     -46642.03      -52057.573      50.232254    
    834000   223.07477      127000.21     -46697.385     -52143.938      50.265285    
    835000   227.34092      127367.01     -46560.195     -52110.909      50.313629    
    836000   225.38357      127589.23     -46621.662     -52124.586      50.342875    
    837000   226.66263      127474.82     -46680.941     -52215.094      50.327822    
    838000   223.0427       127127.55     -46709.318     -52155.088      50.282079    
    839000   228.65201      127054.83     -46612.869     -52195.595      50.272489    
    840000   227.42589      126830.46     -46610.819     -52163.608      50.242879    
    841000   226.98184      127153.8      -46658.849     -52200.795      50.285539    
    842000   222.37399      127492.1      -46749.685     -52179.127      50.330096    
    843000   225.43002      127426        -46638.607     -52142.665      50.321396    
    844000   225.25697      127842.25     -46789.114     -52288.947      50.37613     
    845000   224.55779      127054.86     -46695.007     -52177.768      50.272493    
    846000   224.98438      127447.24     -46627.484     -52120.661      50.324192    
    847000   224.08075      127474.4      -46734.671     -52205.785      50.327767    
    848000   225.15027      127176.8      -46830.037     -52327.264      50.288572    
    849000   224.36216      127093.54     -46696.93      -52174.915      50.277594    
    850000   224.14833      126971.6      -46768.146     -52240.91       50.26151     
    851000   225.12306      127103.22     -46740.831     -52237.394      50.27887     
    852000   226.18867      127216.61     -46618.184     -52140.765      50.293818    
    853000   228.58113      126719.24     -46604.769     -52185.764      50.228189    
    854000   224.01167      127079.14     -46681.142     -52150.569      50.275696    
    855000   225.68029      127379.12     -46665.746     -52175.914      50.315225    
    856000   224.41084      126966.9      -46745.647     -52224.82       50.26089     
    857000   223.62011      127038.64     -46751.403     -52211.27       50.270354    
    858000   225.44026      127323.17     -46721.081     -52225.389      50.307857    
    859000   224.83822      127085.63     -46682.693     -52172.301      50.276552    
    860000   224.80194      126888.57     -46669.573     -52158.295      50.250551    
    861000   225.89375      127072        -46745.539     -52260.919      50.274754    
    862000   226.49967      126693.64     -46683.515     -52213.69       50.224806    
    863000   226.32621      126918.31     -46739.979     -52265.917      50.254477    
    864000   224.59477      127697.22     -46584.826     -52068.49       50.357074    
    865000   225.28048      127162.62     -46695.061     -52195.468      50.286703    
    866000   227.06589      127682.56     -46649.485     -52193.484      50.355147    
    867000   223.82591      126873.37     -46719.088     -52183.98       50.248545    
    868000   223.7565       126755.24     -46704.367     -52167.565      50.232945    
    869000   225.64607      127267.85     -46694.526     -52203.858      50.30057     
    870000   223.8881       126442.12     -46707.51      -52173.921      50.191548    
    871000   224.68381      126900.06     -46615.682     -52101.52       50.252068    
    872000   222.18856      126696.01     -46705.357     -52130.271      50.22512     
    873000   227.73064      127105.68     -46577.786     -52138.015      50.279196    
    874000   224.91662      126879.48     -46691.503     -52183.026      50.249352    
    875000   229.23295      127241.07     -46608.349     -52205.259      50.297041    
    876000   223.25613      127215.61     -46674.542     -52125.523      50.293686    
    877000   226.61594      126706.38     -46588.992     -52122.005      50.22649     
    878000   225.60318      127195.94     -46709.383     -52217.668      50.291094    
    879000   220.42343      127110.47     -46934.541     -52316.359      50.279826    
    880000   223.81812      127139.3      -46750.056     -52214.758      50.283628    
    881000   224.77874      127419.46     -46599.239     -52087.395      50.320535    
    882000   221.44569      127387.35     -46771.827     -52178.604      50.316308    
    883000   224.74595      127194.46     -46674.814     -52162.17       50.290899    
    884000   223.31411      127343.24     -46790.819     -52243.215      50.310499    
    885000   227.67739      127774.26     -46628.687     -52187.616      50.367198    
    886000   222.08437      127487.26     -46772.953     -52195.324      50.329459    
    887000   224.2827       127290.63     -46666.78      -52142.825      50.303571    
    888000   226.74095      127455.24     -46612.757     -52148.823      50.325245    
    889000   225.83569      127500.8      -46637.769     -52151.732      50.331241    
    890000   222.77894      127226.9      -46592.762     -52032.091      50.295174    
    891000   223.98192      127059.57     -46723.021     -52191.722      50.273115    
    892000   226.95864      127452.95     -46681.647     -52223.027      50.324944    
    893000   222.45365      127533.25     -46816.408     -52247.795      50.33551     
    894000   224.40106      127451.01     -46676.634     -52155.569      50.324688    
    895000   226.4962       127114.74     -46656.075     -52186.164      50.28039     
    896000   223.10113      127495.54     -46663.384     -52110.58       50.330548    
    897000   221.22386      127479.34     -46598.208     -51999.569      50.328417    
    898000   224.81804      127544.19     -46751.653     -52240.768      50.33695     
    899000   227.60116      127943.06     -46581.278     -52138.345      50.389367    
    900000   226.8315       127201.27     -46667.046     -52205.322      50.291797    
    901000   228.58678      127525.21     -46667.761     -52248.893      50.334452    
    902000   223.91679      127199.26     -46756.587     -52223.698      50.291531    
    903000   224.79943      127720.74     -46727.787     -52216.448      50.360165    
    904000   225.39396      127487.14     -46749.092     -52252.269      50.329443    
    905000   225.2669       127569.58     -46736.941     -52237.016      50.34029     
    906000   226.22291      127627.15     -46719.619     -52243.036      50.347861    
    907000   222.5488       127477.48     -46616.03      -52049.74       50.328173    
    908000   223.28584      127169.41     -46688.953     -52140.658      50.287597    
    909000   226.54083      127274.69     -46623.249     -52154.428      50.301471    
    910000   222.39222      127363.12     -46626.26      -52056.147      50.313117    
    911000   225.28742      127561.45     -46732.439     -52233.015      50.339219    
    912000   226.76793      127600.8      -46626.47      -52163.194      50.344396    
    913000   226.00272      127079.34     -46624.585     -52142.626      50.275723    
    914000   222.73301      127449.75     -46630.887     -52069.095      50.324522    
    915000   225.9486       127685.02     -46621.791     -52138.51       50.355469    
    916000   226.37351      127301.23     -46584.981     -52112.075      50.304967    
    917000   224.32875      127422.36     -46677.864     -52155.034      50.320918    
    918000   228.01059      127390.6      -46662.242     -52229.307      50.316735    
    919000   223.73074      127558.5      -46728.177     -52190.745      50.338831    
    920000   224.94474      127266.81     -46685         -52177.21       50.300433    
    921000   225.33935      127493.54     -46691.316     -52193.16       50.330285    
    922000   223.64045      126734.19     -46706.189     -52166.553      50.230164    
    923000   222.44629      127342.9      -46712.567     -52143.774      50.310455    
    924000   224.34074      127489.84     -46704.551     -52182.013      50.329799    
    925000   224.83434      128003.34     -46581.902     -52071.416      50.397281    
    926000   224.30623      128118.86     -46698.293     -52174.912      50.412437    
    927000   226.0434       127657.6      -46578.877     -52097.911      50.351865    
    928000   224.92306      128161.53     -46598.204     -52089.883      50.418032    
    929000   221.90801      127224.55     -46670.994     -52089.059      50.294864    
    930000   226.22509      127485.49     -46527.141     -52050.611      50.329227    
    931000   226.73281      127451.08     -46666.169     -52202.036      50.324697    
    932000   223.52871      127711.49     -46623.81      -52081.446      50.358949    
    933000   227.6309       127144.84     -46644.022     -52201.816      50.284359    
    934000   225.51627      127058.06     -46551.403     -52057.566      50.272915    
    935000   223.33237      126887.16     -46775.132     -52227.974      50.250365    
    936000   227.48226      127204.32     -46618.6       -52172.765      50.292198    
    937000   226.527        127657.45     -46551.573     -52082.414      50.351845    
    938000   226.48235      127006.89     -46596.514     -52126.265      50.266166    
    939000   223.8457       127032.89     -46692.68      -52158.055      50.269595    
    940000   226.36049      127177.21     -46698.302     -52225.078      50.288625    
    941000   223.12731      127308.39     -46821.169     -52269.004      50.30591     
    942000   225.51126      127070.52     -46618.778     -52124.819      50.274559    
    943000   226.27237      126641.35     -46608.388     -52133.012      50.217896    
    944000   229.18622      127542.58     -46496.573     -52092.341      50.336738    
    945000   224.12156      127093.03     -46661.559     -52133.67       50.277528    
    946000   229.03358      127110.06     -46588.689     -52180.731      50.279773    
    947000   225.73924      127401.83     -46598.775     -52110.383      50.318215    
    948000   225.20012      127783.84     -46642.216     -52140.66       50.368457    
    949000   227.80405      127633.61     -46577.817     -52139.839      50.34871     
    950000   224.26013      126784.28     -46691.899     -52167.393      50.236781    
    951000   225.86645      127143.97     -46582.148     -52096.862      50.284244    
    952000   229.26284      127627.47     -46551.771     -52149.41       50.347904    
    953000   223.55238      127023.91     -46614.882     -52073.096      50.268411    
    954000   224.71319      127627.39     -46713.583     -52200.139      50.347892    
    955000   227.60864      127195.73     -46517.396     -52074.647      50.291066    
    956000   226.05379      127475.47     -46621.024     -52140.312      50.327908    
    957000   222.12956      126981.59     -46757.307     -52180.781      50.262828    
    958000   229.15262      126979.73     -46546.509     -52141.457      50.262582    
    959000   226.6975       127248.82     -46646.926     -52181.931      50.298063    
    960000   226.66448      126879.21     -46599.021     -52133.219      50.249316    
    961000   228.75113      127104.05     -46538.63      -52123.775      50.27898     
    962000   226.19834      127082.69     -46649.782     -52172.598      50.276164    
    963000   224.44519      127300        -46721.716     -52201.728      50.304805    
    964000   223.8194       127369.19     -46669.14      -52133.874      50.313917    
    965000   225.35506      127599.61     -46470.097     -51972.325      50.344239    
    966000   226.52541      127049.22     -46627.535     -52158.337      50.271749    
    967000   223.55009      127405.97     -46638.994     -52097.152      50.31876     
    968000   223.67742      127949.98     -46723.318     -52184.585      50.390276    
    969000   224.74801      127413.98     -46684.995     -52172.401      50.319814    
    970000   226.91177      127541.06     -46628.874     -52169.11       50.336537    
    971000   226.39534      127123.47     -46589.141     -52116.768      50.281541    
    972000   223.92457      127598.65     -46621.114     -52088.415      50.344114    
    973000   228.0193       128108.77     -46588.568     -52155.845      50.411113    
    974000   227.0711       126907.48     -46687.623     -52231.749      50.253048    
    975000   227.27523      127218.1      -46591.995     -52141.105      50.294015    
    976000   224.62042      127525.93     -46645.583     -52129.874      50.334547    
    977000   225.47874      127878.86     -46652.828     -52158.075      50.380939    
    978000   226.04933      127461.53     -46627.955     -52147.134      50.326073    
    979000   224.90569      127269.27     -46591.92      -52083.176      50.300757    
    980000   225.18448      127454.03     -46693.167     -52191.23       50.325086    
    981000   223.6717       126972.13     -46579.581     -52040.708      50.261579    
    982000   224.2282       127527.11     -46660.281     -52134.995      50.334702    
    983000   223.8784       127415.26     -46642.906     -52109.079      50.319983    
    984000   223.63036      127336.85     -46576.161     -52036.278      50.309658    
    985000   221.39997      127156.41     -46718.811     -52124.472      50.285883    
    986000   226.08502      127246.65     -46566.307     -52086.357      50.297776    
    987000   226.30846      127390.61     -46576.13      -52101.636      50.316737    
    988000   226.63283      127511.09     -46555.585     -52089.011      50.332594    
    989000   225.91585      127642.96     -46560.12      -52076.04       50.34994     
    990000   227.26405      127203.4      -46671.351     -52220.188      50.292077    
    991000   226.69295      127280.51     -46608.709     -52143.602      50.302238    
    992000   229.03821      126893.12     -46463.78      -52055.934      50.251152    
    993000   228.42275      127322.1      -46570.567     -52147.695      50.307716    
    994000   227.05884      127397.9      -46594.608     -52138.434      50.317698    
    995000   224.60602      127662.16     -46590.019     -52073.958      50.352465    
    996000   221.72298      127817.04     -46750.16      -52163.707      50.372819    
    997000   224.92698      127445.81     -46677.367     -52169.142      50.324004    
    998000   225.66348      127494.8      -46642.188     -52151.946      50.330452    
    999000   225.96149      127444.5      -46565.96      -52082.994      50.323832    
   1000000   225.20722      127095.65     -46586.666     -52085.283      50.277873    
   1001000   225.13176      127008.46     -46707.745     -52204.52       50.266373    
   1002000   226.24516      127482.31     -46518.488     -52042.448      50.328807    
   1003000   222.16912      127099.17     -46732.867     -52157.307      50.278337    
   1004000   227.25912      127027.83     -46637.388     -52186.105      50.268929    
   1005000   220.91971      126901.91     -46725.096     -52119.031      50.252313    
   1006000   223.8164       127018.41     -46514.205     -51978.865      50.267686    
   1007000   224.2194       126983.97     -46680.018     -52154.517      50.263142    
   1008000   223.78208      127338.71     -46557.582     -52021.404      50.309903    
   1009000   224.29848      127328.97     -46594.3       -52070.731      50.30862     
   1010000   225.63915      127179.01     -46523.76      -52032.924      50.288862    
   1011000   226.465        127235.69     -46477.275     -52006.602      50.296332    
   1012000   227.34597      127351.68     -46492.551     -52043.388      50.311611    
   1013000   224.23434      127164.55     -46654.394     -52129.258      50.286957    
   1014000   224.9296       127219.59     -46628.345     -52120.185      50.294211    
   1015000   223.6734       127003.77     -46622.151     -52083.319      50.265754    
   1016000   228.0421       126893.2      -46526.73      -52094.564      50.251163    
   1017000   226.2757       127078.56     -46566.445     -52091.151      50.275619    
   1018000   221.50112      127274.94     -46776.845     -52184.975      50.301504    
   1019000   227.54673      126959.22     -46515.103     -52070.842      50.259877    
   1020000   226.3019       127386.84     -46654.936     -52180.281      50.316241    
   1021000   226.22361      127805.36     -46535.275     -52058.708      50.371284    
   1022000   229.15674      126499.26     -46455.54      -52050.589      50.199108    
   1023000   224.78343      127152.48     -46426.124     -51914.395      50.285365    
   1024000   223.55055      127122.45     -46557.037     -52015.206      50.281407    
   1025000   224.74935      126992.19     -46507.305     -51994.743      50.264226    
   1026000   224.37163      126717.63     -46596.146     -52074.362      50.227977    
   1027000   227.68372      126940.03     -46434.794     -51993.877      50.257344    
   1028000   224.77159      127164.54     -46567.33      -52055.311      50.286956    
   1029000   227.39499      127367.88     -46333.426     -51885.46       50.313744    
   1030000   222.37912      126568.27     -46530.14      -51959.708      50.208235    
   1031000   224.4301       127370.09     -46525.895     -52005.539      50.314035    
   1032000   218.98414      126833.51     -46664.008     -52010.684      50.243282    
   1033000   226.94213      126838.92     -46575.754     -52116.731      50.243997    
   1034000   230.34495      126668.98     -46318.353     -51942.413      50.221547    
   1035000   223.41715      127270.59     -46505.817     -51960.729      50.30093     
   1036000   223.81211      126602.18     -46558.064     -52022.619      50.212717    
   1037000   228.05021      126041.49     -46494.437     -52062.469      50.138481    
   1038000   226.63881      126402.23     -46586.428     -52119.999      50.186269    
   1039000   226.87942      126806.09     -46416.048     -51955.494      50.239661    
   1040000   226.80831      126629.59     -46507.899     -52045.609      50.216342    
   1041000   223.4633       126360.03     -46654.275     -52110.313      50.180683    
   1042000   223.77189      126686.67     -46554.481     -52018.054      50.223886    
   1043000   226.2165       126918.45     -46325.497     -51848.758      50.254496    
   1044000   223.75899      126351.93     -46633.182     -52096.44       50.179611    
   1045000   225.11484      126168.24     -46443.061     -51939.423      50.155283    
   1046000   224.86294      126829.47     -46548.428     -52038.64       50.242749    
   1047000   222.99944      126824.56     -46554.298     -51999.011      50.242101    
   1048000   225.85671      126856.38     -46618.342     -52132.817      50.246303    
   1049000   226.93828      126610.27     -46511.968     -52052.851      50.213787    
   1050000   226.67956      126417.97     -46546.863     -52081.43       50.188352    
   1051000   225.95364      126590.66     -46592.315     -52109.157      50.211195    
   1052000   228.78154      125962.99     -46423.989     -52009.877      50.128071    
   1053000   223.51478      126787.85     -46582.882     -52040.177      50.237253    
   1054000   226.03143      126468.25     -46468.826     -51987.568      50.195005    
   1055000   224.0038       127224.11     -46578.57      -52047.805      50.294807    
   1056000   226.01901      126393.03     -46542.07      -52060.508      50.185052    
   1057000   226.07377      126568.67     -46491.308     -52011.084      50.208288    
   1058000   219.4409       126181.58     -46775.534     -52133.362      50.157051    
   1059000   227.4461       126369.66     -46465.223     -52018.505      50.181958    
   1060000   224.38716      126219.63     -46454.553     -51933.148      50.162091    
   1061000   224.619        125770.39     -46483.996     -51968.252      50.102508    
   1062000   225.90345      126733.29     -46432.491     -51948.108      50.230045    
   1063000   224.28683      125960.75     -46557.094     -52033.239      50.127773    
   1064000   223.77949      126505.19     -46586.688     -52050.447      50.199892    
   1065000   228.87986      126151.02     -46438.681     -52026.969      50.153001    
   1066000   222.85073      126556.93     -46582.253     -52023.335      50.206734    
   1067000   225.25045      126137.02     -46434.121     -51933.794      50.151145    
   1068000   225.80613      125538.09     -46577.126     -52090.367      50.071642    
   1069000   225.25893      126285.2      -46543.059     -52042.94       50.170776    
   1070000   226.62754      125567.99     -46529.218     -52062.514      50.075618    
   1071000   226.54618      126168.11     -46544.519     -52075.829      50.155266    
   1072000   228.20026      125753.32     -46422.145     -51993.84       50.100241    
   1073000   225.08687      125850.39     -46581.777     -52077.456      50.113129    
   1074000   224.68552      126175.04     -46508.439     -51994.319      50.156184    
   1075000   223.71488      126438.02     -46472.071     -51934.252      50.191005    
   1076000   226.38531      125696.52     -46502.616     -52029.998      50.092697    
   1077000   228.5769       126119.26     -46236.245     -51817.136      50.148792    
   1078000   223.01186      125827.43     -46542.96      -51987.976      50.110081    
   1079000   229.10554      126142.01     -46477.689     -52071.488      50.151807    
   1080000   227.94249      125997.9      -46418.515     -51983.917      50.1327      
   1081000   225.98814      126145.07     -46536.473     -52054.158      50.152213    
   1082000   222.38711      125744.54     -46562.095     -51991.857      50.099076    
   1083000   227.11117      125852.31     -46477.361     -52022.465      50.113384    
   1084000   223.15618      126080.21     -46590.513     -52039.053      50.143615    
   1085000   227.84999      126083.22     -46345.27      -51908.413      50.144014    
   1086000   227.05436      125970.95     -46476.981     -52020.698      50.129126    
   1087000   221.45472      125860.42     -46571.608     -51978.605      50.11446     
   1088000   225.87269      126115.39     -46442.945     -51957.811      50.148279    
   1089000   227.88091      126337.02     -46425.797     -51989.695      50.177637    
   1090000   223.11167      126375.95     -46630.835     -52078.289      50.182791    
   1091000   227.68641      125935.58     -46480.729     -52039.879      50.124435    
   1092000   225.50338      126248.16     -46568.355     -52074.204      50.165871    
   1093000   228.92977      126332.97     -46461.278     -52050.785      50.177101    
   1094000   223.80221      126437.76     -46531.944     -51996.258      50.190971    
   1095000   227.70479      126282.14     -46456.245     -52015.843      50.17037     
   1096000   223.99152      126330.31     -46551.243     -52020.178      50.176749    
   1097000   226.53199      126008.76     -46548.152     -52079.115      50.134141    
   1098000   225.6454       126630.91     -46363.607     -51872.923      50.216516    
   1099000   224.3496       126581.27     -46549.938     -52027.616      50.209953    
   1100000   226.64961      126619.89     -46493.074     -52026.909      50.215059    
   1101000   225.58344      126301.87     -46625.278     -52133.081      50.172983    
   1102000   224.98456      126468.07     -46503.199     -51996.381      50.194981    
   1103000   220.84651      127067.36     -46709.23      -52101.378      50.274143    
   1104000   226.60074      126148.01     -46494.917     -52027.559      50.152602    
   1105000   228.39893      126883.53     -46386.872     -51963.419      50.249887    
   1106000   228.27578      126274.2      -46370.103     -51943.642      50.169319    
   1107000   226.0099       126460.33     -46564.483     -52082.699      50.193957    
   1108000   223.6871       126532.09     -46506.096     -51967.599      50.20345     
   1109000   218.93248      126815.68     -46590.663     -51936.078      50.240928    
   1110000   225.52473      126515.2      -46422.04      -51928.41       50.201216    
   1111000   223.58829      126227.95     -46590.265     -52049.356      50.163194    
   1112000   225.18319      126603.61     -46473.271     -51971.302      50.212906    
   1113000   223.24481      126382.4      -46581.814     -52032.518      50.183645    
   1114000   227.00769      126744.43     -46441.435     -51984.013      50.231516    
   1115000   226.06848      126561.04     -46671.675     -52191.321      50.207278    
   1116000   226.23427      126551.4      -46458.525     -51982.219      50.206003    
   1117000   223.25894      126583.58     -46571.743     -52022.792      50.210258    
   1118000   226.86002      126594.35     -46567.035     -52106.007      50.211683    
   1119000   223.19441      126462.21     -46631.018     -52080.492      50.194206    
   1120000   224.14341      126660.07     -46635.747     -52108.391      50.22037     
   1121000   228.29186      126978.33     -46368.481     -51942.413      50.262397    
   1122000   227.04693      126820.29     -46467.756     -52011.292      50.241537    
   1123000   222.90121      126565.04     -46639.994     -52082.309      50.207807    
   1124000   223.91418      126897.76     -46639.968     -52107.015      50.251765    
   1125000   223.57593      126346.61     -46518.832     -51977.621      50.178907    
   1126000   222.40178      126544.45     -46744.185     -52174.306      50.205085    
   1127000   224.7181       126747.33     -46590.104     -52076.78       50.2319      
   1128000   224.00513      126689.68     -46702.265     -52171.533      50.224283    
   1129000   226.94937      126224.25     -46569.13      -52110.284      50.162704    
   1130000   226.00932      126924.75     -46655.764     -52173.966      50.255327    
   1131000   222.18789      126723.48     -46818.055     -52242.954      50.22875     
   1132000   225.6382       127021.04     -46516.4       -52025.541      50.268032    
   1133000   223.36171      127224.38     -46642.987     -52096.545      50.294842    
   1134000   225.90441      126807.27     -46587.132     -52102.773      50.239817    
   1135000   223.30786      127002.42     -46702.083     -52154.327      50.265576    
   1136000   222.9066       127370.94     -46644.376     -52086.823      50.314148    
   1137000   223.65081      126421.73     -46563.08      -52023.697      50.18885     
   1138000   226.98992      126526.84     -46518.233     -52060.377      50.202756    
   1139000   224.47717      126623.68     -46795.616     -52276.409      50.215561    
   1140000   223.8156       127396.79     -46549.733     -52014.373      50.317551    
   1141000   228.7809       126747.11     -46597.914     -52183.786      50.231871    
   1142000   225.5653       127306.77     -46595.511     -52102.871      50.305697    
   1143000   223.38475      126502.97     -46632.669     -52086.79       50.199598    
   1144000   226.49053      127412.01     -46460.993     -51990.944      50.319555    
   1145000   222.80949      126331.32     -46703.237     -52143.312      50.176883    
   1146000   227.43747      126564.73     -46537.206     -52090.277      50.207766    
   1147000   224.27152      126396.75     -46634.184     -52109.956      50.185544    
   1148000   223.73078      126827.6      -46585.597     -52048.166      50.242502    
   1149000   223.67475      126650.41     -46600.324     -52061.526      50.219093    
   1150000   222.25107      126749.31     -46632.56      -52059.001      50.232161    
   1151000   223.35485      126597.1      -46569.237     -52022.627      50.212046    
   1152000   223.75517      126698.66     -46690.307     -52153.471      50.225469    
   1153000   225.76131      126628.22     -46617.705     -52129.852      50.21616     
   1154000   227.13112      126541.18     -46673.803     -52219.395      50.204652    
   1155000   223.51387      126970.9      -46639.438     -52096.711      50.261418    
   1156000   228.38338      126713.88     -46560.041     -52136.207      50.227481    
   1157000   222.0048       127085.76     -46711.098     -52131.526      50.276569    
   1158000   223.57319      127128.61     -46601.044     -52059.766      50.282219    
   1159000   223.23084      127131.82     -46607.904     -52058.267      50.282642    
   1160000   225.87807      126386.32     -46729.789     -52244.786      50.184163    
   1161000   228.53342      126529.7      -46556.273     -52136.103      50.203133    
   1162000   224.01955      127096.42     -46674.47      -52144.09       50.277975    
   1163000   225.42287      127153.99     -46592.382     -52096.266      50.285565    
   1164000   224.33235      127114.73     -46730.191     -52207.449      50.280388    
   1165000   225.49242      127375.34     -46611.998     -52117.579      50.314726    
   1166000   224.65464      127296.69     -46681.411     -52166.537      50.304369    
   1167000   227.06355      127364.49     -46609.904     -52153.846      50.313298    
   1168000   222.56399      127176.02     -46786.103     -52220.184      50.288469    
   1169000   226.01398      127028.57     -46633.026     -52151.341      50.269026    
   1170000   222.62936      127089.29     -46850.667     -52286.344      50.277034    
   1171000   223.70427      126615.78     -46741.19      -52203.112      50.214515    
   1172000   224.66261      127248.76     -46503.306     -51988.627      50.298055    
   1173000   226.88439      127100.7      -46702.711     -52242.278      50.278539    
   1174000   222.62924      127080.45     -46792.795     -52228.469      50.275868    
   1175000   225.81632      127540.01     -46627.197     -52140.686      50.336399    
   1176000   225.34144      126741.34     -46651.699     -52153.594      50.231108    
   1177000   223.17287      127210.43     -46708.722     -52157.669      50.293004    
   1178000   224.44113      127534.42     -46677.927     -52157.84       50.335664    
   1179000   225.08135      127106        -46636.888     -52132.432      50.279238    
   1180000   225.06099      127461.61     -46683.347     -52178.395      50.326084    
   1181000   222.20401      127341.12     -46693.49      -52118.782      50.310221    
   1182000   225.13155      127089.08     -46622.809     -52119.58       50.277006    
   1183000   224.7557       127277.24     -46720.882     -52208.476      50.301806    
   1184000   225.01413      127303.2      -46584.724     -52078.627      50.305226    
   1185000   224.90317      126789.77     -46535.269     -52026.463      50.237507    
   1186000   224.0987       126890.49     -46637.79      -52109.343      50.250806    
   1187000   223.45525      126917.22     -46750.745     -52206.587      50.254333    
   1188000   225.34479      126750.21     -46666.266     -52168.243      50.232281    
   1189000   224.08635      126382.06     -46618.531     -52089.782      50.1836      
   1190000   228.20935      127369.33     -46534.823     -52106.74       50.313936    
   1191000   223.25454      126956.45     -46664.742     -52115.684      50.259511    
   1192000   224.03355      127009.9      -46561.06      -52031.022      50.266564    
   1193000   224.47537      126661.16     -46567.624     -52048.373      50.220514    
   1194000   222.76206      126770.97     -46566.289     -52005.206      50.235023    
   1195000   225.72345      126943.05     -46441.949     -51953.171      50.257743    
   1196000   225.93722      126597.75     -46566.064     -52082.505      50.212132    
   1197000   224.40941      126887.84     -46573.838     -52052.976      50.250456    
   1198000   223.58173      126679.39     -46578.445     -52037.375      50.222923    
   1199000   226.61949      126736.57     -46519.575     -52052.674      50.230479    
   1200000   226.31867      127103.23     -46589.31      -52115.065      50.278873    
   1201000   223.3739       126615.53     -46637.863     -52091.719      50.214482    
   1202000   226.34192      126428.38     -46582.059     -52108.381      50.18973     
   1203000   223.70141      126574.85     -46537.561     -51999.413      50.209104    
   1204000   224.92087      127026.99     -46692.362     -52183.988      50.268818    
   1205000   226.46327      126860.08     -46583.752     -52113.037      50.246791    
   1206000   226.5257       126580.57     -46586.544     -52117.354      50.209861    
   1207000   226.48069      127025.68     -46522.85      -52052.561      50.268644    
   1208000   225.52406      127243.92     -46598.129     -52104.483      50.297417    
   1209000   228.07804      126882.93     -46465.652     -52034.364      50.249807    
   1210000   226.60645      127458.05     -46598.443     -52131.224      50.325615    
   1211000   222.31228      127184.11     -46732.874     -52160.809      50.289535    
   1212000   223.96225      127039.99     -46676.537     -52144.758      50.270532    
   1213000   226.50181      127486.26     -46576.148     -52106.374      50.329327    
   1214000   223.89294      127456.71     -46658.506     -52125.035      50.325439    
   1215000   224.80947      126864.43     -46629.571     -52118.478      50.247364    
   1216000   224.21294      127425.71     -46670.844     -52145.186      50.321358    
   1217000   228.34202      126800.43     -46520.624     -52095.78       50.238914    
   1218000   224.2204       127690.19     -46525.34      -51999.864      50.35615     
   1219000   223.15324      127435.61     -46611.93      -52060.398      50.322662    
   1220000   223.45089      127197.09     -46741.148     -52196.883      50.291246    
   1221000   222.65817      126682.57     -46680.679     -52117.06       50.223344    
   1222000   224.27599      126888.28     -46738.465     -52214.346      50.250513    
   1223000   226.3823       126964.16     -46483.848     -52011.157      50.260528    
   1224000   222.01799      127198.5      -46673.985     -52094.736      50.291431    
   1225000   222.73222      127000.39     -46686.106     -52124.295      50.265309    
   1226000   226.58454      126931.82     -46527.833     -52060.08       50.25626     
   1227000   223.52978      126687.16     -46640.575     -52098.237      50.22395     
   1228000   228.10532      126527.1      -46559.479     -52128.856      50.20279     
   1229000   225.24061      126549.4      -46611.869     -52111.302      50.205739    
   1230000   224.63439      126473.62     -46588.846     -52073.478      50.195716    
   1231000   223.81768      127053.11     -46606.082     -52070.774      50.272262    
   1232000   225.37313      126981.35     -46740.604     -52243.273      50.262796    
   1233000   228.48388      126730.35     -46530.199     -52108.819      50.229656    
   1234000   226.68336      127370.61     -46641.234     -52175.893      50.314103    
   1235000   222.82985      127174.06     -46677.824     -52118.396      50.28821     
   1236000   224.39022      127148.36     -46593.761     -52072.431      50.284823    
   1237000   223.25309      126953.69     -46530.178     -51981.084      50.259147    
   1238000   225.98542      126636.38     -46583.189     -52100.807      50.217239    
   1239000   224.49418      126942.94     -46647.305     -52128.513      50.257728    
   1240000   222.57718      126659.44     -46630.156     -52064.559      50.220286    
   1241000   223.66292      126881.3      -46506.402     -51967.315      50.249592    
   1242000   225.43379      126721.16     -46448.243     -51952.393      50.228443    
   1243000   226.92361      126576        -46594.568     -52135.093      50.209256    
   1244000   222.52457      126690.19     -46576.789     -52009.907      50.224351    
   1245000   226.34046      126854.62     -46599.969     -52126.256      50.24607     
   1246000   227.66332      126524.2      -46479.431     -52038.017      50.202406    
   1247000   225.77978      126779.14     -46678.197     -52190.794      50.236102    
   1248000   225.85724      126577.77     -46687.898     -52202.387      50.209491    
   1249000   225.38498      126373.74     -46655.895     -52158.853      50.182499    
   1250000   226.77625      126683.54     -46649.786     -52186.713      50.223472    
   1251000   226.0091       126588.42     -46608.621     -52126.818      50.210899    
   1252000   225.7731       126952.68     -46579.714     -52092.148      50.259013    
   1253000   223.6782       126942.76     -46728.092     -52189.377      50.257705    
   1254000   226.243        126733.19     -46536.573     -52060.48       50.230032    
   1255000   224.28081      127069.59     -46670.699     -52146.698      50.274436    
   1256000   223.99472      127267.78     -46676.559     -52145.573      50.30056     
   1257000   226.76861      127310.9      -46638.848     -52175.589      50.30624     
   1258000   225.12455      127269.31     -46676.822     -52173.421      50.300761    
   1259000   227.59688      127260.35     -46556.563     -52113.527      50.299582    
   1260000   225.55555      127219.83     -46614.383     -52121.506      50.294242    
   1261000   226.7443       126941.25     -46652.384     -52188.53       50.257505    
   1262000   226.66608      127160.21     -46606.338     -52140.575      50.286385    
   1263000   225.77078      127325.78     -46601.107     -52113.485      50.3082      
   1264000   225.70233      126945.17     -46530.313     -52041.019      50.258023    
   1265000   225.56251      127029.79     -46646.33      -52153.622      50.269187    
   1266000   225.65403      127277.9      -46594.218     -52103.745      50.301893    
   1267000   228.04915      126771.23     -46550.16      -52118.166      50.235057    
   1268000   225.72784      126956.41     -46555.993     -52067.322      50.259505    
   1269000   222.47252      127039.48     -46643.765     -52075.612      50.270465    
   1270000   228.61788      126858.71     -46510.126     -52092.018      50.246609    
   1271000   224.46598      127123.3      -46595.19      -52075.709      50.281519    
   1272000   223.25174      127169        -46633.373     -52084.246      50.287544    
   1273000   224.90449      127077.35     -46699.365     -52190.591      50.27546     
   1274000   225.0046       127403.01     -46637.55      -52131.221      50.31837     
   1275000   227.22636      127066.91     -46545.164     -52093.081      50.274083    
   1276000   221.53973      126938.07     -46655.253     -52064.326      50.257086    
   1277000   227.8216       126775.14     -46403.746     -51966.196      50.235574    
   1278000   228.31479      126936.23     -46611.992     -52186.484      50.256842    
   1279000   223.75893      127100.19     -46653.265     -52116.521      50.278471    
   1280000   225.60904      126746.17     -46597.842     -52106.271      50.231747    
   1281000   224.64282      126873.5      -46611.737     -52096.574      50.248563    
   1282000   227.34828      127029.55     -46494.026     -52044.92       50.269155    
   1283000   222.32476      127220.57     -46616.485     -52044.725      50.294339    
   1284000   222.84812      126827.28     -46624.302     -52065.32       50.24246     
   1285000   226.46785      127229.03     -46452.207     -51981.604      50.295455    
   1286000   224.04729      127373.34     -46478.889     -51949.186      50.314463    
   1287000   224.37178      126835.32     -46614.15      -52092.37       50.243522    
   1288000   224.51253      127044.8      -46715.208     -52196.864      50.271167    
   1289000   224.46858      127156.55     -46603.97      -52084.553      50.285901    
   1290000   223.05991      127292.88     -46683.474     -52129.664      50.303867    
   1291000   226.14213      126965.52     -46622.342     -52143.786      50.260707    
   1292000   225.05533      126959.07     -46567.999     -52062.908      50.259857    
   1293000   222.37597      127184.28     -46619.913     -52049.403      50.289557    
   1294000   223.20522      127457.7      -46576.211     -52025.948      50.325569    
   1295000   225.94531      127215.61     -46621.606     -52138.245      50.293687    
   1296000   224.95322      126961.36     -46681.108     -52173.524      50.260158    
   1297000   226.48974      127043.79     -46765.501     -52295.433      50.271033    
   1298000   226.42971      127469.88     -46549.116     -52077.582      50.327172    
   1299000   225.38523      127965.89     -46771.623     -52274.587      50.392365    
   1300000   226.33574      127595.71     -46659.767     -52185.939      50.343727    
   1301000   226.25144      127673.24     -46590.983     -52115.096      50.353921    
   1302000   226.52075      127289.37     -46655.622     -52186.31       50.303405    
   1303000   222.29687      127216.44     -46608.267     -52035.826      50.293795    
   1304000   223.71061      127029.83     -46680.972     -52143.049      50.269192    
   1305000   223.89541      127231.35     -46685.597     -52152.186      50.29576     
   1306000   227.21366      127185.95     -46578.116     -52125.722      50.289778    
   1307000   224.15768      127198.36     -46594.757     -52067.749      50.291413    
   1308000   225.85669      127191.15     -46653.273     -52167.748      50.290463    
   1309000   226.81206      126925.81     -46519.212     -52057.013      50.255468    
   1310000   226.68968      127525.51     -46615.49      -52150.303      50.334492    
   1311000   222.85589      126931.68     -46781.492     -52222.701      50.256243    
   1312000   225.84638      127191.53     -46544.564     -52058.788      50.290513    
   1313000   227.49661      126927.23     -46561.524     -52116.039      50.255654    
   1314000   225.64889      127317.47     -46648.004     -52157.406      50.307106    
   1315000   226.43325      126946.43     -46473.019     -52001.571      50.258188    
   1316000   225.29855      127205.95     -46637.069     -52137.916      50.292413    
   1317000   228.22665      126957.47     -46518.783     -52091.122      50.259646    
   1318000   222.39637      127314.41     -46653.291     -52083.28       50.306703    
   1319000   226.0499       127315.31     -46569.77      -52088.963      50.306822    
   1320000   224.83493      127148.42     -46678.283     -52167.811      50.28483     
   1321000   224.39944      127096.55     -46580.534     -52059.429      50.277992    
   1322000   224.9994       127268.71     -46464.664     -51958.208      50.300683    
   1323000   225.0665       127486        -46570.191     -52065.373      50.329293    
   1324000   225.12699      127275.84     -46555.832     -52052.491      50.301622    
   1325000   222.96722      127372.96     -46627.14      -52071.067      50.314413    
   1326000   227.06576      127242.96     -46560.585     -52104.58       50.29729     
   1327000   225.92005      126635.16     -46703.103     -52219.125      50.217078    
   1328000   227.17872      127474.04     -46634.475     -52181.228      50.327719    
   1329000   222.48914      126875.86     -46621.975     -52054.229      50.248874    
   1330000   224.80378      127176.46     -46501.773     -51990.541      50.288526    
   1331000   222.68454      127441.96     -46670.417     -52107.442      50.323498    
   1332000   228.53584      127213.06     -46533.63      -52113.519      50.293351    
   1333000   222.93026      126867.28     -46596.172     -52039.196      50.247741    
   1334000   223.6109       127353.81     -46640.138     -52099.78       50.311891    
   1335000   223.21201      127354.11     -46656.824     -52106.728      50.311931    
   1336000   226.23894      127480.06     -46593.722     -52117.531      50.328511    
   1337000   224.59844      126881.34     -46689.582     -52173.336      50.249597    
   1338000   226.95382      126635.92     -46557.85      -52099.112      50.217178    
   1339000   225.87967      127088.43     -46535.211     -52050.248      50.276921    
   1340000   219.40353      127278.29     -46697.508     -52054.424      50.301945    
   1341000   226.79062      127029.32     -46504.36      -52041.637      50.269125    
   1342000   224.09358      126909.18     -46561.819     -52033.247      50.253272    
   1343000   219.4666       126854.52     -46760.749     -52119.205      50.246057    
   1344000   225.86976      126610.97     -46652.837     -52167.631      50.21388     
   1345000   226.96217      126427.08     -46593.939     -52135.405      50.189558    
   1346000   222.81361      127111.92     -46757.452     -52197.628      50.280018    
   1347000   231.54797      127261.71     -46430.192     -52083.625      50.29976     
   1348000   224.61579      127540.79     -46670.41      -52154.588      50.336502    
   1349000   224.81541      127073.61     -46619.524     -52108.575      50.274966    
   1350000   222.29598      126771.91     -46644.716     -52072.254      50.235147    
   1351000   224.05595      126667.74     -46688.271     -52158.78       50.221384    
   1352000   225.80131      126613.83     -46559.256     -52072.379      50.214258    
   1353000   228.21054      126905.63     -46512.422     -52084.368      50.252804    
   1354000   226.1118       127147.89     -46549.671     -52070.375      50.284761    
   1355000   219.96198      126481.47     -46633.134     -52003.685      50.196754    
   1356000   224.70401      127026.31     -46707.192     -52193.524      50.268728    
   1357000   224.16788      126720.58     -46646.348     -52119.589      50.228366    
   1358000   220.97172      126841.15     -46689.355     -52084.56       50.244291    
   1359000   225.808        127030.86     -46527.216     -52040.502      50.269328    
   1360000   225.73424      127238.69     -46637.966     -52149.451      50.296727    
   1361000   222.23349      126819.09     -46805.256     -52231.267      50.241379    
   1362000   223.23879      127187.81     -46633.634     -52084.191      50.290022    
   1363000   224.46722      126519.81     -46655.232     -52135.782      50.201825    
   1364000   225.30627      127063.67     -46670.675     -52171.711      50.273656    
   1365000   225.68745      126969.11     -46653.359     -52163.702      50.261182    
   1366000   224.97553      127112.97     -46518.367     -52011.327      50.280156    
   1367000   224.0874       127559.03     -46703.4       -52174.677      50.338902    
   1368000   227.65839      127222.02     -46596.789     -52155.254      50.294531    
   1369000   228.56056      127158.45     -46558.099     -52138.591      50.286153    
   1370000   224.3776       127126.73     -46708.536     -52186.898      50.281971    
   1371000   227.26398      127359.06     -46526.152     -52074.987      50.312583    
   1372000   223.56236      127077.16     -46590.48      -52048.937      50.275434    
   1373000   226.32348      127378.46     -46532.054     -52057.926      50.315138    
   1374000   225.23735      127392.8      -46525.175     -52024.528      50.317025    
   1375000   226.79907      126821.51     -46469.186     -52006.67       50.241698    
   1376000   225.9923       127301.43     -46495.929     -52013.715      50.304994    
   1377000   222.91851      127133.7      -46668.38      -52111.117      50.28289     
   1378000   223.70745      127494.43     -46499.83      -51961.83       50.330403    
   1379000   225.91607      127112.46     -46579.725     -52095.65       50.280089    
   1380000   222.45732      126764.43     -46691.316     -52122.793      50.234158    
   1381000   226.64012      126910.15     -46513.285     -52046.889      50.2534      
   1382000   224.20698      127372.21     -46546.323     -52020.519      50.314315    
   1383000   224.60016      127176.49     -46647.19      -52130.986      50.288531    
   1384000   225.99267      127116.81     -46498.12      -52015.915      50.280664    
   1385000   226.64703      126658.26     -46541.192     -52074.964      50.220131    
   1386000   221.84913      126645.58     -46664.258     -52080.885      50.218455    
   1387000   222.11181      126585.16     -46602.404     -52025.445      50.210467    
   1388000   225.34558      126722.17     -46548.804     -52050.8        50.228577    
   1389000   227.01998      127044.9      -46467.923     -52010.8        50.27118     
   1390000   225.73083      126480.03     -46634.348     -52145.75       50.196564    
   1391000   226.65352      127097.08     -46473.823     -52007.754      50.278062    
   1392000   224.20998      126599.27     -46711.848     -52186.117      50.212333    
   1393000   226.26673      126270.83     -46629.215     -52153.702      50.168873    
   1394000   225.21617      126580.86     -46601.941     -52100.777      50.209898    
   1395000   227.74493      126643.31     -46516.432     -52077.01       50.218155    
   1396000   222.95618      126246.53     -46596.569     -52040.226      50.165655    
   1397000   224.67481      125894.87     -46604.922     -52090.541      50.119033    
   1398000   226.09616      125955.91     -46635.823     -52156.145      50.127131    
   1399000   223.42414      126802.25     -46719.628     -52174.71       50.239154    
   1400000   225.83761      126439.78     -46568.484     -52082.493      50.191238    
   1401000   223.51984      126047.66     -46503.104     -51960.523      50.1393      
   1402000   226.05215      125878.6      -46540.395     -52059.642      50.116874    
   1403000   225.81981      126452.34     -46555.756     -52069.331      50.192901    
   1404000   228.30121      126272.94     -46456.306     -52030.466      50.169153    
   1405000   226.52527      126299.21     -46463.308     -51994.107      50.172631    
   1406000   223.9282       125945.44     -46541.376     -52008.765      50.125743    
   1407000   225.24386      126422.2      -46540.958     -52040.47       50.188912    
   1408000   224.12471      126495.97     -46679.047     -52151.234      50.198673    
   1409000   223.7501       125751.07     -46562.172     -52025.214      50.099943    
   1410000   221.86399      126055.72     -46685.577     -52102.567      50.140369    
   1411000   225.6048       126168.29     -46581.12      -52089.445      50.155289    
   1412000   226.50415      125848.98     -46457.113     -51987.396      50.112942    
   1413000   224.79668      125958.98     -46580.784     -52069.378      50.127539    
   1414000   225.48922      125402.98     -46608.98      -52114.483      50.053673    
   1415000   220.41879      125790.63     -46670.503     -52052.207      50.105196    
   1416000   223.65842      125816.77     -46500.537     -51961.339      50.108667    
   1417000   227.39588      125998.26     -46511.256     -52063.312      50.132749    
   1418000   224.86348      125949.92     -46644.053     -52134.278      50.126337    
   1419000   225.05641      126057.79     -46432.629     -51927.565      50.140642    
   1420000   219.69228      126510.3      -46589.374     -51953.34       50.200567    
   1421000   225.63928      126164.96     -46552.637     -52061.804      50.154848    
   1422000   225.53153      126391.09     -46493.959     -52000.495      50.184795    
   1423000   226.4043       125759.57     -46533.075     -52060.921      50.101072    
   1424000   225.36715      126534.57     -46599.105     -52101.628      50.203778    
   1425000   224.1334       125920.5      -46574.436     -52046.835      50.122433    
   1426000   223.77767      125963.82     -46708.367     -52172.081      50.128181    
   1427000   223.6223       125883.79     -46557.313     -52017.233      50.117561    
   1428000   224.54867      126135.82     -46604.725     -52087.264      50.150987    
   1429000   226.2434       126291.6      -46438.836     -51962.754      50.171623    
   1430000   227.02455      126308.01     -46503.106     -52046.095      50.173796    
   1431000   219.726        126477.75     -46739.244     -52104.033      50.196261    
   1432000   222.61512      126351.25     -46662.285     -52097.615      50.179521    
   1433000   223.0757       126541.05     -46513.546     -51960.121      50.204635    
   1434000   225.3895       126515.09     -46598.801     -52101.869      50.201201    
   1435000   227.29394      126189.01     -46573.454     -52123.021      50.158035    
   1436000   225.55372      126187        -46602.354     -52109.432      50.157768    
   1437000   224.11306      126225.8      -46656.619     -52128.522      50.162909    
   1438000   225.78968      126603.66     -46538.791     -52051.63       50.212913    
   1439000   227.68055      126466.96     -46517.379     -52076.385      50.194835    
   1440000   225.66127      125911.13     -46618.256     -52127.96       50.12119     
   1441000   225.54352      126398.4      -46515.647     -52022.476      50.185762    
   1442000   224.6167       126269.48     -46598.176     -52082.376      50.168694    
   1443000   225.06776      126117.04     -46542.097     -52037.309      50.148497    
   1444000   229.02553      126278.24     -46523.189     -52115.034      50.169855    
   1445000   226.29733      126090.88     -46597.136     -52122.37       50.14503     
   1446000   226.02948      126054.56     -46562.819     -52081.513      50.140214    
   1447000   224.63514      126580.74     -46655.041     -52139.691      50.209883    
   1448000   227.00254      126309.56     -46506.161     -52048.613      50.174002    
   1449000   223.78868      125602.69     -46686.121     -52150.104      50.08023     
   1450000   224.94179      125839.17     -46607.441     -52099.578      50.11164     
   1451000   228.24692      125890.02     -46530.674     -52103.509      50.118389    
   1452000   224.28704      125904.46     -46561.741     -52037.892      50.120305    
   1453000   225.28201      125969.83     -46569.778     -52070.222      50.128978    
   1454000   222.22887      125937.46     -46612.959     -52038.858      50.124683    
   1455000   224.58444      126355.76     -46503.576     -51986.988      50.180118    
   1456000   229.29015      125991.12     -46321.959     -51920.265      50.131802    
   1457000   222.28581      126133.08     -46591.185     -52018.474      50.150623    
   1458000   226.00225      126116.93     -46411.296     -51929.325      50.148482    
   1459000   224.32546      126011.12     -46547.563     -52024.651      50.134455    
   1460000   228.66932      125318.63     -46398.002     -51981.15       50.042448    
   1461000   226.5662       125936.19     -46505.738     -52037.536      50.124516    
   1462000   223.86575      125961.1      -46622.655     -52088.52       50.12782     
   1463000   225.81677      125926.86     -46436.61      -51950.111      50.123277    
   1464000   222.9749       126232.88     -46546.252     -51990.366      50.163847    
   1465000   223.21115      126005.43     -46554.01      -52003.892      50.133699    
   1466000   227.59813      125868.78     -46388.33      -51945.324      50.11557     
   1467000   222.82606      126078.26     -46496.126     -51936.606      50.143357    
   1468000   222.02797      126479.11     -46403.653     -51824.647      50.196441    
   1469000   223.36925      125686.16     -46531.148     -51984.891      50.091321    
   1470000   229.45882      125770.22     -46438.341     -52040.765      50.102486    
   1471000   224.90092      125567.74     -46503.656     -51994.795      50.075585    
   1472000   221.65687      126031.96     -46516.162     -51928.095      50.137218    
   1473000   226.94241      125990.25     -46447.01      -51987.994      50.131687    
   1474000   224.84445      125774.44     -46542.082     -52031.843      50.103046    
   1475000   226.30831      125824.66     -46434.265     -51959.767      50.109714    
   1476000   222.1741       125623.74     -46551.682     -51976.244      50.083028    
   1477000   228.07278      126164.54     -46437.196     -52005.779      50.154792    
   1478000   224.0117       125981.22     -46605.53      -52074.958      50.130488    
   1479000   225.2018       125956.67     -46416.36      -51914.846      50.127233    
   1480000   227.4982       125822.92     -46326.405     -51880.958      50.109482    
   1481000   225.25415      126275.62     -46572.263     -52072.026      50.169507    
   1482000   224.39559      126124.9      -46464.219     -51943.021      50.14954     
   1483000   224.91593      125963.63     -46431.867     -51923.373      50.128155    
   1484000   225.43371      125996.75     -46561.258     -52065.406      50.132548    
   1485000   222.10043      126250.45     -46610.829     -52033.592      50.166173    
   1486000   229.0182       126320.89     -46468.43      -52060.096      50.175501    
   1487000   223.4038       126110.11     -46667.847     -52122.433      50.147579    
   1488000   223.09793      125922.74     -46716.733     -52163.851      50.122731    
   1489000   224.74147      125800.43     -46599.234     -52086.48       50.106498    
   1490000   223.70114      126571.97     -46594.704     -52056.549      50.208723    
   1491000   227.46987      126583.73     -46533.383     -52087.246      50.210278    
   1492000   226.2091       126810.05     -46371.939     -51895.019      50.240184    
   1493000   224.6473       126091.53     -46587.371     -52072.318      50.145116    
   1494000   225.84232      126394.48     -46546.704     -52060.828      50.185244    
   1495000   224.94892      126213.75     -46494.863     -51987.175      50.161312    
   1496000   227.5656       126496.29     -46492.512     -52048.711      50.198714    
   1497000   223.91322      126257.91     -46627.073     -52094.097      50.167162    
   1498000   228.09457      126293.4      -46452.697     -52021.811      50.171863    
   1499000   224.66274      126377.79     -46582.863     -52068.187      50.183034    
   1500000   224.02566      125910.33     -46687.176     -52156.945      50.121083    
   1501000   225.53005      125878.2      -46551.711     -52058.211      50.11682     
   1502000   222.88079      126272.31     -46624.668     -52066.484      50.169069    
   1503000   228.41021      126210.17     -46467.542     -52044.363      50.160838    
   1504000   227.6208       126299.54     -46486.926     -52044.473      50.172675    
   1505000   227.24833      126504.92     -46387.909     -51936.362      50.199857    
   1506000   222.74011      126252.58     -46576.022     -52014.403      50.166455    
   1507000   224.29876      126360.39     -46414.635     -51891.072      50.180731    
   1508000   224.22566      126115.82     -46544.937     -52019.589      50.148335    
   1509000   227.47309      126340.13     -46408.945     -51962.886      50.17805     
   1510000   223.75233      126231.56     -46525.025     -51988.121      50.163672    
   1511000   224.94848      125917.5      -46383.196     -51875.496      50.122035    
   1512000   222.14662      126459.19     -46561.083     -51984.974      50.193807    
   1513000   223.87979      126317.45     -46320.128     -51786.335      50.175046    
   1514000   224.92612      126693.19     -46484.065     -51975.819      50.224747    
   1515000   226.35733      126293.09     -46374.16      -51900.859      50.171821    
   1516000   222.14419      126518.76     -46582.749     -52006.58       50.201686    
   1517000   226.09815      125839.42     -46493.966     -52014.337      50.111673    
   1518000   223.37528      126144.72     -46470.274     -51924.163      50.152165    
   1519000   225.98289      126059.21     -46557.011     -52074.568      50.140831    
   1520000   225.16969      126437.43     -46494.45      -51992.152      50.190927    
   1521000   224.70963      126620.75     -46430.392     -51916.86       50.215173    
   1522000   224.84921      126139.17     -46451.89      -51941.767      50.15143     
   1523000   224.27475      126419.73     -46560.999     -52036.85       50.188585    
   1524000   224.48727      126354.02     -46487.282     -51968.322      50.179889    
   1525000   229.64807      126023.5      -46389.601     -51996.645      50.136096    
   1526000   221.50455      125967.49     -46667.07      -52075.284      50.128667    
   1527000   227.72992      125904.3      -46403.965     -51964.177      50.120284    
   1528000   221.62619      126130.16     -46614.36      -52025.544      50.150236    
   1529000   222.31939      126504.29     -46525.475     -51953.585      50.199773    
   1530000   226.70825      126430.75     -46406.426     -51941.693      50.190043    
   1531000   222.74052      126718.89     -46595.03      -52033.421      50.228143    
   1532000   224.92995      126086.33     -46410.359     -51902.207      50.144427    
   1533000   223.00646      126458.56     -46606.215     -52051.1        50.193723    
   1534000   226.44256      126623.41     -46538.257     -52067.037      50.215524    
   1535000   226.79013      125801.22     -46591.004     -52128.27       50.106602    
   1536000   223.14022      126608.29     -46544.649     -51992.799      50.213526    
   1537000   224.62178      126946.07     -46589.708     -52074.032      50.258141    
   1538000   224.10403      126934.1      -46507.186     -51978.869      50.256562    
   1539000   225.42674      126660.49     -46438.087     -51942.065      50.220426    
   1540000   224.4371       126777.11     -46498.895     -51978.71       50.235834    
   1541000   226.77573      126554.81     -46381.4       -51918.314      50.206454    
   1542000   224.63654      126855.9      -46602.589     -52087.273      50.246239    
   1543000   220.84222      126720.05     -46783.815     -52175.858      50.228296    
   1544000   223.92662      126354.4      -46533.389     -52000.74       50.179939    
   1545000   222.35409      126829.23     -46444.721     -51873.677      50.242718    
   1546000   221.11259      126416.64     -46600.801     -51999.445      50.188176    
   1547000   229.50636      126819.78     -46349.017     -51952.602      50.24147     
   1548000   222.70584      126368.52     -46592.099     -52029.644      50.181807    
   1549000   224.5894       126567.56     -46590.109     -52073.643      50.20814     
   1550000   224.25074      126939.69     -46526.208     -52001.473      50.257299    
   1551000   223.2286       126604.72     -46566.281     -52016.59       50.213054    
   1552000   223.26885      127054.94     -46590.353     -52041.644      50.272504    
   1553000   223.5597       126802.11     -46408.359     -51866.751      50.239135    
   1554000   224.60006      127076.72     -46555.155     -52038.949      50.275376    
   1555000   226.45445      126864.12     -46534.643     -52063.713      50.247323    
   1556000   224.74403      126872.03     -46381.772     -51869.081      50.248368    
   1557000   221.46854      127005.17     -46649.65      -52056.985      50.265938    
   1558000   220.16752      127046.28     -46528.931     -51904.5        50.271362    
   1559000   220.99151      127247.84     -46676.589     -52072.277      50.297934    
   1560000   225.2022       127073.71     -46543.116     -52041.611      50.274979    
   1561000   224.0818       126805.65     -46570.902     -52042.042      50.239603    
   1562000   225.9713       126849.52     -46640.748     -52158.021      50.245397    
   1563000   219.09163      126874.36     -46762.203     -52111.504      50.248676    
   1564000   228.03607      126776.5      -46529.322     -52097.008      50.235754    
   1565000   224.7166       126481        -46666.208     -52152.847      50.196692    
   1566000   226.93049      126427.68     -46442.66      -51983.353      50.189637    
   1567000   226.05762      127279.43     -46576.505     -52095.886      50.302095    
   1568000   225.55714      126871.89     -46524.17      -52031.331      50.248349    
   1569000   224.34037      126703.98     -46679.678     -52157.131      50.226172    
   1570000   227.96251      126967.82     -46342.089     -51907.98       50.261011    
   1571000   223.09023      127048.01     -46546.77      -51993.7        50.27159     
   1572000   226.96925      127357.74     -46537.424     -52079.063      50.31241     
   1573000   227.67164      126980.9      -46450.024     -52008.812      50.262737    
   1574000   225.22611      126466.62     -46593.462     -52092.541      50.19479     
   1575000   228.17866      126637.38     -46444.49      -52015.658      50.21737     
   1576000   223.3602       126381.77     -46565.32      -52018.841      50.183561    
   1577000   224.49353      126579.16     -46491.433     -51972.625      50.209674    
   1578000   225.87336      126284.39     -46577.301     -52092.183      50.170669    
   1579000   227.25394      126376.69     -46498.673     -52047.263      50.182889    
   1580000   224.52542      126818.25     -46643.293     -52125.264      50.241268    
   1581000   226.05099      126410.85     -46502.003     -52021.222      50.18741     
   1582000   228.39479      126141.66     -46596.819     -52173.264      50.151761    
   1583000   226.16627      126326.34     -46513.659     -52035.693      50.176223    
   1584000   225.85462      126455.88     -46574.009     -52088.433      50.193369    
   1585000   230.11989      126673        -46334.098     -51952.663      50.222079    
   1586000   224.90296      126402.71     -46601.512     -52092.701      50.186333    
   1587000   222.96987      126553.74     -46661.612     -52105.603      50.206313    
   1588000   225.95058      127057.96     -46506.811     -52023.578      50.272903    
   1589000   224.35461      126586.98     -46627.342     -52105.142      50.210709    
   1590000   226.30587      126943.59     -46447.252     -51972.695      50.257814    
   1591000   223.24373      126132.57     -46596.45      -52047.127      50.150556    
   1592000   225.27929      126859.71     -46605.131     -52105.508      50.246742    
   1593000   226.25698      126569.85     -46485.173     -52009.422      50.208443    
   1594000   227.36515      126615.68     -46621.912     -52173.217      50.214503    
   1595000   226.92868      126576.74     -46524.074     -52064.722      50.209354    
   1596000   226.90027      126524.6      -46562.382     -52102.337      50.202459    
   1597000   221.33712      126151.81     -46704.161     -52108.288      50.153105    
   1598000   225.06732      126808.97     -46578.994     -52074.196      50.240042    
   1599000   222.59798      126417.45     -46682.142     -52117.053      50.188284    
   1600000   225.34424      126070.31     -46488.669     -51990.632      50.142302    
   1601000   224.48093      125936.06     -46569.177     -52050.062      50.124497    
   1602000   219.84229      126857.83     -46675.568     -52043.197      50.246494    
   1603000   229.9299       125900.91     -46487.621     -52101.547      50.119834    
   1604000   220.14453      125957.85     -46758.97      -52133.978      50.127389    
   1605000   225.99472      126095.76     -46510.268     -52028.113      50.145676    
   1606000   222.98945      126503.88     -46682.446     -52126.915      50.199719    
   1607000   225.73913      126863.21     -46549.564     -52061.169      50.247203    
   1608000   226.77258      126638.17     -46481.932     -52018.77       50.217476    
   1609000   221.05988      125886.92     -46728.313     -52125.67       50.117978    
   1610000   223.61857      126588.54     -46629.184     -52089.014      50.210915    
   1611000   224.38244      126482.64     -46538.624     -52017.104      50.196909    
   1612000   227.23927      126453.17     -46565.16      -52113.392      50.19301     
   1613000   227.00439      126310.69     -46421.349     -51963.847      50.174152    
   1614000   223.56151      126438.35     -46584.497     -52042.934      50.191049    
   1615000   224.59464      126619.92     -46630.541     -52114.202      50.215063    
   1616000   223.55783      126542.22     -46549.627     -52007.974      50.20479     
   1617000   223.57175      127181.08     -46654.664     -52113.351      50.289135    
   1618000   226.50435      126850.49     -46532.967     -52063.256      50.245524    
   1619000   224.93525      126748.31     -46620.923     -52112.901      50.232029    
   1620000   227.72998      126475.38     -46437.033     -51997.246      50.195948    
   1621000   221.60521      126806.5      -46692.344     -52103.016      50.239716    
   1622000   223.90234      126862.12     -46637.741     -52104.5        50.247061    
   1623000   224.04492      126899.01     -46483.2       -51953.439      50.25193     
   1624000   228.48071      127534.24     -46408.288     -51986.831      50.335641    
   1625000   224.56717      127465.98     -46466.797     -51949.787      50.326658    
   1626000   223.26193      126656.42     -46664.217     -52115.339      50.219888    
   1627000   223.67476      126880.59     -46582.907     -52044.109      50.249499    
   1628000   224.98487      126729.65     -46468.074     -51961.263      50.229564    
   1629000   224.11399      127198.72     -46661.563     -52133.488      50.291461    
   1630000   229.20442      127012.27     -46501.467     -52097.68       50.266876    
   1631000   223.31753      126907.31     -46667.178     -52119.658      50.253026    
   1632000   222.99913      127113.16     -46663.406     -52108.111      50.280182    
   1633000   228.53289      127271.32     -46464.205     -52044.022      50.301027    
   1634000   221.46067      126864.9      -46654.612     -52061.754      50.247427    
   1635000   226.24609      126630.42     -46631.291     -52155.274      50.216451    
   1636000   227.11458      127050.11     -46502.474     -52047.661      50.271867    
   1637000   228.24297      126754.43     -46533.947     -52106.685      50.232837    
   1638000   225.34567      126645.76     -46676.519     -52178.517      50.218478    
   1639000   225.64907      126767.44     -46535.032     -52044.438      50.234557    
   1640000   229.52633      126538.57     -46570.623     -52174.695      50.204307    
   1641000   229.26976      126343.97     -46595.716     -52193.524      50.178557    
   1642000   223.18372      126619.41     -46618.211     -52067.424      50.214995    
   1643000   223.19734      126624.5      -46753.504     -52203.049      50.215669    
   1644000   226.33566      126892.76     -46596.051     -52122.221      50.251105    
   1645000   225.40922      126763.53     -46580.947     -52084.497      50.23404     
   1646000   224.62507      126661.38     -46571.101     -52055.505      50.220543    
   1647000   229.03806      126629.79     -46380.984     -51973.135      50.216368    
   1648000   223.70956      126963.76     -46706.855     -52168.906      50.260476    
   1649000   226.68763      127182.53     -46556.372     -52091.135      50.289326    
   1650000   223.36108      126937.2      -46597.803     -52051.346      50.25697     
   1651000   227.5129       126568.91     -46484.071     -52038.984      50.208319    
   1652000   220.33216      126711.42     -46712.137     -52091.727      50.227156    
   1653000   226.0928       126848.24     -46627.791     -52148.031      50.245227    
   1654000   228.91119      126658.74     -46594.453     -52183.506      50.220194    
   1655000   225.83578      126327.55     -46580.451     -52094.415      50.176384    
   1656000   225.4857       126786.97     -46700.78      -52206.198      50.237137    
   1657000   224.18862      127155.87     -46595.299     -52069.046      50.285813    
   1658000   224.31286      127110.57     -46689.422     -52166.204      50.27984     
   1659000   229.78287      126501.66     -46423.148     -52033.484      50.199425    
   1660000   223.58154      126744.68     -46699.587     -52158.512      50.23155     
   1661000   225.38582      127107.32     -46602.289     -52105.267      50.279411    
   1662000   222.4234       126624.71     -46502.34      -51932.988      50.215697    
   1663000   224.89123      126905.71     -46610.9       -52101.803      50.252815    
   1664000   228.30982      126667.64     -46536.751     -52111.122      50.221371    
   1665000   224.78014      126667.82     -46608.557     -52096.748      50.221394    
   1666000   224.79793      126639.17     -46685.802     -52174.427      50.217607    
   1667000   230.42701      127151.04     -46396.482     -52022.545      50.285176    
   1668000   225.53084      126398.3      -46590.659     -52097.178      50.185749    
   1669000   224.6487       126754.21     -46668.615     -52153.596      50.232809    
   1670000   227.77893      127115.42     -46480.677     -52042.085      50.28048     
   1671000   224.12356      126318.27     -46632.502     -52104.662      50.175155    
   1672000   223.39452      126649.11     -46693.388     -52147.747      50.218921    
   1673000   225.84399      126830.82     -46635.167     -52149.332      50.242927    
   1674000   226.18827      126457.59     -46557.916     -52080.487      50.193595    
   1675000   224.50724      126956.69     -46580.717     -52062.245      50.259542    
   1676000   225.16867      126745.92     -46502.978     -52000.655      50.231714    
   1677000   224.57284      126490.37     -46638.759     -52121.888      50.197932    
   1678000   226.4379       126526.31     -46528.055     -52056.721      50.202686    
   1679000   227.01135      126381.85     -46566.689     -52109.356      50.183571    
   1680000   224.31808      126651.81     -46667.451     -52144.36       50.219278    
   1681000   226.01198      126312.77     -46529.539     -52047.806      50.174427    
   1682000   227.09923      126467.68     -46409.63      -51954.443      50.19493     
   1683000   227.01489      126427.23     -46429.323     -51972.077      50.189578    
   1684000   228.2273       126083.01     -46393.928     -51966.283      50.143987    
   1685000   222.82104      126467.43     -46631.942     -52072.299      50.194897    
   1686000   228.8552       126455.86     -46516.827     -52104.514      50.193366    
   1687000   228.27823      126525.06     -46452.385     -52025.984      50.202519    
   1688000   227.68781      126685.94     -46483.172     -52042.356      50.223788    
   1689000   227.34008      126513.94     -46432.75      -51983.443      50.201049    
   1690000   226.47119      126676.05     -46494.88      -52024.358      50.222482    
   1691000   224.95928      126016.29     -46580.94      -52073.504      50.13514     
   1692000   221.86517      126107.37     -46614.093     -52031.112      50.147216    
   1693000   223.95408      126374.8      -46614.392     -52082.414      50.182638    
   1694000   228.86153      126199.6      -46496.347     -52084.188      50.159438    
   1695000   227.7983       126522.11     -46404.074     -51965.955      50.20213     
   1696000   223.48895      126468.31     -46522.289     -51978.954      50.195013    
   1697000   227.25924      126019.43     -46541.54      -52090.26       50.135557    
   1698000   222.98213      126263.97     -46680.467     -52124.758      50.167964    
   1699000   223.31025      126386.09     -46548.067     -52000.369      50.184134    
   1700000   226.55445      126109.37     -46686.986     -52218.497      50.147481    
   1701000   225.29574      126258.57     -46555.189     -52055.968      50.16725     
   1702000   220.26141      126407.01     -46751.164     -52129.025      50.186902    
   1703000   223.91645      126222.47     -46689.237     -52156.34       50.162467    
   1704000   227.19993      126159.33     -46550.258     -52097.53       50.154102    
   1705000   226.20512      126177.28     -46560.305     -52083.287      50.156481    
   1706000   226.68042      125779.54     -46625.044     -52159.631      50.103723    
   1707000   224.16549      126604.81     -46655.013     -52128.196      50.213065    
   1708000   226.72267      126297.27     -46660.816     -52196.435      50.172375    
   1709000   226.07513      125833.99     -46619.419     -52139.227      50.110952    
   1710000   224.10161      125636.53     -46620.717     -52092.341      50.084727    
   1711000   223.55437      125922.29     -46655.518     -52113.78       50.122671    
   1712000   226.86054      126569.97     -46542.494     -52081.479      50.208459    
   1713000   220.29188      126028.7      -46763.87      -52142.476      50.136786    
   1714000   227.43054      126110.26     -46595.066     -52147.968      50.147598    
   1715000   227.94719      126416.01     -46450.614     -52016.13       50.188093    
   1716000   227.0369       126111.51     -46463.544     -52006.835      50.147764    
   1717000   222.47501      126349.91     -46756.483     -52188.391      50.179344    
   1718000   224.98012      125949.74     -46728.78      -52221.853      50.126312    
   1719000   227.58161      125933.52     -46555.283     -52111.873      50.124161    
   1720000   225.03387      126158.89     -46597.163     -52091.548      50.154043    
   1721000   225.61485      125753.39     -46619.98      -52128.551      50.10025     
   1722000   223.1381       126506.32     -46509.15      -51957.248      50.200042    
   1723000   224.74063      126420.9      -46544.406     -52031.632      50.18874     
   1724000   226.49749      126891.28     -46620.674     -52150.795      50.25091     
   1725000   224.18123      126445.03     -46697.198     -52170.765      50.191933    
   1726000   222.23896      126408.65     -46602.121     -52028.266      50.187119    
   1727000   229.38161      126900.59     -46348.581     -51949.12       50.252139    
   1728000   224.81134      126338.01     -46550.324     -52039.276      50.177769    
   1729000   225.05597      126675.95     -46377.73      -51872.655      50.222469    
   1730000   226.31578      126109.66     -46496.357     -52022.041      50.147519    
   1731000   225.16465      126583.2      -46684.307     -52181.885      50.210208    
   1732000   222.72816      126783.1      -46607.537     -52045.626      50.236625    
   1733000   221.59641      126420.11     -46690.123     -52100.58       50.188635    
   1734000   223.52664      126320.61     -46670.887     -52128.472      50.175465    
   1735000   228.63732      126531.22     -46550.167     -52132.533      50.203334    
   1736000   228.2047       126304.36     -46616.555     -52188.358      50.173314    
   1737000   225.46907      126494.18     -46561.75      -52066.761      50.198435    
   1738000   228.36085      126489.22     -46536.807     -52112.423      50.19778     
   1739000   222.71894      126392.73     -46641.826     -52079.691      50.185011    
   1740000   225.50304      126301.46     -46585.183     -52091.024      50.17293     
   1741000   228.05633      126533.37     -46444.124     -52012.305      50.20362     
   1742000   223.14619      126349.61     -46617.541     -52065.837      50.179304    
   1743000   226.94555      126005.66     -46578.004     -52119.065      50.13373     
   1744000   224.6764       126309.98     -46594.999     -52080.657      50.174058    
   1745000   222.17253      126932.32     -46654.702     -52079.226      50.256326    
   1746000   226.26096      126535.55     -46540.546     -52064.891      50.203907    
   1747000   221.66799      126290.01     -46605.731     -52017.936      50.171413    
   1748000   226.2932       126594.28     -46478.067     -52003.199      50.211673    
   1749000   224.87468      126333.65     -46600.747     -52091.246      50.177191    
   1750000   225.74869      126746.17     -46571.879     -52083.717      50.231747    
   1751000   224.96331      126856.78     -46537.237     -52029.899      50.246355    
   1752000   222.7913       126232.63     -46631.354     -52070.985      50.163813    
   1753000   225.25969      126559.85     -46527.191     -52027.09       50.207121    
   1754000   225.23279      126099.62     -46436.924     -51936.167      50.146189    
   1755000   228.1924       126856.7      -46475.538     -52047.041      50.246345    
   1756000   223.25117      126417.58     -46682.189     -52133.049      50.188301    
   1757000   228.29746      125864.97     -46450.594     -52024.663      50.115065    
   1758000   224.48444      125307.68     -46683.648     -52164.619      50.040991    
   1759000   227.3282       126251.66     -46537.883     -52088.286      50.166333    
   1760000   223.51864      125938.44     -46475.12      -51932.51       50.124814    
   1761000   226.68638      125583.75     -46459.195     -51993.927      50.077713    
   1762000   225.51754      125834.75     -46467.689     -51973.884      50.111054    
   1763000   220.60933      126274.71     -46593.864     -51980.22       50.169387    
   1764000   228.2852       125980.5      -46451.873     -52025.643      50.130393    
   1765000   223.60062      126092        -46500.007     -51959.399      50.145177    
   1766000   222.67455      126048.39     -46574.093     -52010.873      50.139397    
   1767000   224.67873      126210.48     -46467.034     -51952.748      50.160879    
   1768000   225.17461      125836.62     -46511.726     -52009.548      50.111302    
   1769000   221.29783      126184.92     -46569.634     -51972.801      50.157493    
   1770000   222.82297      126293.2      -46534.05      -51974.455      50.171835    
   1771000   224.43025      126634.14     -46389.556     -51869.204      50.216943    
   1772000   225.52546      125989.58     -46376.464     -51882.852      50.131598    
   1773000   222.93773      126258.38     -46480.951     -51924.157      50.167225    
   1774000   223.86934      125617.31     -46539.577     -52005.53       50.082173    
   1775000   224.44814      125877.6      -46454.995     -51935.08       50.116741    
   1776000   225.37173      126328.73     -46489.734     -51992.369      50.17654     
   1777000   223.71278      126198.38     -46527.416     -51989.546      50.159276    
   1778000   229.99589      125946.35     -46403.611     -52019.149      50.125863    
   1779000   226.98329      126038.3      -46572.413     -52114.396      50.138059    
   1780000   220.5036       126133.24     -46682.701     -52066.476      50.150645    
   1781000   225.75697      126165.23     -46472.901     -51984.941      50.154883    
   1782000   224.38858      126082.21     -46481.034     -51959.664      50.143881    
   1783000   223.68176      126747.38     -46488.681     -51950.054      50.231906    
   1784000   223.27141      126398.79     -46478.388     -51929.742      50.185814    
   1785000   223.28064      126603.53     -46526.381     -51977.96       50.212896    
   1786000   222.66446      126473.96     -46564.262     -52000.796      50.195761    
   1787000   224.31538      126317.55     -46539.343     -52016.186      50.17506     
   1788000   225.17838      126541.09     -46339.853     -51837.766      50.204639    
   1789000   225.41779      126354.32     -46448.571     -51952.33       50.179928    
   1790000   227.42018      126575.08     -46366.676     -51919.325      50.209135    
   1791000   224.26803      126433.8      -46484.379     -51960.065      50.190447    
   1792000   223.47707      126699.18     -46555.826     -52012.201      50.225538    
   1793000   227.55113      126656.71     -46420.857     -51976.704      50.219926    
   1794000   224.38156      126814.32     -46422.228     -51900.686      50.240748    
   1795000   225.38616      126141.14     -46327.43      -51830.416      50.151692    
   1796000   225.12741      126260.57     -46437.077     -51933.746      50.167514    
   1797000   222.6805       126032.72     -46506.217     -51943.143      50.137318    
   1798000   223.65246      126157.05     -46410.649     -51871.306      50.1538      
   1799000   215.5432       126031.38     -46608.497     -51871.16       50.13714     
   1800000   224.03621      126162.19     -46335.88      -51805.907      50.15448     
   1801000   228.27924      126105.7      -46413.253     -51986.877      50.146994    
   1802000   225.05086      126270.88     -46432.236     -51927.036      50.168879    
   1803000   223.97691      126416.17     -46335.473     -51804.051      50.188115    
   1804000   224.03986      125797.12     -46417.954     -51888.07       50.106058    
   1805000   227.46112      126565.1      -46351.973     -51905.622      50.207814    
   1806000   225.60017      126719.38     -46349.911     -51858.123      50.228208    
   1807000   225.28784      126508.51     -46400.497     -51901.083      50.200331    
   1808000   225.6058       126877.96     -46300.264     -51808.614      50.249152    
   1809000   227.6553       126847.72     -46371.985     -51930.374      50.245158    
   1810000   221.35667      126590.65     -46569.189     -51973.793      50.211194    
   1811000   223.12109      126333.94     -46411.599     -51859.283      50.17723     
   1812000   227.50576      126618.21     -46346.415     -51901.154      50.214837    
   1813000   229.28556      126794.33     -46337.333     -51935.526      50.238109    
   1814000   225.93903      125998.86     -46432.859     -51949.345      50.132828    
   1815000   226.6051       126448.43     -46473.248     -52005.996      50.192382    
   1816000   222.72954      125879.24     -46519.676     -51957.799      50.116958    
   1817000   227.95237      125923.64     -46279.499     -51845.142      50.122849    
   1818000   225.24536      126577.65     -46429.529     -51929.078      50.209474    
   1819000   224.97519      126383.47     -46475.291     -51968.243      50.183786    
   1820000   223.60853      126254.65     -46508.681     -51968.265      50.166731    
   1821000   225.94473      126286.91     -46476.53      -51993.154      50.171002    
   1822000   225.06168      125936.65     -46469.59      -51964.654      50.124576    
   1823000   223.7946       126533.04     -46584.089     -52048.217      50.203575    
   1824000   225.40832      126164.06     -46389.588     -51893.116      50.154728    
   1825000   225.17955      126421.51     -46521.301     -52019.243      50.188821    
   1826000   221.64486      126131.6      -46502.729     -51914.369      50.150426    
   1827000   226.90292      125841.43     -46531.975     -52071.995      50.111939    
   1828000   228.14397      126609.19     -46387.221     -51957.542      50.213644    
   1829000   224.22628      126177.4      -46413.49      -51888.158      50.156496    
   1830000   227.83721      125768.64     -46367.8       -51930.631      50.102276    
   1831000   222.81944      126168.76     -46585.146     -52025.464      50.155352    
   1832000   223.33893      125915.85     -46463.17      -51916.172      50.121816    
   1833000   227.55237      126061.45     -46273.628     -51829.504      50.141128    
   1834000   229.13815      125861.03     -46232.175     -51826.77       50.114541    
   1835000   221.73727      125664.73     -46387.556     -51801.452      50.088474    
   1836000   227.36839      125294.28     -46327.571     -51878.956      50.039206    
   1837000   222.60072      126052.45     -46441.624     -51876.602      50.139934    
   1838000   227.93775      125642.11     -46323.302     -51888.588      50.085469    
   1839000   223.44091      125902.41     -46455.122     -51910.614      50.120033    
   1840000   224.62881      126207.62     -46302.626     -51787.121      50.1605      
   1841000   224.13573      126033.36     -46449.398     -51921.855      50.137403    
   1842000   229.06571      125710.09     -46181.477     -51774.303      50.094499    
   1843000   227.29311      125730.08     -46326.766     -51876.313      50.097155    
   1844000   226.69361      125590.02     -46416.077     -51950.986      50.078545    
   1845000   221.78311      125621.19     -46559.104     -51974.119      50.082688    
   1846000   225.53408      125515.39     -46325.284     -51831.882      50.068625    
   1847000   224.74008      125529.36     -46425.743     -51912.955      50.070482    
   1848000   222.2612       125891.38     -46516.079     -51942.767      50.118569    
   1849000   222.98518      126162.27     -46331.255     -51775.62       50.154491    
   1850000   225.32531      125914.04     -46467.162     -51968.663      50.121577    
   1851000   225.20302      125895.82     -46337.98      -51836.495      50.119158    
   1852000   219.57698      125868.5      -46577.339     -51938.49       50.115533    
   1853000   222.79207      125901.91     -46377.673     -51817.323      50.119967    
   1854000   220.32163      125864.07     -46422.227     -51801.559      50.114944    
   1855000   225.02713      125726.41     -46463.421     -51957.642      50.096668    
   1856000   224.7201       126225.35     -46298.286     -51785.01       50.162849    
   1857000   222.84181      125802.52     -46406.887     -51847.751      50.106775    
   1858000   226.71132      125723.11     -46265.957     -51801.299      50.09623     
   1859000   223.3726       125394.21     -46411.678     -51865.503      50.052506    
   1860000   222.95407      125930.9      -46405.512     -51849.117      50.123813    
   1861000   225.43309      125408.03     -46374.689     -51878.822      50.054345    
   1862000   222.94772      125626.03     -46494.53      -51937.98       50.083331    
   1863000   224.15385      125563.5      -46279.528     -51752.427      50.075021    
   1864000   224.8674       125659.96     -46320.207     -51810.528      50.08784     
   1865000   225.01208      125554.08     -46424.615     -51918.468      50.073769    
   1866000   224.25974      125856.16     -46394.092     -51869.576      50.113894    
   1867000   225.14546      125757.92     -46517.857     -52014.967      50.100852    
   1868000   226.68266      126046.84     -46299.644     -51834.286      50.139191    
   1869000   223.98633      125438.52     -46454.258     -51923.067      50.058401    
   1870000   223.01777      125948.51     -46407.187     -51852.348      50.12615     
   1871000   223.41444      126021.82     -46375.275     -51830.12       50.135873    
   1872000   223.85771      125886.87     -46488.945     -51954.614      50.11797     
   1873000   225.6048       126147.27     -46320.746     -51829.071      50.152503    
   1874000   224.37159      125557.49     -46409.729     -51887.945      50.074222    
   1875000   225.29931      125552.77     -46512.053     -52012.919      50.073594    
   1876000   224.15614      125621.71     -46407.029     -51879.984      50.082758    
   1877000   221.78102      125815.71     -46408.11      -51823.074      50.108526    
   1878000   226.79006      125462.39     -46253.985     -51791.249      50.061576    
   1879000   223.82753      125586.53     -46515.599     -51980.531      50.078082    
   1880000   224.87363      125502.55     -46349.237     -51839.71       50.066917    
   1881000   224.0681       125202.71     -46443.638     -51914.443      50.027013    
   1882000   224.57849      125221.4      -46383.829     -51867.096      50.029502    
   1883000   223.72433      125471.61     -46492.558     -51954.97       50.062802    
   1884000   220.9199       125468.78     -46481.58      -51875.519      50.062426    
   1885000   226.36722      125965.31     -46435.398     -51962.338      50.128378    
   1886000   225.01702      126218.8      -46482.373     -51976.347      50.161981    
   1887000   228.61119      125784.12     -46388.543     -51970.272      50.104331    
   1888000   225.5056       126352.93     -46544.081     -52049.984      50.179744    
   1889000   222.75722      125646.9      -46474.237     -51913.036      50.086105    
   1890000   228.9733       125844.44     -46353.89      -51944.46       50.11234     
   1891000   225.58263      125644.52     -46428.519     -51936.303      50.085788    
   1892000   224.75982      125308.96     -46535.383     -52023.077      50.041161    
   1893000   224.97239      125687.36     -46397.479     -51890.364      50.091481    
   1894000   227.93661      125450.69     -46375.358     -51940.616      50.06002     
   1895000   224.23311      125804.05     -46547.054     -52021.888      50.106977    
   1896000   219.84909      125513.11     -46444.632     -51812.426      50.068321    
   1897000   226.2947       125504.48     -46421.029     -51946.198      50.067173    
   1898000   221.95817      125868        -46432.132     -51851.421      50.115467    
   1899000   227.45415      125776.69     -46227.373     -51780.851      50.103344    
   1900000   223.47189      125589.07     -46629.211     -52085.459      50.07842     
   1901000   226.62134      125392.21     -46421.515     -51954.659      50.052241    
   1902000   226.89107      126110.85     -46270.391     -51810.122      50.147677    
   1903000   224.09942      125915.54     -46440.434     -51912.004      50.121776    
   1904000   227.07612      125859.2      -46449.446     -51993.694      50.114298    
   1905000   223.834        125843.02     -46398.87      -51863.959      50.112151    
   1906000   228.89239      126109.97     -46387.106     -51975.7        50.14756     
   1907000   221.25326      125856.99     -46390.791     -51792.87       50.114006    
   1908000   224.70511      125271.66     -46421.637     -51907.995      50.036195    
   1909000   221.53964      125498.59     -46587.694     -51996.765      50.06639     
   1910000   225.9485       126023.77     -46424.628     -51941.345      50.136131    
   1911000   226.82681      126197.86     -46261.149     -51799.311      50.159207    
   1912000   224.9444       125886.71     -46374.568     -51866.769      50.117949    
   1913000   224.70849      125625.3      -46437.544     -51923.985      50.083235    
   1914000   227.25894      125970.61     -46427.947     -51976.659      50.129081    
   1915000   227.12005      126021.8      -46440.594     -51985.916      50.13587     
   1916000   225.4007       125745.16     -46378.975     -51882.316      50.099158    
   1917000   222.90976      125962.37     -46508.867     -51951.391      50.127988    
   1918000   223.1891       125799.97     -46504.825     -51954.168      50.106436    
   1919000   223.41249      126576.01     -46467.174     -51921.972      50.209258    
   1920000   227.23024      126001.47     -46380.616     -51928.627      50.133174    
   1921000   226.27619      126443.85     -46434.581     -51959.299      50.191776    
   1922000   227.15499      126368.22     -46413.212     -51959.386      50.181768    
   1923000   225.06148      126036.05     -46377.582     -51872.641      50.137759    
   1924000   225.61453      125885.34     -46467.353     -51975.916      50.117768    
   1925000   226.61105      126280.88     -46307.14      -51840.033      50.170204    
   1926000   222.51683      125641.89     -46446.48      -51879.41       50.085439    
   1927000   224.3186       125988.06     -46461.594     -51938.516      50.131396    
   1928000   227.86128      125793.3      -46318.636     -51882.055      50.10555     
   1929000   224.24438      125627.14     -46412.223     -51887.333      50.083479    
   1930000   223.01109      126182.6      -46551.876     -51996.873      50.157186    
   1931000   221.51082      125732.4      -46432.826     -51841.193      50.097463    
   1932000   223.80848      125935.67     -46547.056     -52011.523      50.124446    
   1933000   223.91056      125875.68     -46512.636     -51979.595      50.116486    
   1934000   229.47905      125860.35     -46348.165     -51951.083      50.114451    
   1935000   225.70947      125723.09     -46503.264     -52014.144      50.096226    
   1936000   225.09457      125778.3      -46467.399     -51963.266      50.103559    
   1937000   227.39636      126120.02     -46268.558     -51820.626      50.148892    
   1938000   224.33         126051.55     -46478.076     -51955.276      50.139815    
   1939000   224.67431      125709.95     -46307.514     -51793.12       50.094481    
   1940000   224.87568      125671.38     -46470.894     -51961.417      50.089358    
   1941000   226.625        125726.68     -46366.386     -51899.62       50.096704    
   1942000   222.30695      125057.53     -46566.879     -51994.685      50.007669    
   1943000   223.28789      125489.63     -46363.841     -51815.597      50.065199    
   1944000   223.96649      125409.31     -46552.591     -52020.915      50.054515    
   1945000   224.01352      126166.97     -46396.531     -51866.004      50.155114    
   1946000   223.73711      125781.51     -46386.742     -51849.466      50.103985    
   1947000   222.05662      125614.73     -46530.983     -51952.676      50.08183     
   1948000   226.60656      125464.85     -46409.124     -51941.908      50.061904    
   1949000   226.98542      125410.87     -46385.988     -51928.023      50.054723    
   1950000   221.96974      125895.96     -46505.874     -51925.446      50.119177    
   1951000   227.82866      125476.24     -46329.078     -51891.701      50.063418    
   1952000   224.94916      125563.13     -46431.884     -51924.201      50.074972    
   1953000   223.28654      126171.99     -46519.692     -51971.414      50.15578     
   1954000   224.23313      126081.99     -46480.541     -51955.375      50.143852    
   1955000   227.8071       125749.7      -46350.78      -51912.876      50.099761    
   1956000   222.75866      126213.7      -46446.061     -51884.896      50.161305    
   1957000   225.64394      125638.73     -46466.29      -51975.571      50.085019    
   1958000   224.96214      125651.91     -46452.571     -51945.205      50.086771    
   1959000   225.32722      126205.8      -46459.579     -51961.127      50.160259    
   1960000   225.93546      125659.38     -46494.746     -52011.144      50.087763    
   1961000   228.12587      125825.81     -46407.05      -51976.929      50.109866    
   1962000   221.67849      125779.77     -46364.231     -51776.692      50.103754    
   1963000   222.35824      125674.11     -46566.929     -51995.986      50.08972     
   1964000   224.24423      126264.13     -46451.365     -51926.47       50.167986    
   1965000   223.89838      126454.91     -46548.296     -52014.958      50.19324     
   1966000   228.83704      126058.82     -46400.092     -51987.335      50.140779    
   1967000   224.4564       125866.48     -46518.749     -51999.035      50.115265    
   1968000   225.03584      125679.33     -46504.067     -51998.5        50.090414    
   1969000   226.41307      126129.89     -46499.773     -52027.833      50.150201    
   1970000   225.83772      126192.62     -46453.199     -51967.211      50.158513    
   1971000   227.34225      125828.29     -46389.804     -51940.551      50.110196    
   1972000   223.62278      126170.84     -46368.252     -51828.185      50.155627    
   1973000   225.23791      125960.68     -46495.77      -51995.137      50.127764    
   1974000   223.78664      126288.41     -46604.75      -52068.683      50.171201    
   1975000   224.82325      125995.8      -46513.631     -52002.874      50.132423    
   1976000   226.75751      125962.54     -46398.741     -51935.21       50.12801     
   1977000   222.62012      126188.01     -46475.093     -51910.545      50.157902    
   1978000   226.71291      125853.73     -46269.212     -51804.593      50.113573    
   1979000   224.20756      125477.37     -46472.38      -51946.59       50.063569    
   1980000   225.63146      125928.52     -46510.173     -52019.149      50.123497    
   1981000   224.25966      125886.91     -46512.516     -51987.998      50.117976    
   1982000   224.59219      126264.68     -46472.739     -51956.34       50.168058    
   1983000   222.34072      126111.32     -46395.942     -51824.572      50.147739    
   1984000   225.46535      126182.58     -46475.777     -51980.698      50.157182    
   1985000   221.29438      125929.79     -46575.729     -51978.812      50.123666    
   1986000   228.45145      126301.94     -46411.836     -51989.664      50.172993    
   1987000   223.58257      125948.2      -46531.649     -51990.6        50.126109    
   1988000   223.37404      126374.62     -46461.188     -51915.047      50.182615    
   1989000   227.41088      126191.55     -46592.275     -52144.697      50.158371    
   1990000   227.68599      126377.94     -46358.186     -51917.325      50.183055    
   1991000   224.51221      126275.2      -46477.141     -51958.79       50.169452    
   1992000   226.29185      125872.1      -46585.557     -52110.657      50.11601     
   1993000   226.16656      126289.5      -46364.952     -51886.993      50.171346    
   1994000   224.97276      126082.33     -46476.569     -51969.463      50.143896    
   1995000   226.62271      125896.3      -46471.692     -52004.87       50.119222    
   1996000   224.94881      125929.05     -46349.118     -51841.427      50.123567    
   1997000   226.03745      126373.71     -46419.916     -51938.804      50.182495    
   1998000   225.78181      126023.59     -46457.447     -51970.094      50.136108    
   1999000   227.03211      126330.47     -46523.96      -52067.134      50.17677     
   2000000   225.95277      126624.73     -46299.143     -51815.964      50.215699    
   2001000   223.79526      126362        -46468.927     -51933.07       50.180944    
   2002000   222.81296      126443.16     -46603.834     -52043.995      50.191685    
   2003000   224.81513      126743.77     -46451.286     -51940.331      50.23143     
   2004000   224.78344      126585.62     -46520.941     -52009.211      50.210529    
   2005000   226.18253      126440.79     -46449.384     -51971.815      50.191372    
   2006000   224.30396      126372.45     -46521.644     -51998.208      50.182328    
   2007000   223.37637      126184.87     -46517.714     -51971.63       50.157486    
   2008000   226.72155      126547.87     -46423.806     -51959.398      50.205537    
   2009000   223.0731       126388.28     -46512.91      -51959.421      50.184423    
   2010000   227.31292      126806.31     -46386.126     -51936.156      50.23969     
   2011000   227.05201      126535.51     -46356.374     -51900.034      50.203902    
   2012000   227.22708      126241.72     -46495.359     -52043.293      50.165017    
   2013000   222.42835      126798.88     -46600.297     -52031.067      50.238709    
   2014000   226.82104      126814.8      -46351.722     -51889.743      50.240812    
   2015000   225.32149      126512.05     -46526.322     -52027.729      50.200799    
   2016000   228.94999      126678.24     -46343.828     -51933.828      50.222771    
   2017000   225.62886      126673.2      -46463.797     -51972.709      50.222106    
   2018000   222.15988      126276.64     -46550.961     -51975.176      50.169642    
   2019000   226.99936      126333.63     -46486.613     -52028.988      50.177188    
   2020000   227.80601      126895.77     -46360.094     -51922.163      50.251503    
   2021000   224.3723       126745.3      -46574.655     -52052.887      50.231633    
   2022000   223.57217      126231.54     -46370.846     -51829.543      50.163669    
   2023000   226.1955       126306.91     -46499.924     -52022.671      50.17365     
   2024000   223.28977      126245.62     -46499.438     -51951.239      50.165534    
   2025000   226.7363       126306.56     -46567.716     -52103.667      50.173604    
   2026000   220.9056       126290.48     -46637.408     -52030.998      50.171476    
   2027000   227.98459      126727.59     -46432.024     -51998.454      50.229292    
   2028000   224.11755      126332.4      -46584.339     -52056.352      50.177026    
   2029000   228.72244      126152.56     -46373.987     -51958.432      50.153205    
   2030000   225.8934       126284.33     -46500.126     -52015.497      50.170661    
   2031000   223.75896      125852.61     -46560.715     -52023.972      50.113423    
   2032000   223.63785      126500.32     -46639.666     -52099.966      50.199248    
   2033000   223.2186       126761.72     -46391.096     -51841.16       50.233801    
   2034000   227.34337      126497.61     -46543.725     -52094.499      50.19889     
   2035000   226.26613      126694.68     -46569.733     -52094.205      50.224943    
   2036000   226.82707      125943.4      -46435.072     -51973.24       50.125471    
   2037000   221.91277      125847.26     -46509.75      -51927.931      50.112714    
   2038000   225.61141      126417.92     -46509.209     -52017.695      50.188345    
   2039000   229.08262      125993.25     -46450.44      -52043.678      50.132084    
   2040000   224.09402      125976.18     -46688.02      -52159.458      50.12982     
   2041000   226.37154      126499.45     -46523.449     -52050.495      50.199132    
   2042000   224.84627      126264.99     -46539.884     -52029.689      50.168099    
   2043000   225.68064      126322.22     -46487.406     -51997.583      50.175678    
   2044000   228.16415      125814        -46460.738     -52031.552      50.108298    
   2045000   223.65351      126069.19     -46674.034     -52134.717      50.142154    
   2046000   226.5253       126117.12     -46517.03      -52047.83       50.148508    
   2047000   226.79451      125931.01     -46550.878     -52088.251      50.123827    
   2048000   222.47954      126300.54     -46488.472     -51920.491      50.172807    
   2049000   221.41157      126498.64     -46532.403     -51938.347      50.199025    
   2050000   227.6679       126296.42     -46471.26      -52029.957      50.172262    
   2051000   224.70816      126638.47     -46468.616     -51955.049      50.217515    
   2052000   228.6724       126343.22     -46509.829     -52093.052      50.178458    
   2053000   226.93554      126721.06     -46546.81      -52087.626      50.228429    
   2054000   225.27817      126019.38     -46515.852     -52016.202      50.13555     
   2055000   227.01847      126633.22     -46514.874     -52057.715      50.216821    
   2056000   222.33891      126121.31     -46618.55      -52047.136      50.149063    
   2057000   225.78058      126172.4      -46498.733     -52011.35       50.155834    
   2058000   222.99951      126334.98     -46606.799     -52051.514      50.177367    
   2059000   225.29043      127053.01     -46554.961     -52055.611      50.272249    
   2060000   229.7187       126078.69     -46453.509     -52062.278      50.143413    
   2061000   224.53759      126017.95     -46637.785     -52120.053      50.135359    
   2062000   225.66613      126102.31     -46492.427     -52002.25       50.146545    
   2063000   225.88944      126058.91     -46625.619     -52140.894      50.140791    
   2064000   226.38404      126082.01     -46625.924     -52153.275      50.143853    
   2065000   226.44745      126477.75     -46580.635     -52109.534      50.196262    
   2066000   226.75963      125902.27     -46515.551     -52052.073      50.120014    
   2067000   222.95661      126094.58     -46631.599     -52075.266      50.14552     
   2068000   224.71531      126513.6      -46618.437     -52105.044      50.201004    
   2069000   221.11324      125863.4      -46667.113     -52065.773      50.114856    
   2070000   224.45755      126257.91     -46558.104     -52038.418      50.167162    
   2071000   224.11411      126136.18     -46576.942     -52048.87       50.151034    
   2072000   228.5813       126005.27     -46462.501     -52043.5        50.133678    
   2073000   224.0668       125919.5      -46619.706     -52090.48       50.122301    
   2074000   226.74484      126220.1      -46592.625     -52128.785      50.162153    
   2075000   226.5431       125761.74     -46520.97      -52052.204      50.10136     
   2076000   226.3345       126543.81     -46578.882     -52105.023      50.205       
   2077000   224.14621      125892.41     -46566.641     -52039.354      50.118706    
   2078000   225.51547      126032.77     -46621.495     -52127.639      50.137326    
   2079000   225.56457      126467.96     -46570.159     -52077.502      50.194967    
   2080000   224.63205      125949.41     -46640.742     -52125.317      50.126269    
   2081000   223.71976      126077.76     -46620.742     -52083.043      50.14329     
   2082000   224.30133      126524.87     -46542.493     -52018.993      50.202495    
   2083000   225.84105      126595.33     -46478.392     -51992.486      50.211812    
   2084000   226.57358      126625.1      -46417.743     -51949.721      50.215747    
   2085000   223.03817      126723.2      -46632.597     -52078.256      50.228713    
   2086000   227.60363      125903.75     -46472.647     -52029.775      50.120211    
   2087000   227.60416      126075.78     -46497.587     -52054.728      50.143028    
   2088000   227.13965      126078.72     -46505.67      -52051.47       50.143418    
   2089000   231.1588       126498.65     -46441.424     -52085.354      50.199027    
   2090000   222.08627      126432.28     -46591.538     -52013.955      50.190245    
   2091000   222.48202      126266.98     -46593.716     -52025.796      50.168364    
   2092000   223.15296      126466.02     -46578.088     -52026.55       50.19471     
   2093000   229.50956      126622.03     -46481.595     -52085.258      50.215341    
   2094000   226.87237      126592.72     -46606.835     -52146.109      50.211466    
   2095000   229.47105      126400.82     -46474.782     -52077.504      50.186083    
   2096000   222.83676      126758.27     -46545.543     -51986.284      50.233345    
   2097000   225.62767      127098.08     -46517.317     -52026.201      50.278194    
   2098000   222.61197      126697.42     -46567.309     -52002.561      50.225305    
   2099000   226.8722       127014.45     -46580.381     -52119.651      50.267163    
   2100000   225.6154       126626.37     -46482.7       -51991.284      50.215916    
   2101000   223.64123      126477.57     -46588.338     -52048.721      50.196239    
   2102000   224.65004      126783.51     -46519.457     -52004.47       50.236679    
   2103000   223.04745      126871.38     -46626.265     -52072.151      50.248282    
   2104000   226.22485      127278.54     -46401.177     -51924.642      50.301977    
   2105000   223.72692      126555.18     -46497.253     -51959.728      50.206504    
   2106000   225.38677      126742.12     -46564.274     -52067.276      50.231211    
   2107000   226.73406      126487.54     -46518.779     -52054.675      50.197558    
   2108000   220.29467      127071.78     -46632.748     -52011.422      50.274726    
   2109000   226.56656      126925.01     -46556.997     -52088.804      50.255362    
   2110000   225.28029      127195.21     -46493.853     -51994.255      50.290998    
   2111000   225.71843      127147.6      -46511.488     -52022.587      50.284722    
   2112000   227.44956      126953.6      -46472.483     -52025.85       50.259135    
   2113000   224.49439      127146.15     -46573.297     -52054.51       50.284531    
   2114000   225.47381      127168.49     -46429.659     -51934.786      50.287477    
   2115000   224.86565      126793.89     -46557.668     -52047.946      50.23805     
   2116000   228.14351      126798.54     -46569.189     -52139.499      50.238664    
   2117000   221.7072       126877.5      -46603.516     -52016.678      50.24909     
   2118000   227.3701       127105.08     -46484.002     -52035.428      50.279116    
   2119000   227.98501      126840.26     -46584.82      -52151.26       50.244173    
   2120000   226.37178      127096.44     -46640.67      -52167.722      50.277977    
   2121000   224.56312      126848.58     -46658.428     -52141.319      50.245272    
   2122000   226.54395      126431.4      -46590.884     -52122.139      50.19013     
   2123000   219.40698      126959.36     -46750.596     -52107.597      50.259895    
   2124000   225.07435      126913.01     -46557.504     -52052.878      50.253777    
   2125000   221.74759      126845.44     -46717.365     -52131.513      50.244858    
   2126000   225.91358      126901.6      -46621.577     -52137.441      50.252271    
   2127000   222.5805       126828.51     -46640.685     -52075.17       50.242622    
   2128000   225.72005      126576.51     -46499.474     -52010.613      50.209323    
   2129000   223.66328      127040.79     -46624.489     -52085.411      50.270638    
   2130000   225.41317      127186.36     -46519.278     -52022.924      50.289831    
   2131000   227.51772      127333.11     -46485.027     -52040.058      50.309166    
   2132000   224.27252      126250.29     -46481.9       -51957.697      50.166153    
   2133000   227.38375      126649.71     -46471.912     -52023.672      50.219001    
   2134000   224.67815      126598.22     -46566.158     -52051.859      50.212195    
   2135000   226.14979      127099.99     -46395.493     -51917.124      50.278445    
   2136000   223.42574      126512.18     -46648.195     -52103.317      50.200817    
   2137000   225.33938      126868.85     -46563.985     -52065.829      50.247949    
   2138000   225.02586      126706.28     -46507.68      -52001.87       50.226476    
   2139000   226.38879      126617.95     -46535         -52062.467      50.214803    
   2140000   225.68941      126857.32     -46471.525     -51981.916      50.246426    
   2141000   222.32364      126738.55     -46680.163     -52108.376      50.23074     
   2142000   225.43178      126817.68     -46595.149     -52099.25       50.241191    
   2143000   226.21589      126865.75     -46661.766     -52185.011      50.247539    
   2144000   223.27013      126980.07     -46632.386     -52083.708      50.262627    
   2145000   225.8577       126898.51     -46550.482     -52064.982      50.251863    
   2146000   223.16452      126396.12     -46640.13      -52088.873      50.185461    
   2147000   224.891        126380.65     -46663.793     -52154.69       50.183413    
   2148000   226.95622      126342.34     -46598.954     -52140.275      50.178342    
   2149000   227.81456      126873.69     -46477.386     -52039.664      50.248587    
   2150000   222.49086      126396.09     -46442.42      -51874.716      50.185456    
   2151000   223.63752      127101.69     -46609.325     -52069.618      50.278669    
   2152000   226.04835      126378.77     -46516.885     -52036.039      50.183164    
   2153000   228.42341      126819.87     -46539.021     -52116.164      50.241481    
   2154000   225.1505       126824.83     -46626.437     -52123.67       50.242136    
   2155000   221.53811      126362.32     -46644.055     -52053.088      50.180987    
   2156000   224.05083      126834.56     -46484.67      -51955.054      50.243421    
   2157000   228.47703      126737.87     -46402.287     -51980.74       50.230651    
   2158000   226.00293      127079.37     -46419.231     -51937.277      50.275727    
   2159000   227.25064      126587.33     -46590.589     -52139.098      50.210755    
   2160000   227.99625      126563.96     -46437.422     -52004.136      50.207665    
   2161000   222.6456       126707.7      -46575.964     -52012.038      50.226665    
   2162000   225.55822      126860.01     -46514.524     -52021.712      50.246782    
   2163000   226.98546      126881.77     -46578.092     -52120.127      50.249654    
   2164000   225.19684      127120.57     -46646.279     -52144.643      50.281159    
   2165000   222.0507       126326.95     -46651.169     -52072.717      50.176305    
   2166000   226.6866       126464.72     -46539.097     -52073.835      50.194538    
   2167000   225.95803      126528.27     -46545.976     -52062.926      50.202945    
   2168000   223.13523      126584.79     -46641.42      -52089.449      50.210418    
   2169000   226.44348      126314.95     -46507.702     -52036.504      50.174716    
   2170000   226.58932      126253.55     -46585.146     -52117.509      50.166585    
   2171000   221.46327      126543.31     -46605.511     -52012.717      50.204933    
   2172000   220.78364      126765.34     -46525.916     -51916.528      50.23428     
   2173000   224.72907      126407.52     -46523.9       -52010.843      50.186969    
   2174000   223.92309      126328.13     -46562.513     -52029.778      50.176461    
   2175000   222.47735      126509.68     -46596.789     -52028.755      50.200485    
   2176000   223.71116      126094.76     -46577.695     -52039.785      50.145543    
   2177000   223.86566      126513.66     -46701.377     -52167.239      50.201012    
   2178000   224.92868      126378.96     -46531.961     -52023.778      50.183189    
   2179000   223.97074      126318.14     -46609.24      -52077.668      50.175138    
   2180000   227.49672      126745.5      -46508.754     -52063.272      50.231658    
   2181000   222.54578      126224.41     -46681.917     -52115.554      50.162724    
   2182000   228.22639      126680.15     -46501.568     -52073.902      50.223024    
   2183000   225.10875      126396.41     -46519.916     -52016.13       50.185499    
   2184000   223.42196      126280.28     -46546.332     -52001.361      50.170124    
   2185000   222.33257      126732.74     -46605.026     -52033.457      50.229972    
   2186000   226.65429      126641.77     -46423.542     -51957.492      50.217951    
   2187000   227.27579      126596.47     -46542.618     -52091.742      50.211963    
   2188000   229.42399      126716.71     -46450.242     -52051.816      50.227854    
   2189000   223.95019      126104.29     -46582.894     -52050.821      50.146808    
   2190000   223.92307      126180.53     -46659.808     -52127.073      50.156912    
   2191000   226.14159      126082.24     -46601.576     -52123.008      50.143884    
   2192000   224.19957      126463.39     -46574.964     -52048.979      50.194362    
   2193000   226.6932       126628.88     -46480.414     -52015.313      50.216247    
   2194000   225.79135      126287.03     -46563.14      -52076.02       50.171019    
   2195000   224.71102      126559.46     -46601.412     -52087.915      50.20707     
   2196000   223.85271      126319.53     -46515.154     -51980.701      50.175322    
   2197000   225.33392      126255.43     -46654.662     -52156.373      50.166834    
   2198000   223.95326      126092.88     -46585.455     -52053.456      50.145295    
   2199000   221.32018      126034.9      -46564.272     -51967.985      50.137607    
   2200000   228.49177      126477.54     -46566.948     -52145.761      50.196234    
   2201000   227.2218       126657.13     -46554.326     -52102.132      50.219982    
   2202000   224.93233      126519.79     -46583.966     -52075.872      50.201822    
   2203000   225.81504      126577.67     -46526.41      -52039.868      50.209477    
   2204000   226.90362      126466.05     -46613.755     -52153.792      50.194714    
   2205000   227.19709      126693.19     -46513.216     -52060.419      50.224747    
   2206000   226.49415      126109.53     -46572.859     -52102.899      50.147502    
   2207000   225.24511      126479.88     -46605.249     -52104.792      50.196544    
   2208000   225.71522      126669.14     -46564.678     -52075.699      50.221568    
   2209000   225.69929      126562.77     -46555.774     -52066.406      50.207507    
   2210000   224.68362      126065.53     -46540.553     -52026.387      50.141669    
   2211000   222.87011      126442.47     -46521.505     -51963.06       50.191594    
   2212000   228.56673      126800.61     -46475.34      -52055.983      50.238938    
   2213000   228.69264      126122.31     -46577.619     -52161.337      50.149196    
   2214000   226.55155      126765.71     -46446.228     -51977.669      50.234328    
   2215000   227.46646      126167.22     -46658.921     -52212.701      50.155148    
   2216000   227.37749      126594.7      -46428.179     -51979.785      50.211729    
   2217000   222.56924      126307.29     -46693.724     -52127.933      50.173701    
   2218000   223.02428      126427.04     -46697.107     -52142.427      50.189553    
   2219000   222.48953      126881.23     -46653.468     -52085.731      50.249583    
   2220000   224.36731      126751.71     -46620.872     -52098.983      50.232479    
   2221000   221.32745      126564.11     -46590.95      -51994.84       50.207684    
   2222000   221.45648      126613.62     -46751.839     -52158.88       50.21423     
   2223000   227.31664      126923.8      -46550.247     -52100.368      50.255202    
   2224000   224.34322      126319.84     -46670.094     -52147.617      50.175362    
   2225000   225.77033      126627.22     -46532.329     -52044.696      50.216028    
   2226000   224.82693      126656.47     -46588.849     -52078.181      50.219894    
   2227000   222.36888      126105.5      -46646.52      -52075.837      50.146968    
   2228000   225.0323       126849.59     -46610.385     -52104.732      50.245406    
   2229000   225.05629      126558.62     -46671.633     -52166.566      50.206958    
   2230000   225.16063      126996.93     -46565.737     -52063.218      50.264853    
   2231000   223.01911      126928.4      -46643.223     -52088.417      50.255809    
   2232000   228.22681      126790.82     -46625.347     -52197.691      50.237644    
   2233000   225.22364      126611.37     -46699.232     -52198.251      50.213932    
   2234000   225.14638      126648.29     -46553.672     -52050.804      50.218813    
   2235000   220.68942      126578.7      -46719.727     -52108.039      50.209614    
   2236000   224.06782      126452.13     -46577.131     -52047.93       50.192872    
   2237000   228.73623      126803.48     -46504.505     -52089.286      50.239316    
   2238000   221.38048      126380.8      -46612.576     -52017.76       50.183433    
   2239000   224.57654      126592.75     -46500.528     -51983.748      50.211471    
   2240000   224.73769      126794.69     -46575.428     -52062.582      50.238156    
   2241000   222.35162      126043.88     -46724.475     -52153.371      50.138798    
   2242000   227.26602      125872        -46513.564     -52062.449      50.115998    
   2243000   223.20353      126337.56     -46695.891     -52145.588      50.177708    
   2244000   225.92019      126175.25     -46626.615     -52142.641      50.156211    
   2245000   225.42802      126333.29     -46631.483     -52135.492      50.177144    
   2246000   223.78862      126856.26     -46549.167     -52013.149      50.246286    
   2247000   227.44819      126777.65     -46537.428     -52090.761      50.235906    
   2248000   225.08417      126258.45     -46653.865     -52149.479      50.167233    
   2249000   227.403        126544.78     -46514.956     -52067.186      50.205128    
   2250000   222.01544      126807.65     -46636.171     -52056.859      50.239868    
   2251000   226.76049      126801.67     -46374.038     -51910.58       50.239077    
   2252000   227.65068      126583.54     -46574.766     -52133.043      50.210254    
   2253000   224.76137      126557.85     -46589.301     -52077.033      50.206856    
   2254000   226.85876      126366.68     -46602.228     -52141.17       50.181564    
   2255000   222.96749      126544.2      -46690.13      -52134.063      50.205051    
   2256000   226.77635      126575.64     -46590.574     -52127.503      50.209209    
   2257000   225.84603      126156.01     -46556.256     -52070.471      50.153662    
   2258000   225.42011      126380.8      -46658.504     -52162.319      50.183433    
   2259000   225.60394      126208.74     -46561.291     -52069.595      50.160648    
   2260000   227.84956      126356.2      -46603.537     -52166.67       50.180176    
   2261000   227.40387      126558.99     -46417.619     -51969.87       50.207007    
   2262000   225.77808      125738.16     -46617.749     -52130.305      50.098228    
   2263000   223.52521      126542.33     -46580.263     -52037.813      50.204804    
   2264000   221.45508      126586.65     -46772.697     -52179.704      50.210665    
   2265000   225.5295       126245.43     -46472.414     -51978.901      50.165509    
   2266000   226.9921       126457.13     -46572.287     -52114.484      50.193534    
   2267000   222.26099      126560.33     -46671.705     -52098.388      50.207185    
   2268000   225.63411      126473.05     -46546.711     -52055.752      50.19564     
   2269000   223.3145       126742.37     -46613.505     -52065.91       50.231245    
   2270000   225.15967      126689.31     -46479.32      -51976.777      50.224234    
   2271000   226.62593      126685.77     -46462.567     -51995.824      50.223766    
   2272000   225.00299      126644.07     -46553.128     -52046.759      50.218255    
   2273000   221.76588      126239.65     -46601.046     -52015.641      50.164743    
   2274000   223.37049      126697.93     -46576.236     -52030.008      50.225374    
   2275000   225.53502      126267.64     -46483.634     -51990.256      50.168451    
   2276000   224.86173      126508.85     -46463.294     -51953.476      50.200376    
   2277000   222.69563      126349.84     -46585.62      -52022.916      50.179335    
   2278000   224.20257      126139.59     -46648.605     -52122.694      50.151486    
   2279000   227.06108      126061.13     -46448.185     -51992.067      50.141086    
   2280000   224.82112      126477.66     -46491.378     -51980.569      50.19625     
   2281000   226.81499      126678.65     -46440.199     -51978.071      50.222826    
   2282000   225.44719      126486.42     -46442.883     -51947.359      50.197408    
   2283000   223.08028      126563.58     -46597.902     -52044.589      50.207614    
   2284000   222.17246      126476.98     -46623.906     -52048.428      50.19616     
   2285000   225.72851      126417.02     -46476.656     -51988.002      50.188227    
   2286000   224.99745      126431.63     -46540.878     -52034.374      50.19016     
   2287000   231.00266      126137.44     -46451.841     -52091.959      50.151201    
   2288000   223.73821      125945.23     -46647.553     -52110.304      50.125715    
   2289000   227.78909      126413.3      -46427.964     -51989.62       50.187735    
   2290000   225.69493      126615.05     -46615.433     -52125.959      50.214419    
   2291000   226.32062      126301.27     -46509.543     -52035.345      50.172905    
   2292000   226.2302       126735.41     -46580.668     -52104.263      50.230326    
   2293000   223.18053      126250.61     -46642.354     -52091.488      50.166195    
   2294000   227.16205      126118.77     -46545.739     -52092.086      50.148726    
   2295000   224.86336      126662.77     -46586.111     -52076.333      50.220727    
   2296000   225.23648      126811.32     -46509.75      -52009.083      50.240352    
   2297000   221.4615       126476.79     -46574.818     -51981.981      50.196135    
   2298000   222.96028      126310.92     -46811.652     -52255.409      50.174182    
   2299000   223.61947      126566.89     -46617.911     -52077.763      50.208051    
   2300000   223.89272      126616.78     -46592.726     -52059.25       50.214648    
   2301000   224.14712      126423.27     -46598.783     -52071.518      50.189054    
   2302000   224.18026      126404.09     -46606.93      -52080.473      50.186516    
   2303000   224.22167      126249.93     -46483.586     -51958.14       50.166105    
   2304000   227.03034      126369.48     -46601.457     -52144.588      50.181934    
   2305000   223.22688      126427.12     -46657.256     -52107.522      50.189564    
   2306000   225.36447      126316.44     -46493.684     -51996.141      50.174913    
   2307000   225.57712      126612.32     -46434.832     -51942.481      50.214058    
   2308000   226.89136      126814.7      -46621.131     -52160.868      50.240798    
   2309000   224.20289      126607.17     -46562.036     -52036.132      50.213377    
   2310000   225.77665      126548.68     -46533.789     -52046.31       50.205643    
   2311000   225.24998      126554.21     -46633.672     -52133.334      50.206375    
   2312000   227.57095      126667.7      -46605.615     -52161.945      50.221378    
   2313000   223.75469      126918.25     -46589.369     -52052.522      50.254469    
   2314000   224.7918       126929.92     -46498.162     -51986.637      50.256009    
   2315000   224.71651      126694.27     -46644.534     -52131.17       50.224889    
   2316000   224.28607      126515.96     -46637.26      -52113.387      50.201316    
   2317000   223.64459      126609.86     -46515.673     -51976.138      50.213732    
   2318000   226.08823      126867.58     -46593.881     -52114.01       50.24778     
   2319000   224.75469      126308.41     -46637.287     -52124.856      50.17385     
   2320000   225.70415      126480.11     -46642.857     -52153.608      50.196574    
   2321000   226.21283      126637.95     -46478.514     -52001.685      50.217446    
   2322000   226.25987      126551.17     -46538.985     -52063.304      50.205973    
   2323000   228.08025      126386.88     -46456.689     -52025.455      50.184238    
   2324000   226.64527      126428.34     -46569.937     -52103.666      50.189724    
   2325000   225.84126      126554.74     -46554.505     -52068.603      50.206444    
   2326000   221.41245      126749.83     -46668.99      -52074.955      50.23223     
   2327000   223.5713       127120.95     -46589.543     -52048.219      50.281208    
   2328000   222.98885      126852.86     -46669.623     -52114.077      50.245837    
   2329000   222.58834      126563.8      -46664.03      -52098.706      50.207643    
   2330000   225.72976      127184.22     -46498.848     -52010.224      50.289549    
   2331000   224.79607      126696.98     -46655.893     -52144.472      50.225248    
   2332000   228.25225      127344.36     -46501.209     -52074.173      50.310648    
   2333000   224.34527      126212.88     -46539.622     -52017.194      50.161197    
   2334000   230.56029      126663.78     -46524.08      -52153.397      50.220861    
   2335000   223.53474      126589.34     -46559.236     -52017.019      50.21102     
   2336000   225.1406       126696.71     -46545.476     -52042.467      50.225213    
   2337000   227.51627      126660.53     -46588.385     -52143.38       50.220431    
   2338000   226.22636      127073.38     -46456.547     -51980.048      50.274936    
   2339000   226.82899      126701.41     -46537.957     -52076.171      50.225834    
   2340000   225.5473       126828.44     -46547.188     -52054.109      50.242613    
   2341000   223.48778      126999.92     -46471.507     -51928.143      50.265247    
   2342000   223.48523      126193.12     -46695.136     -52151.71       50.158579    
   2343000   226.7718       126833.93     -46484.239     -52021.058      50.243338    
   2344000   229.82738      126569.7      -46361.308     -51972.73       50.208423    
   2345000   223.66278      126595.32     -46514.392     -51975.301      50.211811    
   2346000   222.76939      126853.37     -46717.95      -52157.046      50.245905    
   2347000   223.49149      126257.8      -46682.391     -52139.118      50.167148    
   2348000   223.38605      126731.73     -46541.279     -51995.431      50.229839    
   2349000   226.40424      126573.28     -46473.585     -52001.429      50.208897    
   2350000   229.7935       126537.28     -46402.31      -52012.906      50.204137    
   2351000   222.65664      126870.13     -46663.691     -52100.034      50.248118    
   2352000   227.6794       126314.33     -46723.928     -52282.907      50.174633    
   2353000   226.47261      126844.62     -46473.164     -52002.677      50.244749    
   2354000   222.79601      126932.1      -46520.926     -51960.672      50.256298    
   2355000   227.75683      126665.55     -46528.22      -52089.089      50.221094    
   2356000   226.75947      126776.48     -46575.572     -52112.089      50.23575     
   2357000   227.03047      126797.35     -46395.88      -51939.014      50.238508    
   2358000   225.91383      126843.27     -46582.786     -52098.656      50.244572    
   2359000   223.98064      127145.41     -46608.374     -52077.044      50.284434    
   2360000   222.96401      126569.29     -46561.842     -52005.69       50.20837     
   2361000   227.98317      126662.3      -46600.806     -52167.201      50.220664    
   2362000   229.39485      127205.44     -46495.981     -52096.843      50.292346    
   2363000   226.05436      126992.97     -46662.154     -52181.455      50.264329    
   2364000   224.83265      127242.76     -46566.694     -52056.166      50.297264    
   2365000   223.0181       126787.47     -46570.998     -52016.167      50.237202    
   2366000   226.56004      127214.63     -46538.092     -52069.74       50.293557    
   2367000   222.81109      126595.84     -46693.596     -52133.711      50.21188     
   2368000   226.26452      126813.26     -46585.646     -52110.078      50.240608    
   2369000   225.33064      126900.28     -46628.213     -52129.844      50.252097    
   2370000   224.29204      126746.49     -46641.997     -52118.27       50.231789    
   2371000   224.0036       126635.53     -46665.938     -52135.168      50.217126    
   2372000   223.12792      126561.53     -46665.161     -52113.011      50.207343    
   2373000   228.17342      126538.79     -46515.423     -52086.463      50.204335    
   2374000   227.3119       126459.28     -46632.839     -52182.844      50.193818    
   2375000   223.56174      126405.08     -46566.404     -52024.846      50.186646    
   2376000   225.9066       126219.97     -46640.559     -52156.253      50.162136    
   2377000   225.70627      126410.36     -46509.9       -52020.702      50.187345    
   2378000   225.58232      126200.45     -46659.019     -52166.796      50.159551    
   2379000   227.79302      126774.1      -46577.295     -52139.047      50.235436    
   2380000   222.53576      126770.08     -46601.423     -52034.815      50.234905    
   2381000   220.02307      126905.16     -46707.668     -52079.711      50.252742    
   2382000   224.02737      126783.95     -46652.841     -52122.651      50.236737    
   2383000   225.80025      126426.34     -46543.213     -52056.31       50.18946     
   2384000   226.24931      126461.01     -46374.629     -51898.69       50.194047    
   2385000   223.11351      126548.32     -46539.642     -51987.141      50.205597    
   2386000   224.76653      126402.27     -46616.353     -52104.211      50.186275    
   2387000   222.66418      126312.55     -46558.419     -51994.946      50.174398    
   2388000   225.80155      126198.95     -46415.052     -51928.181      50.159351    
   2389000   221.23689      125989.61     -46646.911     -52048.59       50.131602    
   2390000   225.08472      126161.51     -46556.297     -52051.924      50.154391    
   2391000   226.27345      126012.48     -46426.566     -51951.217      50.134634    
   2392000   224.01376      126492.67     -46380.14      -51849.618      50.198235    
   2393000   227.0577       126030.21     -46553.942     -52097.741      50.136986    
   2394000   226.97628      126506.64     -46560.063     -52101.874      50.200083    
   2395000   227.73296      126742.9      -46511.799     -52072.085      50.231315    
   2396000   228.03062      126449.25     -46446.994     -52014.548      50.192491    
   2397000   224.09921      126051.89     -46559.69      -52031.255      50.139861    
   2398000   226.53872      126500.57     -46401.961     -51933.088      50.19928     
   2399000   222.85465      126514.04     -46539.335     -51980.513      50.201063    
   2400000   227.0724       126264.31     -46435.111     -51979.269      50.168009    
   2401000   221.61193      125961.1      -46569.238     -51980.074      50.127819    
   2402000   222.9761       126224.4      -46381.565     -51825.708      50.162723    
   2403000   228.43084      125700.55     -46308.561     -51885.886      50.093232    
   2404000   221.41327      125562.36     -46498.735     -51904.72       50.074869    
   2405000   223.72195      126176.3      -46437.603     -51899.957      50.15635     
   2406000   226.39083      125921.35     -46436.484     -51964.001      50.122545    
   2407000   223.80739      126403.11     -46481.276     -51945.715      50.186386    
   2408000   222.7222       125886.26     -46454.932     -51892.876      50.117889    
   2409000   224.37669      126128.04     -46613.103     -52091.442      50.149956    
   2410000   226.40415      126453.92     -46427.221     -51955.063      50.19311     
   2411000   220.61907      126239.16     -46620.687     -52007.282      50.164678    
   2412000   225.13209      126289.91     -46477.807     -51974.591      50.171399    
   2413000   222.78897      126194.22     -46585.202     -52024.776      50.158724    
   2414000   226.78511      125963.8      -46491.56      -52028.704      50.128178    
   2415000   227.27213      125818.05     -46409.853     -51958.887      50.108836    
   2416000   222.43582      125412.3      -46578.789     -52009.74       50.054913    
   2417000   219.59881      125866.72     -46658.388     -52020.072      50.115297    
   2418000   226.55003      125772.83     -46551.639     -52083.043      50.102832    
   2419000   224.67848      126193.58     -46506.092     -51991.8        50.158641    
   2420000   223.38625      126117.6      -46596.107     -52050.264      50.148571    
   2421000   221.9196       126621.64     -46572.17      -51990.518      50.215291    
   2422000   223.75108      126377.78     -46462.706     -51925.771      50.183034    
   2423000   225.30783      126466.58     -46600.003     -52101.078      50.194784    
   2424000   223.4975       126315.81     -46381.032     -51837.905      50.174829    
   2425000   225.30216      125897.67     -46552.259     -52053.195      50.119404    
   2426000   225.80709      125965.78     -46431.343     -51944.607      50.12844     
   2427000   225.18181      126522.57     -46503.056     -52001.054      50.202191    
   2428000   222.89177      126938.25     -46454.307     -51896.391      50.257109    
   2429000   225.24744      126487.23     -46451.83      -51951.43       50.197516    
   2430000   224.40633      126809.77     -46514.849     -51993.913      50.240148    
   2431000   226.32586      126445.12     -46436.559     -51962.49       50.191945    
   2432000   225.28732      125776.27     -46539.185     -52039.758      50.103289    
   2433000   224.31507      126992.2      -46497.548     -51974.383      50.264227    
   2434000   225.38707      126668.94     -46531.339     -52034.348      50.221542    
   2435000   224.33795      126861.14     -46499.118     -51976.512      50.24693     
   2436000   227.94168      126178.04     -46489.279     -52054.661      50.156581    
   2437000   227.04004      126096.43     -46479.061     -52022.429      50.145765    
   2438000   221.93826      126381.72     -46505.799     -51924.602      50.183555    
   2439000   223.76964      126375.07     -46531.07      -51994.588      50.182675    
   2440000   225.78153      126128.12     -46425.591     -51938.231      50.149966    
   2441000   223.95964      126058.91     -46434.322     -51902.479      50.140791    
   2442000   224.57354      126355.06     -46577.546     -52060.692      50.180026    
   2443000   226.93295      126071.63     -46539.601     -52080.354      50.142478    
   2444000   224.31285      125908.6      -46614.627     -52091.408      50.120854    
   2445000   227.78931      126584.27     -46484.3       -52045.962      50.210349    
   2446000   223.40235      126872.48     -46584.028     -52038.578      50.248428    
   2447000   225.10365      126617.17     -46591.926     -52088.015      50.214699    
   2448000   221.71526      126608.67     -46631.727     -52045.086      50.213576    
   2449000   226.65195      125902.4      -46384.965     -51918.857      50.120032    
   2450000   227.39271      126162.37     -46432.988     -51984.967      50.154505    
   2451000   223.62573      126540.55     -46544.336     -52004.34       50.204569    
   2452000   222.94372      126300.83     -46571.243     -52014.596      50.172846    
   2453000   225.50691      126360.69     -46468.096     -51974.031      50.180771    
   2454000   225.77455      126545.97     -46443.151     -51955.621      50.205285    
   2455000   224.8069       126720.2      -46574.551     -52063.395      50.228316    
   2456000   222.78997      126459.79     -46675.272     -52114.871      50.193886    
   2457000   226.84004      126429.45     -46415.13      -51953.615      50.189871    
   2458000   223.98936      126611.51     -46580.771     -52049.654      50.213952    
   2459000   225.08874      127243.33     -46493.254     -51988.979      50.297339    
   2460000   222.75082      126472.58     -46632.135     -52070.778      50.195578    
   2461000   223.5955       126642.86     -46531.15      -51990.416      50.218096    
   2462000   222.62093      126692.98     -46606.943     -52042.414      50.224719    
   2463000   225.36082      126957.76     -46577.568     -52079.936      50.259683    
   2464000   226.66427      126908.44     -46479.396     -52013.589      50.253174    
   2465000   224.44946      126777.3      -46568.547     -52048.664      50.235859    
   2466000   227.73178      126955.86     -46423.425     -51983.682      50.259433    
   2467000   225.97624      127205.04     -46564.652     -52082.046      50.292293    
   2468000   223.90909      126596.6      -46612.597     -52079.52       50.21198     
   2469000   225.79339      126868.58     -46545.014     -52057.944      50.247913    
   2470000   225.68107      126428.26     -46481.648     -51991.835      50.189713    
   2471000   224.05671      127201.46     -46480.291     -51950.819      50.291822    
   2472000   226.72195      126931.31     -46481.603     -52017.204      50.256193    
   2473000   225.77948      127001.25     -46544.165     -52056.755      50.265422    
   2474000   223.91735      126909.81     -46590.317     -52057.442      50.253355    
   2475000   228.96844      126909.54     -46442.424     -52032.875      50.25332     
   2476000   221.64883      126579.75     -46609.381     -52021.118      50.209752    
   2477000   226.79287      126620.71     -46548.729     -52086.061      50.215168    
   2478000   224.81854      126329.98     -46521.618     -52010.746      50.176705    
   2479000   226.746        127138.52     -46468.019     -52004.207      50.283525    
   2480000   225.34114      126869.88     -46466.309     -51968.197      50.248084    
   2481000   223.83969      126956.63     -46592.701     -52057.929      50.259534    
   2482000   226.29976      126806.05     -46475.038     -52000.331      50.239656    
   2483000   223.95983      126905.29     -46458.3       -51926.461      50.252758    
   2484000   221.75179      127108.41     -46529.407     -51943.658      50.279555    
   2485000   225.92608      126879.68     -46547.656     -52063.826      50.249378    
   2486000   225.50141      127127.02     -46442.346     -51948.147      50.282009    
   2487000   227.46338      126550.4      -46510.592     -52064.295      50.205871    
   2488000   223.83612      126780.02     -46611.577     -52076.718      50.236218    
   2489000   224.8846       126753.44     -46550.744     -52041.485      50.232707    
   2490000   225.7018       126856.14     -46564.688     -52075.381      50.24627     
   2491000   222.85266      126865.62     -46526.85      -51967.979      50.247522    
   2492000   222.1654       126665.15     -46530.072     -51954.421      50.221041    
   2493000   229.0085       126872.29     -46465.133     -52056.562      50.248403    
   2494000   222.85573      127056.94     -46458.68      -51899.885      50.272768    
   2495000   226.89707      126345.69     -46291.208     -51831.084      50.178785    
   2496000   227.33485      127340.36     -46449.117     -51999.683      50.31012     
   2497000   228.60864      126655.03     -46305.766     -51887.432      50.219704    
   2498000   226.67392      126607.18     -46439.507     -51973.935      50.213379    
   2499000   225.23546      126090.83     -46481.456     -51980.764      50.145024    
   2500000   222.94907      126629.51     -46646.937     -52090.42       50.216331    
   2501000   223.132        126550.34     -46535.023     -51982.973      50.205863    
   2502000   225.24921      126464.75     -46574.747     -52074.39       50.194542    
   2503000   226.73654      126558.33     -46538.576     -52074.533      50.20692     
   2504000   226.0002       126813.4      -46516.214     -52034.193      50.240627    
   2505000   222.9543       126679.22     -46710.222     -52153.833      50.222901    
   2506000   223.4829       126055.74     -46613.028     -52069.545      50.140371    
   2507000   225.80128      126684.86     -46485.004     -51998.126      50.223646    
   2508000   222.73639      126969.66     -46589.708     -52027.998      50.261254    
   2509000   223.71821      126788.38     -46534.687     -51996.949      50.237323    
   2510000   227.47618      127259.79     -46474.302     -52028.318      50.299508    
   2511000   222.32539      126651.21     -46408.311     -51836.567      50.219199    
   2512000   224.17413      126832.29     -46446.261     -51919.655      50.243122    
   2513000   221.62124      126525.88     -46680.573     -52091.636      50.202628    
   2514000   225.63095      126781.87     -46451.386     -51960.349      50.236462    
   2515000   227.42059      126857.13     -46463.599     -52016.258      50.246402    
   2516000   225.28887      126490.22     -46533.027     -52033.639      50.197911    
   2517000   225.44224      126725.9      -46550.399     -52054.755      50.229069    
   2518000   220.41994      126660.83     -46580.423     -51962.155      50.220471    
   2519000   226.22457      126600.41     -46486.439     -52009.896      50.212484    
   2520000   225.43475      126760.01     -46488.782     -51992.955      50.233575    
   2521000   224.74948      126904.05     -46526.418     -52013.86       50.252595    
   2522000   221.81518      126999.15     -46654.023     -52069.821      50.265145    
   2523000   222.72919      127046.31     -46582.894     -52021.008      50.271365    
   2524000   223.23879      126656.75     -46578.532     -52029.089      50.219931    
   2525000   225.23646      126877.04     -46572.778     -52072.11       50.24903     
   2526000   223.77763      126590.62     -46507.316     -51971.029      50.21119     
   2527000   224.18077      127207.94     -46426.899     -51900.455      50.292675    
   2528000   223.60574      127173.45     -46489.898     -51949.414      50.28813     
   2529000   224.94667      126902.72     -46461.078     -51953.334      50.252419    
   2530000   223.32731      126867.64     -46592.896     -52045.615      50.247789    
   2531000   225.80085      126735.84     -46451.983     -51965.095      50.230382    
   2532000   222.87239      127059.85     -46642.765     -52084.376      50.273151    
   2533000   225.74008      126890.19     -46480.78      -51992.408      50.250766    
   2534000   220.49195      126303.54     -46613.256     -51996.747      50.173205    
   2535000   224.1662       126597.26     -46578.436     -52051.636      50.212068    
   2536000   225.7852       126603.21     -46489.298     -52002.028      50.212854    
   2537000   222.52406      126305.85     -46496.13      -51929.236      50.17351     
   2538000   225.31968      125974.2      -46553.277     -52054.641      50.129557    
   2539000   226.40072      125988.9      -46439.776     -51967.534      50.131508    
   2540000   226.00944      126259.37     -46509.75      -52027.955      50.167355    
   2541000   227.1305       126473.86     -46445.644     -51991.22       50.195747    
   2542000   222.32736      126290.11     -46580.983     -52009.287      50.171426    
   2543000   227.75594      126435.8      -46420.393     -51981.24       50.190712    
   2544000   229.51922      126950.75     -46379.816     -51983.715      50.258759    
   2545000   224.32759      127120.33     -46455.295     -51932.436      50.281127    
   2546000   225.79436      126599.97     -46383.354     -51896.307      50.212426    
   2547000   223.19409      126269.13     -46558.301     -52007.766      50.168648    
   2548000   226.6067       126674.2      -46336.937     -51869.724      50.222238    
   2549000   225.79339      126099.88     -46434.173     -51947.103      50.146223    
   2550000   224.35425      126579.73     -46299.548     -51777.34       50.209749    
   2551000   223.75116      126625.75     -46513.458     -51976.525      50.215833    
   2552000   223.25964      126150.97     -46693.76      -52144.826      50.152994    
   2553000   223.33279      126448.13     -46475.291     -51928.144      50.192344    
   2554000   226.36755      126503.14     -46497.882     -52024.83       50.199621    
   2555000   225.39415      126541.4      -46599.285     -52102.467      50.204681    
   2556000   225.4558       126300.3      -46455.24      -51959.927      50.172775    
   2557000   223.07198      126645.98     -46527.417     -51973.901      50.218508    
   2558000   221.78726      125993.54     -46598.559     -52013.676      50.132123    
   2559000   226.50217      126105.85     -46469.405     -51999.64       50.147014    
   2560000   223.53054      126582.21     -46633.135     -52090.816      50.210078    
   2561000   223.27213      126059.42     -46486.277     -51937.648      50.140859    
   2562000   223.35098      126376.42     -46553.034     -52006.33       50.182854    
   2563000   225.84605      126248.57     -46513.22      -52027.435      50.165924    
   2564000   221.12181      126142.98     -46511.614     -51910.483      50.151935    
   2565000   223.56116      125940.78     -46471.583     -51930.011      50.125124    
   2566000   225.15035      126165.28     -46525.153     -52022.382      50.154891    
   2567000   224.06824      125856.36     -46546.986     -52017.795      50.113922    
   2568000   225.77352      126036.32     -46449.581     -51962.026      50.137796    
   2569000   227.69502      125801.88     -46495.467     -52054.826      50.106689    
   2570000   223.93435      126094.57     -46444.66      -51912.199      50.145519    
   2571000   225.03799      125957.52     -46517.364     -52011.85       50.127344    
   2572000   226.38245      126244.02     -46520.414     -52047.726      50.165323    
   2573000   227.17494      125937.14     -46351.168     -51897.829      50.12464     
   2574000   225.79962      125912.51     -46485.701     -51998.783      50.121373    
   2575000   225.47929      126113.97     -46410.26      -51915.521      50.14809     
   2576000   226.80112      125742.02     -46418.609     -51956.143      50.098741    
   2577000   224.31381      126016.54     -46468.438     -51945.242      50.135173    
   2578000   222.66493      126103.29     -46500.147     -51936.693      50.146675    
   2579000   224.89016      126060.51     -46453.643     -51944.52       50.141003    
   2580000   224.64118      126148.36     -46596.155     -52080.953      50.152648    
   2581000   224.33045      126089.96     -46557.975     -52035.186      50.144908    
   2582000   226.53008      125899.48     -46601.962     -52132.879      50.119644    
   2583000   225.18942      126535.6      -46570.96      -52069.144      50.203915    
   2584000   223.76745      126692.68     -46428.354     -51891.818      50.22468     
   2585000   226.75748      126049.52     -46482.21      -52018.679      50.139546    
   2586000   225.34942      126137.62     -46470.84      -51972.93       50.151224    
   2587000   223.52851      126239.86     -46596.783     -52054.413      50.164771    
   2588000   226.77931      126247.79     -46424.019     -51961.021      50.165821    
   2589000   225.56204      126511.06     -46530.951     -52038.232      50.200668    
   2590000   222.20724      125832.11     -46656.819     -52082.19       50.110703    
   2591000   225.73107      126154.86     -46510.971     -52022.379      50.15351     
   2592000   225.17365      126090.85     -46481.79      -51979.588      50.145026    
   2593000   231.8716       126249.91     -46303.744     -51965.078      50.166102    
   2594000   224.98845      126014.25     -46646.837     -52140.113      50.13487     
   2595000   224.88076      126273.9      -46539.022     -52029.669      50.169279    
   2596000   226.3703       126713.97     -46474.815     -52001.831      50.227493    
   2597000   227.8609       126239.49     -46429.012     -51992.422      50.164723    
   2598000   223.43082      126252.28     -46617.726     -52072.972      50.166416    
   2599000   225.60665      126288.63     -46428.74      -51937.11       50.17123     
   2600000   228.32065      126114.53     -46420.448     -51995.083      50.148165    
   2601000   227.60619      126348.07     -46562.784     -52119.975      50.1791      
   2602000   226.41619      126437.6      -46525.615     -52053.751      50.19095     
   2603000   223.57213      126239.68     -46694.292     -52152.987      50.164747    
   2604000   220.46599      126782.98     -46713.571     -52096.428      50.236609    
   2605000   226.43462      126460.27     -46582.888     -52111.474      50.193949    
   2606000   227.95348      126548.93     -46440.796     -52006.466      50.205676    
   2607000   225.75742      126325.76     -46541.36      -52053.411      50.176147    
   2608000   223.41971      126502.98     -46579.045     -52034.02       50.199599    
   2609000   221.33698      125989.66     -46637.446     -52041.569      50.131608    
   2610000   222.52911      126389.42     -46541.638     -51974.868      50.184573    
   2611000   220.84879      126132.12     -46566.978     -51959.182      50.150496    
   2612000   226.1073       126250.97     -46537.99      -52058.584      50.166243    
   2613000   226.99088      126385.28     -46312.318     -51854.485      50.184026    
   2614000   223.73361      126348.42     -46511.624     -51974.262      50.179147    
   2615000   229.5117       126091.78     -46323.851     -51927.566      50.145149    
   2616000   223.54497      126348.34     -46488.357     -51946.39       50.179136    
   2617000   228.13583      125716.98     -46489.569     -52059.691      50.095415    
   2618000   227.99834      126154.17     -46431.439     -51998.204      50.153419    
   2619000   225.47638      126621.47     -46444.715     -51949.905      50.215268    
   2620000   225.55572      126201.23     -46568.791     -52075.918      50.159654    
   2621000   223.52787      126309.46     -46518.765     -51976.38       50.173988    
   2622000   226.72671      126210.07     -46608.401     -52144.119      50.160825    
   2623000   225.6597       126442.11     -46475.756     -51985.422      50.191547    
   2624000   227.29983      126463.84     -46419.937     -51969.647      50.194422    
   2625000   221.34584      126274.03     -46625.138     -52029.477      50.169297    
   2626000   225.4912       125995.09     -46422.482     -51928.033      50.132329    
   2627000   224.634        126141.81     -46564.634     -52049.256      50.151781    
   2628000   226.80405      126585.29     -46440.344     -51977.949      50.210485    
   2629000   225.45273      126403.85     -46531.615     -52036.227      50.186483    
   2630000   229.0711       126230.95     -46381.87      -51974.828      50.163591    
   2631000   225.50272      126422.66     -46557.975     -52063.807      50.188973    
   2632000   228.536        126047.92     -46349.105     -51928.998      50.139334    
   2633000   227.28223      126297.93     -46439.172     -51988.453      50.172461    
   2634000   228.42743      126108.85     -46441.258     -52018.5        50.147412    
   2635000   222.40391      126039.21     -46582.985     -52013.158      50.138179    
   2636000   224.65254      126697.33     -46479.399     -51964.474      50.225294    
   2637000   229.94871      126233.84     -46380.613     -51994.998      50.163973    
   2638000   225.82909      126573.91     -46388.231     -51902.033      50.20898     
   2639000   222.74021      126434.14     -46348.612     -51786.996      50.190492    
   2640000   224.35704      125762.24     -46449.511     -51927.371      50.101426    
   2641000   223.70649      126204.64     -46435.9       -51897.877      50.160105    
   2642000   225.68155      126816.07     -46492.51      -52002.709      50.24098     
   2643000   226.00412      126403.83     -46443.102     -51961.177      50.186481    
   2644000   227.70396      126381.33     -46486.173     -52045.751      50.183503    
   2645000   226.31179      126591.57     -46498.463     -52024.05       50.211315    
   2646000   222.96012      126536.35     -46513.938     -51957.691      50.204013    
   2647000   222.74902      126498.56     -46532.895     -51971.494      50.199014    
   2648000   224.00553      126903.57     -46637.805     -52107.083      50.252531    
   2649000   227.72173      126489.35     -46471.56      -52031.572      50.197797    
   2650000   226.04247      126684.28     -46417.079     -51936.09       50.223569    
   2651000   228.37396      126977.57     -46417.206     -51993.142      50.262298    
   2652000   222.6363       126779.06     -46587.089     -52022.935      50.236091    
   2653000   223.25012      126357.68     -46497.885     -51948.719      50.180372    
   2654000   225.13822      127036.58     -46451.017     -51947.95       50.270082    
   2655000   220.29087      126566.22     -46622.322     -52000.903      50.207964    
   2656000   225.59103      126697.44     -46532.668     -52040.657      50.225309    
   2657000   225.45591      127003.63     -46506.85      -52011.54       50.265736    
   2658000   224.67939      126496.7      -46525.224     -52010.954      50.198769    
   2659000   225.59037      126796.56     -46561.908     -52069.881      50.238402    
   2660000   224.41979      127131.08     -46479.201     -51958.593      50.282544    
   2661000   224.74925      127414.74     -46386.696     -51874.132      50.319914    
   2662000   221.47828      126939.73     -46537.688     -51945.261      50.257304    
   2663000   221.23771      126862.02     -46647.734     -52049.433      50.247047    
   2664000   224.86057      126714.35     -46537.533     -52027.687      50.227543    
   2665000   224.01699      126546.13     -46499.429     -51968.986      50.205307    
   2666000   224.38223      126750.12     -46512.386     -51990.861      50.232269    
   2667000   224.15938      126608.86     -46528.112     -52001.146      50.213601    
   2668000   226.38025      126200.18     -46403.169     -51930.427      50.159514    
   2669000   225.4774       126816.58     -46392.974     -51898.189      50.241046    
   2670000   224.42012      126298.36     -46553.378     -52032.778      50.172518    
   2671000   226.89289      126588.39     -46452.087     -51991.862      50.210895    
   2672000   225.67865      126137.89     -46632.087     -52142.215      50.15126     
   2673000   222.54433      126769.17     -46424.91      -51858.511      50.234785    
   2674000   224.29043      126618.38     -46454.222     -51930.455      50.214859    
   2675000   224.13252      126653.13     -46467.671     -51940.049      50.219453    
   2676000   223.54166      126462.77     -46428.765     -51886.717      50.19428     
   2677000   223.73129      126813.17     -46561.302     -52023.884      50.240597    
   2678000   227.33641      126593.9      -46451.411     -52002.015      50.211623    
   2679000   221.67531      126170.2      -46592.805     -52005.188      50.155542    
   2680000   225.5442       126234.45     -46541.642     -52048.487      50.164054    
   2681000   224.16516      126363.71     -46530.321     -52003.496      50.181171    
   2682000   223.88129      126929.32     -46489.385     -51955.629      50.255931    
   2683000   226.2293       126857.27     -46522.618     -52046.19       50.24642     
   2684000   225.91326      126546.52     -46462.2       -51978.056      50.205358    
   2685000   224.32108      126775.86     -46548.42      -52025.402      50.235669    
   2686000   225.3045       126760.09     -46551.163     -52052.156      50.233586    
   2687000   225.81592      127163.48     -46398.865     -51912.345      50.286815    
   2688000   222.13095      126668.57     -46684.075     -52107.583      50.221493    
   2689000   224.44718      126866.26     -46473.767     -51953.828      50.247606    
   2690000   222.39089      126661.71     -46536.872     -51966.727      50.220587    
   2691000   223.82931      126720.25     -46447.144     -51912.119      50.228322    
   2692000   226.71598      126345        -46437.279     -51972.734      50.178694    
   2693000   227.662        127030.24     -46429.176     -51987.73       50.269246    
   2694000   226.2786       127109.24     -46397.897     -51922.673      50.279665    
   2695000   221.78435      126662.4      -46468.294     -51883.34       50.220678    
   2696000   226.74324      127181.49     -46491.182     -52027.303      50.289189    
   2697000   226.98031      126760.2      -46436.151     -51978.06       50.2336      
   2698000   220.11508      126782.92     -46554.757     -51929.047      50.236601    
   2699000   225.99396      126781.45     -46485.085     -52002.911      50.236407    
   2700000   224.38056      127245.88     -46480.642     -51959.076      50.297675    
   2701000   228.16725      127139.07     -46354.796     -51925.685      50.283598    
   2702000   223.02261      126914.35     -46470.4       -51915.679      50.253954    
   2703000   223.19063      126616.52     -46672.917     -52122.298      50.214613    
   2704000   228.64952      126357.84     -46472.81      -52055.475      50.180393    
   2705000   224.88381      126919.38     -46511.407     -52002.128      50.254618    
   2706000   222.65216      126729.91     -46546.266     -51982.5        50.229599    
   2707000   223.83109      127078.03     -46509.583     -51974.601      50.275549    
   2708000   227.86701      126471.85     -46455.813     -52019.372      50.195481    
   2709000   222.37271      126618.27     -46493.841     -51923.252      50.214844    
   2710000   223.71211      126921.32     -46497.207     -51959.32       50.254875    
   2711000   224.73996      127164.55     -46544.312     -52031.522      50.286957    
   2712000   228.10572      126719.38     -46469.493     -52038.88       50.228208    
   2713000   228.57239      126307.63     -46425.8       -52006.582      50.173747    
   2714000   223.27254      126759.85     -46585.153     -52036.535      50.233554    
   2715000   223.99841      126662.78     -46487.33      -51956.434      50.220729    
   2716000   225.9438       126307.1      -46523.087     -52039.689      50.173676    
   2717000   224.71405      126414.86     -46473.454     -51960.03       50.187941    
   2718000   228.32841      126465.31     -46457.325     -52032.149      50.194616    
   2719000   225.75155      126414.13     -46509.151     -52021.059      50.187843    
   2720000   224.82129      126909.16     -46389.754     -51878.949      50.253269    
   2721000   223.20043      126680.28     -46431.947     -51881.567      50.223041    
   2722000   225.63898      126357.66     -46443.966     -51953.125      50.18037     
   2723000   224.67002      126442.58     -46522.278     -52007.779      50.191609    
   2724000   227.36776      126291.75     -46531.602     -52082.971      50.171643    
   2725000   227.07418      126493.91     -46452.924     -51997.125      50.198399    
   2726000   227.30195      126909.91     -46411.704     -51961.466      50.253368    
   2727000   223.24855      126393.7      -46546.071     -51996.867      50.18514     
   2728000   222.70339      126733.15     -46541.032     -51978.517      50.230026    
   2729000   224.49152      126588.92     -46436.629     -51917.773      50.210965    
   2730000   223.36141      126756.62     -46430.217     -51883.767      50.233127    
   2731000   228.22292      126750.9      -46487.678     -52059.927      50.232372    
   2732000   223.23104      126422.57     -46563.089     -52013.457      50.188962    
   2733000   225.38175      126420.76     -46467.596     -51970.475      50.188721    
   2734000   227.4367       126299.16     -46363.445     -51916.497      50.172625    
   2735000   225.08211      126004.06     -46556.014     -52051.577      50.133518    
   2736000   228.78774      125785.97     -46448.633     -52034.672      50.104577    
   2737000   226.63375      126315.43     -46471.817     -52005.265      50.174779    
   2738000   227.01285      126955.68     -46395.855     -51938.559      50.259409    
   2739000   224.99666      126599.44     -46502.069     -51995.546      50.212356    
   2740000   224.51515      126698.66     -46522.481     -52004.201      50.22547     
   2741000   223.27468      126745.55     -46617.939     -52069.372      50.231664    
   2742000   225.01806      126457.69     -46396.539     -51890.538      50.193609    
   2743000   222.06079      126888.29     -46573.226     -51995.021      50.250515    
   2744000   223.33615      126781.97     -46591.956     -52044.891      50.236475    
   2745000   225.12497      126848.3      -46495.876     -51992.486      50.245235    
   2746000   226.61785      126465        -46441.345     -51974.405      50.194575    
   2747000   223.8766       126295.89     -46434.549     -51900.679      50.172192    
   2748000   227.04397      126403.09     -46489.571     -52033.034      50.186383    
   2749000   226.05188      126747.35     -46508.908     -52028.148      50.231903    
   2750000   227.36659      126500.36     -46400.769     -51952.109      50.199253    
   2751000   225.85688      127198.88     -46488.059     -52002.539      50.291482    
   2752000   225.9707       126600.72     -46381.437     -51898.695      50.212524    
   2753000   225.62281      126540.18     -46540.682     -52049.446      50.20452     
   2754000   225.20724      126957.59     -46549.651     -52048.269      50.259662    
   2755000   224.46465      126280.12     -46504.753     -51985.241      50.170104    
   2756000   227.18689      126672.02     -46377.599     -51924.552      50.22195     
   2757000   225.07604      126285.47     -46535.176     -52030.591      50.170812    
   2758000   221.90968      126806.15     -46479.371     -51897.476      50.23967     
   2759000   223.67424      126170.16     -46538.504     -51999.693      50.155537    
   2760000   225.36444      126459.93     -46511.841     -52014.297      50.193905    
   2761000   228.46044      126661.06     -46343.204     -51921.252      50.220501    
   2762000   224.89748      126089.39     -46551.927     -52042.983      50.144832    
   2763000   225.32041      126113.87     -46555.903     -52057.285      50.148077    
   2764000   219.6621       126036.4      -46600.826     -51964.055      50.137807    
   2765000   223.45358      125919.92     -46506.929     -51962.73       50.122356    
   2766000   226.15294      126254.58     -46456.926     -51978.635      50.166721    
   2767000   223.05007      126280.63     -46418.06      -51864.009      50.170171    
   2768000   225.60461      126175.02     -46455.071     -51963.392      50.15618     
   2769000   225.07368      126140.92     -46408.73      -51904.087      50.151663    
   2770000   223.21643      125933.98     -46498.462     -51948.474      50.124222    
   2771000   227.34763      126521.48     -46277.277     -51828.155      50.202047    
   2772000   224.53011      126078.43     -46432.788     -51914.874      50.143379    
   2773000   223.22804      125938.69     -46586.104     -52036.398      50.124847    
   2774000   226.71267      126251.61     -46420.995     -51956.37       50.166327    
   2775000   225.42448      126230.51     -46563.156     -52067.079      50.163533    
   2776000   224.48462      126594.03     -46507.325     -51988.3        50.21164     
   2777000   227.10863      126390.52     -46411.023     -51956.065      50.18472     
   2778000   223.40945      125997.3      -46608.632     -52063.356      50.132621    
   2779000   226.74473      126119.08     -46474.938     -52011.096      50.148767    
   2780000   220.60128      126459.9      -46568.444     -51954.604      50.193901    
   2781000   224.65348      125959.02     -46538.905     -52024.003      50.127544    
   2782000   225.06958      126455.67     -46414.812     -51910.069      50.193341    
   2783000   219.35506      126119.79     -46702.477     -52058.21       50.148862    
   2784000   220.97739      126588.84     -46660.98      -52056.323      50.210954    
   2785000   224.26715      126887.07     -46583.589     -52059.254      50.250353    
   2786000   229.34494      126402.55     -46246.317     -51845.96       50.186311    
   2787000   224.91187      126180.19     -46486.592     -51977.999      50.156867    
   2788000   225.62654      125954.59     -46564.359     -52073.215      50.126956    
   2789000   227.99964      125757        -46380.928     -51947.725      50.10073     
   2790000   225.57929      126026.51     -46434.312     -51942.014      50.136495    
   2791000   225.56219      126212.46     -46479.262     -51986.547      50.161142    
   2792000   223.91426      126065.9      -46549.951     -52017          50.141718    
   2793000   226.06218      125987.85     -46361.448     -51880.941      50.131368    
   2794000   225.33642      126358.5      -46531.424     -52033.196      50.18048     
   2795000   225.14897      126235.16     -46393.148     -51890.343      50.164149    
   2796000   225.85155      125955.26     -46483.757     -51998.107      50.127045    
   2797000   221.27174      125528.89     -46562.029     -51964.559      50.07042     
   2798000   223.24718      125959.94     -46583.763     -52034.525      50.127665    
   2799000   222.96337      126280.41     -46487.966     -51931.799      50.170141    
   2800000   228.62728      125794.71     -46473.584     -52055.705      50.105737    
   2801000   225.41542      126302.17     -46437.454     -51941.155      50.173023    
   2802000   227.36787      126437.83     -46527.59      -52078.962      50.19098     
   2803000   224.44617      126240.93     -46540.006     -52020.042      50.164913    
   2804000   226.44872      126027.27     -46451.959     -51980.889      50.136596    
   2805000   226.86198      126820.55     -46507.164     -52046.185      50.241571    
   2806000   224.28868      126268.93     -46574.231     -52050.422      50.168622    
   2807000   224.30127      126525.91     -46606.261     -52082.759      50.202633    
   2808000   225.77208      126121.15     -46451.98      -51964.39       50.149042    
   2809000   228.12491      126173.21     -46397.682     -51967.538      50.155941    
   2810000   221.34687      126461.79     -46608.234     -52012.598      50.194151    
   2811000   221.35         126557.39     -46707.786     -52112.227      50.206796    
   2812000   225.13806      126717.6      -46561.917     -52058.847      50.227972    
   2813000   225.30959      126579.99     -46572.114     -52073.231      50.209784    
   2814000   225.04586      126122.58     -46561.797     -52056.475      50.149232    
   2815000   223.64429      126231.72     -46577.596     -52038.054      50.163693    
   2816000   226.7653       126535.48     -46494.045     -52030.705      50.203899    
   2817000   221.37107      126586.08     -46555.949     -51960.904      50.210589    
   2818000   223.213        126428.44     -46502.946     -51952.874      50.189737    
   2819000   225.32826      126294.36     -46558.237     -52059.81       50.171989    
   2820000   228.5467       126456.96     -46518.436     -52098.59       50.193511    
   2821000   224.13217      126085.48     -46449.961     -51922.331      50.144313    
   2822000   226.55379      126600.91     -46547         -52078.496      50.21255     
   2823000   222.37678      126042.07     -46693.874     -52123.385      50.138558    
   2824000   225.39043      126856.46     -46564.811     -52067.902      50.246313    
   2825000   225.65967      126491.55     -46477.253     -51986.918      50.198088    
   2826000   223.52626      125920.26     -46632.265     -52089.841      50.122402    
   2827000   224.37619      126776.88     -46465.344     -51943.671      50.235804    
   2828000   224.83315      126579.12     -46578.211     -52067.696      50.209668    
   2829000   224.27188      125924.78     -46710.704     -52186.485      50.123001    
   2830000   223.67713      126502.45     -46485.582     -51946.842      50.199529    
   2831000   225.84371      126321.88     -46509.305     -52023.463      50.175632    
   2832000   226.16844      126044.87     -46602.922     -52125.009      50.138929    
   2833000   223.29843      126198.21     -46482.294     -51934.307      50.159253    
   2834000   225.792        126287.13     -46492.144     -52005.04       50.171031    
   2835000   224.06004      126189.9      -46587.373     -52057.981      50.158153    
   2836000   222.55415      126285.95     -46537.67      -51971.511      50.170875    
   2837000   225.62608      125865.6      -46554.452     -52063.296      50.115147    
   2838000   225.76049      126154.73     -46403.482     -51915.608      50.153493    
   2839000   224.01334      125830.09     -46445.011     -51914.479      50.110435    
   2840000   226.4402       125754.07     -46513.767     -52042.489      50.100342    
   2841000   228.04951      125986.56     -46466.761     -52034.775      50.131197    
   2842000   221.41915      125873.82     -46699.938     -52106.067      50.116238    
   2843000   225.26583      125602.38     -46561.904     -52061.953      50.080188    
   2844000   226.72574      126036.05     -46530.261     -52065.955      50.13776     
   2845000   228.83598      125796.73     -46463.595     -52050.812      50.106006    
   2846000   222.97669      125820.78     -46667.986     -52112.143      50.109198    
   2847000   223.47571      125716.96     -46590.779     -52047.121      50.095412    
   2848000   224.95979      126095.86     -46419.239     -51911.815      50.145689    
   2849000   221.14189      126537.72     -46449.475     -51848.835      50.204194    
   2850000   222.98021      125932.43     -46546.145     -51990.388      50.124016    
   2851000   224.99648      126332.99     -46518.319     -52011.792      50.177104    
   2852000   224.83576      126260.61     -46504.697     -51994.245      50.16752     
   2853000   226.43775      126165.76     -46607.018     -52135.681      50.154954    
   2854000   224.06821      126177.18     -46549.079     -52019.887      50.156468    
   2855000   225.59061      126641.12     -46341.064     -51849.043      50.217865    
   2856000   223.74383      127035.12     -46448.087     -51910.975      50.269889    
   2857000   225.71108      126779.39     -46500.396     -52011.316      50.236135    
   2858000   227.28759      126312.78     -46452         -52001.412      50.174429    
   2859000   224.83252      126047.98     -46632.006     -52121.475      50.139342    
   2860000   229.5202       125990.24     -46467.386     -52071.309      50.131684    
   2861000   227.51164      126500.05     -46391.475     -51946.358      50.199212    
   2862000   224.80989      126555.38     -46523.01      -52011.927      50.20653     
   2863000   226.44139      126204.35     -46582.082     -52110.833      50.160067    
   2864000   223.93115      126150.44     -46671.833     -52139.295      50.152924    
   2865000   222.6432       126574.71     -46535.981     -51971.996      50.209086    
   2866000   226.61114      126586.6      -46558.876     -52091.772      50.210657    
   2867000   227.15416      126689.97     -46415.414     -51961.568      50.224322    
   2868000   228.66162      126728.3      -46400.803     -51983.762      50.229385    
   2869000   226.23931      126449.92     -46556.899     -52080.716      50.19258     
   2870000   223.76207      126633.45     -46561.498     -52024.831      50.216852    
   2871000   229.39594      127033.92     -46526.757     -52127.646      50.269732    
   2872000   222.19331      126832.43     -46652.423     -52077.454      50.24314     
   2873000   224.83953      126953.87     -46579.988     -52069.628      50.25917     
   2874000   225.04704      126226.23     -46532.321     -52027.028      50.162966    
   2875000   222.2549       126284.93     -46617.678     -52044.213      50.17074     
   2876000   226.202        126605.72     -46509.252     -52032.158      50.213186    
   2877000   224.80404      126765.11     -46551.841     -52040.615      50.234248    
   2878000   223.72312      126656.43     -46546.029     -52008.411      50.219889    
   2879000   225.46346      126304.55     -46555.745     -52060.619      50.173338    
   2880000   223.92359      126923.73     -46571.8       -52039.077      50.255192    
   2881000   224.52072      126890.56     -46527.258     -52009.115      50.250814    
   2882000   224.16311      126647.29     -46498.976     -51972.101      50.218681    
   2883000   224.76657      126666.77     -46545.808     -52033.667      50.221255    
   2884000   227.01162      126071.46     -46490.203     -52032.877      50.142455    
   2885000   224.28416      126127.57     -46547.501     -52023.581      50.149892    
   2886000   228.70399      126105.87     -46418.314     -52002.309      50.147017    
   2887000   228.4824       126595.84     -46377.142     -51955.726      50.211879    
   2888000   223.69676      126544.5      -46433.412     -51895.151      50.20509     
   2889000   223.48789      126394.07     -46515.625     -51972.264      50.185189    
   2890000   221.46045      126441.52     -46657.509     -52064.646      50.191469    
   2891000   226.50218      126494.21     -46430.901     -51961.136      50.19844     
   2892000   224.94445      126765.57     -46517.725     -52009.927      50.23431     
   2893000   222.20881      126863.66     -46494.807     -51920.216      50.247263    
   2894000   220.8443       126397.6      -46610.878     -52002.972      50.185656    
   2895000   228.5964       126641.24     -46423.921     -52005.288      50.217882    
   2896000   223.33323      126673.58     -46524.699     -51977.562      50.222156    
   2897000   220.23382      127061.94     -46639.583     -52016.772      50.273428    
   2898000   228.30444      126050.5      -46409.116     -51983.355      50.139677    
   2899000   222.22113      125862.06     -46471.745     -51897.455      50.114678    
   2900000   227.24105      126134.68     -46366.582     -51914.858      50.150836    
   2901000   226.74066      125923.63     -46517.973     -52054.031      50.122848    
   2902000   226.08404      126407.9      -46347.796     -51867.822      50.187019    
   2903000   223.18018      125857.55     -46529.073     -51978.199      50.11408     
   2904000   224.89067      126241.19     -46515.108     -52005.997      50.164948    
   2905000   227.32529      126447.05     -46341.249     -51891.581      50.192201    
   2906000   221.02455      126268.32     -46538.91      -51935.405      50.168541    
   2907000   223.78336      126454.69     -46566.265     -52030.118      50.193211    
   2908000   225.22379      126365.01     -46395.265     -51894.287      50.181343    
   2909000   226.99906      126378.87     -46344.56      -51886.927      50.183177    
   2910000   223.34684      126473.05     -46448.387     -51901.582      50.195641    
   2911000   225.16516      126886.61     -46247.942     -51745.533      50.250293    
   2912000   223.6268       126329.12     -46415.884     -51875.915      50.176592    
   2913000   227.49241      125959.5      -46399.82      -51954.232      50.127608    
   2914000   226.09031      126073.06     -46455.151     -51975.33       50.142667    
   2915000   228.6372       126282.66     -46342.097     -51924.46       50.170439    
   2916000   226.28913      126657.45     -46349.147     -51874.181      50.220024    
   2917000   222.9852       126325.31     -46577.432     -52021.797      50.176087    
   2918000   226.62712      125968.7      -46283.299     -51816.585      50.128828    
   2919000   224.56712      126539.55     -46346.974     -51829.964      50.204437    
   2920000   224.06046      126229.49     -46504.581     -51975.2        50.163397    
   2921000   226.41448      126529.75     -46382.067     -51910.161      50.20314     
   2922000   225.69106      126079.43     -46572.552     -52082.984      50.143512    
   2923000   223.67314      125890.52     -46538.343     -51999.505      50.118455    
   2924000   221.29774      126792.32     -46585.098     -51988.262      50.237843    
   2925000   222.55315      126578.48     -46577.369     -52011.186      50.209584    
   2926000   225.717        125956.63     -46629.293     -52140.357      50.127227    
   2927000   223.39399      126135.11     -46599.504     -52053.85       50.150892    
   2928000   223.85831      126136.84     -46581.996     -52047.679      50.151122    
   2929000   226.17213      126333.49     -46450.097     -51972.274      50.177171    
   2930000   226.62014      126134.11     -46437.282     -51970.397      50.15076     
   2931000   224.05905      125779.82     -46580.527     -52051.111      50.10376     
   2932000   225.29827      126010.8      -46538.967     -52039.808      50.134411    
   2933000   227.62314      126203.41     -46493.854     -52051.459      50.159942    
   2934000   226.12017      126462.1      -46493.911     -52014.819      50.194191    
   2935000   221.83834      126573.8      -46604.657     -52021.021      50.208965    
   2936000   229.02513      126803.85     -46394.708     -51986.543      50.239365    
   2937000   222.10634      126753.34     -46607.419     -52030.326      50.232694    
   2938000   226.71542      126014.35     -46448.229     -51983.671      50.134883    
   2939000   223.28002      126574.08     -46557.388     -52008.952      50.209003    
   2940000   227.25103      126430.86     -46557.437     -52105.956      50.190058    
   2941000   226.88515      126556.71     -46536.794     -52076.38       50.206706    
   2942000   226.23434      126427.88     -46496.409     -52020.104      50.189663    
   2943000   228.97531      125892.4      -46435.518     -52026.136      50.118705    
   2944000   222.39568      126430.64     -46541.56      -51971.532      50.190028    
   2945000   223.25734      126279.9      -46479.277     -51930.287      50.170074    
   2946000   227.90573      126249.34     -46491.45      -52055.954      50.166027    
   2947000   222.80908      126251.72     -46592.968     -52033.033      50.166343    
   2948000   227.86771      126461.74     -46490.616     -52054.192      50.194144    
   2949000   225.94375      126267.28     -46466.525     -51983.125      50.168403    
   2950000   222.20728      126363.22     -46521.341     -51946.713      50.181106    
   2951000   223.24834      126227.19     -46576.212     -52027.002      50.163093    
   2952000   226.67851      127026.27     -46532.849     -52067.39       50.268722    
   2953000   225.54517      126465.65     -46619.894     -52126.763      50.194661    
   2954000   227.95291      126676.4      -46436.621     -52002.277      50.222528    
   2955000   222.86422      126645.84     -46647.211     -52088.623      50.218489    
   2956000   224.3848       126562.17     -46571.298     -52049.836      50.207427    
   2957000   224.27106      126465.6      -46410.575     -51886.336      50.194654    
   2958000   224.57836      126564.03     -46566.91      -52050.174      50.207674    
   2959000   227.27784      126634.48     -46473.302     -52022.476      50.216988    
   2960000   223.95092      126896.04     -46572.075     -52040.019      50.251538    
   2961000   223.71287      126616.58     -46679.445     -52141.578      50.214621    
   2962000   223.77246      126985.44     -46580.096     -52043.683      50.263336    
   2963000   223.84574      126852.9      -46525.451     -51990.827      50.245843    
   2964000   226.57058      126472.24     -46659.077     -52190.982      50.195534    
   2965000   223.31521      126456.83     -46559.725     -52012.147      50.193494    
   2966000   223.17855      126602.48     -46631.102     -52080.188      50.212757    
   2967000   221.92999      126381.96     -46614.814     -52033.416      50.183586    
   2968000   224.58662      126147.27     -46550.311     -52033.777      50.152503    
   2969000   227.8933       126415.72     -46532.534     -52096.735      50.188055    
   2970000   225.06331      126759.46     -46635.291     -52130.395      50.233502    
   2971000   228.51584      126465.06     -46439.588     -52018.989      50.194583    
   2972000   226.99559      126613.03     -46525.156     -52067.438      50.214153    
   2973000   227.66194      126804.03     -46428.827     -51987.378      50.239389    
   2974000   223.78184      126668.18     -46548.239     -52012.055      50.221442    
   2975000   224.67433      126323.51     -46578.393     -52064          50.175849    
   2976000   227.01272      126748.31     -46514.364     -52057.065      50.232029    
   2977000   226.74528      126422.71     -46534.758     -52070.929      50.18898     
   2978000   225.51269      126304.84     -46618.862     -52124.938      50.173376    
   2979000   225.17224      126223.53     -46646.292     -52144.056      50.162609    
   2980000   222.17         126387.93     -46574.104     -51998.566      50.184377    
   2981000   223.96393      126372.86     -46630.849     -52099.111      50.182382    
   2982000   225.4533       126755.37     -46598.156     -52102.782      50.232963    
   2983000   230.13464      126955.21     -46474.704     -52093.629      50.259347    
   2984000   227.21351      126655.01     -46555.278     -52102.881      50.219701    
   2985000   223.64044      126182.29     -46678.281     -52138.644      50.157144    
   2986000   226.57897      126740.36     -46503.061     -52035.172      50.23098     
   2987000   227.8598       126358.18     -46456.392     -52019.775      50.180439    
   2988000   224.58581      126800.65     -46649.047     -52132.493      50.238943    
   2989000   223.12174      126619.34     -46559.386     -52007.085      50.214986    
   2990000   221.88255      126562.86     -46551.514     -51968.957      50.207519    
   2991000   222.09955      126329.38     -46713.924     -52136.666      50.176627    
   2992000   225.09586      127147.07     -46509.64      -52005.539      50.284653    
   2993000   222.98495      126789.22     -46645.215     -52089.574      50.237434    
   2994000   224.17083      126701.7      -46668.306     -52141.619      50.225872    
   2995000   228.05902      126408.09     -46542.007     -52110.254      50.187044    
   2996000   225.06668      126579.43     -46562.257     -52057.444      50.20971     
   2997000   222.24481      126717.04     -46717.035     -52143.323      50.227898    
   2998000   229.4591       126475.86     -46412.584     -52015.015      50.196012    
   2999000   223.06555      126614.4      -46552.084     -51998.411      50.214333    
   3000000   221.46324      126030.13     -46755.488     -52162.694      50.136975    
   3001000   225.5925       126726.6      -46537.077     -52045.102      50.229161    
   3002000   223.00171      126376.18     -46647.767     -52092.536      50.182822    
   3003000   224.68537      126463.5      -46619.129     -52105.006      50.194376    
   3004000   222.56888      126334.8      -46644.835     -52079.036      50.177344    
   3005000   226.51208      126123.52     -46504.735     -52035.212      50.149356    
   3006000   223.56111      126462.58     -46585.43      -52043.857      50.194255    
   3007000   228.87484      126342.42     -46421.859     -52010.025      50.178353    
   3008000   226.65048      126628.61     -46559.749     -52093.605      50.216212    
   3009000   227.23147      126380.72     -46472.367     -52020.408      50.183422    
   3010000   226.31386      126136.24     -46527.553     -52053.19       50.151043    
   3011000   225.9467       126297.39     -46562.759     -52079.432      50.172391    
   3012000   227.21553      126237.82     -46364.896     -51912.549      50.164501    
   3013000   224.25225      126324.6      -46553.27      -52028.571      50.175993    
   3014000   224.72763      126440.32     -46622.076     -52108.984      50.19131     
   3015000   225.13071      126251.44     -46568.145     -52064.895      50.166305    
   3016000   225.36507      126826.07     -46420.559     -51923.031      50.242299    
   3017000   226.31618      126839.25     -46558.875     -52084.569      50.24404     
   3018000   222.35092      126355.85     -46691.277     -52120.156      50.18013     
   3019000   223.53004      126488.26     -46608.358     -52066.026      50.197652    
   3020000   222.58002      126418.32     -46508.006     -51942.479      50.188399    
   3021000   229.75962      126839.97     -46343.513     -51953.282      50.244135    
   3022000   222.04373      126397.35     -46586.594     -52007.972      50.185623    
   3023000   226.14379      126191.92     -46508.055     -52029.54       50.15842     
   3024000   226.84677      126888.47     -46516.35      -52054.999      50.250538    
   3025000   226.46148      127199.91     -46514.542     -52043.784      50.291617    
   3026000   224.20232      126774.17     -46568.41      -52042.493      50.235446    
   3027000   224.0911       126417.01     -46678.375     -52149.742      50.188225    
   3028000   223.89506      126543.61     -46634.594     -52101.175      50.204974    
   3029000   228.49214      126409.05     -46335.049     -51913.871      50.187172    
   3030000   220.34284      126551.21     -46622.507     -52002.357      50.205978    
   3031000   226.29035      126472.48     -46511.908     -52036.971      50.195565    
   3032000   223.88628      126346.46     -46658.476     -52124.842      50.178887    
   3033000   223.54661      126263.96     -46632.876     -52090.949      50.167963    
   3034000   227.87811      126324.87     -46454.522     -52018.352      50.176029    
   3035000   224.61003      126519.72     -46586.39      -52070.427      50.201814    
   3036000   225.01115      127011.14     -46489.77      -51983.601      50.266727    
   3037000   226.75096      127000.45     -46481.585     -52017.894      50.265316    
   3038000   227.65414      126713.83     -46572.587     -52130.948      50.227474    
   3039000   229.67837      126378.07     -46426.37      -52034.155      50.183071    
   3040000   227.49811      126926.11     -46546.577     -52101.129      50.255507    
   3041000   228.01383      126209.42     -46603.984     -52171.128      50.160738    
   3042000   225.10285      126126.54     -46546.179     -52042.248      50.149757    
   3043000   222.58828      126309.37     -46751.171     -52185.845      50.173977    
   3044000   223.55517      126041.14     -46726.029     -52184.311      50.138434    
   3045000   226.4889       126385.37     -46528.35      -52058.261      50.184038    
   3046000   224.90984      126178.75     -46620.902     -52112.259      50.156675    
   3047000   225.87986      126183.89     -46679.107     -52194.148      50.157356    
   3048000   222.50393      126187.35     -46589.539     -52022.154      50.157815    
   3049000   226.73418      126469.74     -46510.044     -52045.944      50.195203    
   3050000   222.10671      126086.86     -46677.452     -52100.368      50.144496    
   3051000   223.35465      126108.87     -46707.42      -52160.805      50.147414    
   3052000   224.95052      126511.43     -46547.221     -52039.571      50.200718    
   3053000   224.45014      126940.85     -46598.12      -52078.253      50.257453    
   3054000   223.16998      126849.61     -46625.497     -52074.374      50.245409    
   3055000   229.68387      126229.37     -46511.38      -52119.299      50.163381    
   3056000   222.93315      126433.45     -46665.756     -52108.851      50.190401    
   3057000   223.94403      126517.77     -46595.166     -52062.942      50.201556    
   3058000   224.23266      126477.64     -46494.486     -51969.309      50.196247    
   3059000   224.9215       126196.92     -46540.715     -52032.357      50.159082    
   3060000   220.04562      126198.35     -46675.655     -52048.248      50.159273    
   3061000   225.46638      126059.36     -46437.236     -51942.181      50.14085     
   3062000   224.57003      126460.4      -46518.566     -52001.626      50.193966    
   3063000   219.02602      125566.15     -46698.578     -52046.277      50.075373    
   3064000   225.16435      126364.33     -46537.273     -52034.844      50.181253    
   3065000   222.95971      126382.82     -46633.207     -52076.95       50.1837      
   3066000   221.68728      126018.04     -46791.094     -52203.77       50.135372    
   3067000   223.19436      126331.98     -46567.264     -52016.736      50.17697     
   3068000   230.94571      125560.45     -46449.482     -52088.21       50.074615    
   3069000   222.11285      125616.57     -46622.242     -52045.308      50.082075    
   3070000   224.01764      126288.65     -46577.803     -52047.376      50.171233    
   3071000   227.15953      125571.66     -46408.62      -51954.906      50.076105    
   3072000   222.55806      126068.27     -46604.719     -52038.655      50.142032    
   3073000   227.94052      125985.45     -46399.904     -51965.258      50.131049    
   3074000   223.00087      126436.73     -46594.414     -52039.161      50.190834    
   3075000   227.76853      125934.47     -46512.093     -52073.248      50.124287    
   3076000   226.12765      126409.91     -46406.937     -51928.028      50.187285    
   3077000   221.63585      126071.13     -46688.052     -52099.472      50.142411    
   3078000   225.5464       126437.91     -46493.945     -52000.844      50.190991    
   3079000   224.38381      125885.86     -46616.7       -52095.213      50.117837    
   3080000   226.73306      125635.5      -46577.72      -52113.592      50.08459     
   3081000   228.91358      125848.12     -46500.717     -52089.829      50.112828    
   3082000   225.9224       125848.17     -46508.056     -52024.135      50.112835    
   3083000   221.01612      125216.11     -46632.614     -52028.902      50.028798    
   3084000   219.96         125633.29     -46646.171     -52016.674      50.084296    
   3085000   224.6372       126021.98     -46504.321     -51989.021      50.135895    
   3086000   227.22664      126253.87     -46372.836     -51920.76       50.166627    
   3087000   226.0226       125445.76     -46430.416     -51948.942      50.059364    
   3088000   223.27933      125628.21     -46648.426     -52099.973      50.083622    
   3089000   224.21786      125488.53     -46538.168     -52012.63       50.065052    
   3090000   225.91224      125754.2      -46429.121     -51944.952      50.100358    
   3091000   224.54702      125996.93     -46474.517     -51957.015      50.132572    
   3092000   226.59706      125981.46     -46540.132     -52072.684      50.130521    
   3093000   224.65042      125781.71     -46532.629     -52017.653      50.104012    
   3094000   222.4091       125847.47     -46604.144     -52034.443      50.112741    
   3095000   228.55668      125979.47     -46418.415     -51998.812      50.130256    
   3096000   224.94626      126044.66     -46564.51      -52056.756      50.138902    
   3097000   226.98226      125931.24     -46550.409     -52092.366      50.123859    
   3098000   225.71339      125715.59     -46629.449     -52140.425      50.09523     
   3099000   229.16625      126091.42     -46414.8       -52010.081      50.145101    
   3100000   226.33461      125585.82     -46540.925     -52067.069      50.077987    
   3101000   225.60793      126003.45     -46453.732     -51962.134      50.133437    
   3102000   226.78237      126212.89     -46438.09      -51975.166      50.161199    
   3103000   225.12796      125435.32     -46574.589     -52071.272      50.057976    
   3104000   225.38727      125724.03     -46582.06      -52085.074      50.096352    
   3105000   224.24377      126170.03     -46523.797     -51998.891      50.15552     
   3106000   229.08947      125672.86     -46401.489     -51994.895      50.089554    
   3107000   224.69949      125573.92     -46526.464     -52012.685      50.076406    
   3108000   226.96462      125972.24     -46421.894     -51963.42       50.129297    
   3109000   225.62755      126099.36     -46471.293     -51980.174      50.146154    
   3110000   226.08863      125453.11     -46490.889     -52011.027      50.060341    
   3111000   223.27396      125322.05     -46534.143     -51985.558      50.042903    
   3112000   225.48403      125761.54     -46526.452     -52031.828      50.101333    
   3113000   225.94206      125950.92     -46488.879     -52005.438      50.126469    
   3114000   223.07707      125702.91     -46609.155     -52055.763      50.093546    
   3115000   225.99475      126246.86     -46423.529     -51941.375      50.165698    
   3116000   224.48277      125894.56     -46591.894     -52072.824      50.118991    
   3117000   225.15637      125778.17     -46530.777     -52028.153      50.103541    
   3118000   227.44461      125754.17     -46497.919     -52051.164      50.100354    
   3119000   229.62193      126079.06     -46514.965     -52121.372      50.143463    
   3120000   225.27014      126030.5      -46510.141     -52010.295      50.137024    
   3121000   223.5289       126267.2      -46492.808     -51950.448      50.168392    
   3122000   222.91303      126249.11     -46566.197     -52008.8        50.165997    
   3123000   226.75946      126027.56     -46487.689     -52024.206      50.136634    
   3124000   224.30992      126480.9      -46600.11      -52076.819      50.196679    
   3125000   223.03703      126632.37     -46688.544     -52134.175      50.216709    
   3126000   223.22032      125979.39     -46533.624     -51983.73       50.130246    
   3127000   223.83075      126245.47     -46570.94      -52035.95       50.165514    
   3128000   226.44617      125870.18     -46518.787     -52047.655      50.115756    
   3129000   224.92983      125986.15     -46437.944     -51929.789      50.131143    
   3130000   226.09053      126057.45     -46583.263     -52103.448      50.140597    
   3131000   226.00392      126340.62     -46574.272     -52092.342      50.178114    
   3132000   226.18565      126526.37     -46496.288     -52018.795      50.202693    
   3133000   221.99034      126136.07     -46645.113     -52065.188      50.15102     
   3134000   223.45744      126644.89     -46564.302     -52020.198      50.218363    
   3135000   223.85529      125953.85     -46525.434     -51991.043      50.126858    
   3136000   224.32245      125980.82     -46647.394     -52124.41       50.130435    
   3137000   225.70214      126334.92     -46544.589     -52055.291      50.177359    
   3138000   225.70492      126324.27     -46439.233     -51950.003      50.175949    
   3139000   224.38625      125536.88     -46611.919     -52090.492      50.071481    
   3140000   223.16332      126036.86     -46599.164     -52047.879      50.137867    
   3141000   223.78198      126167.85     -46615.43      -52079.249      50.15523     
   3142000   225.8941       126491.78     -46461.923     -51977.312      50.198117    
   3143000   224.60016      126324        -46496.449     -51980.245      50.175914    
   3144000   225.1007       126239.24     -46604.847     -52100.864      50.164689    
   3145000   222.87856      126016.14     -46568.303     -52010.065      50.13512     
   3146000   226.17375      126332.96     -46657.139     -52179.356      50.1771      
   3147000   224.20678      126225.84     -46513.737     -51987.928      50.162913    
   3148000   226.76784      126244.43     -46478.478     -52015.2        50.165376    
   3149000   226.90947      126198.74     -46522.917     -52063.097      50.159323    
   3150000   225.42229      126699.58     -46504.968     -52008.837      50.225591    
   3151000   227.62769      126310.81     -46470.696     -52028.412      50.174168    
   3152000   224.27432      126273.48     -46576.848     -52052.688      50.169224    
   3153000   224.26906      126511.01     -46524.504     -52000.216      50.200662    
   3154000   224.11876      126852.41     -46695.911     -52167.953      50.245778    
   3155000   224.51811      126513.81     -46633.779     -52115.572      50.201032    
   3156000   227.63424      126300.44     -46552.117     -52109.992      50.172794    
   3157000   224.41428      126755.75     -46710.296     -52189.553      50.233012    
   3158000   225.01557      126797.35     -46610.768     -52104.707      50.238507    
   3159000   219.9234       126766.24     -46681.267     -52050.877      50.234398    
   3160000   227.24371      126583.29     -46461.018     -52009.359      50.21022     
   3161000   225.27093      126640.49     -46513.827     -52014          50.217782    
   3162000   228.99801      126434.97     -46571.132     -52162.305      50.190602    
   3163000   228.68932      126606.47     -46529.962     -52113.598      50.213285    
   3164000   228.73447      126140.29     -46498.988     -52083.726      50.151579    
   3165000   227.80979      126373.1      -46548.963     -52111.125      50.182414    
   3166000   222.90104      126618.52     -46611.585     -52053.896      50.214878    
   3167000   230.11369      126378.83     -46407.397     -52025.811      50.183172    
   3168000   228.07148      126715.86     -46471.699     -52040.251      50.227742    
   3169000   223.30459      126717.32     -46621.558     -52073.721      50.227936    
   3170000   226.38955      126617.13     -46369.814     -51897.299      50.214694    
   3171000   222.38589      126489.05     -46661.896     -52091.629      50.197757    
   3172000   224.04435      126581.25     -46528.493     -51998.718      50.209951    
   3173000   228.70839      126534.05     -46402.836     -51986.937      50.203709    
   3174000   224.67267      126728.92     -46561.463     -52047.029      50.229467    
   3175000   227.33934      127090.56     -46489.68      -52040.355      50.277202    
   3176000   223.99754      126217.93     -46700.118     -52169.2        50.161866    
   3177000   223.28595      126965.3      -46586.629     -52038.337      50.260679    
   3178000   226.71385      126672.27     -46469.616     -52005.02       50.221982    
   3179000   224.02652      126735.86     -46626.267     -52096.057      50.230385    
   3180000   225.66236      126750.56     -46470.246     -51979.976      50.232327    
   3181000   222.79126      126429.92     -46646.566     -52086.196      50.189934    
   3182000   225.52628      126557.82     -46543.537     -52049.945      50.206853    
   3183000   230.98004      127158.71     -46566.169     -52205.735      50.286187    
   3184000   225.43107      126822.15     -46475.644     -51979.728      50.241782    
   3185000   226.70059      126464.35     -46535.551     -52070.631      50.19449     
   3186000   222.50256      126948.57     -46677.726     -52110.308      50.258471    
   3187000   222.19491      126211.02     -46590.424     -52015.494      50.16095     
   3188000   224.72138      127131.27     -46574.993     -52061.749      50.282569    
   3189000   223.66229      126722.89     -46572.242     -52033.139      50.228672    
   3190000   226.20298      126920.54     -46740.353     -52263.283      50.254771    
   3191000   223.56694      127050.79     -46560.764     -52019.334      50.271957    
   3192000   223.78615      126808.39     -46696.009     -52159.931      50.239965    
   3193000   225.15582      126335.84     -46756.741     -52254.104      50.177481    
   3194000   222.80085      127055.94     -46592.698     -52032.562      50.272637    
   3195000   224.85196      127128.39     -46564.51      -52054.454      50.28219     
   3196000   222.37727      126627.59     -46715.632     -52145.154      50.216077    
   3197000   225.68015      126539.91     -46629.43      -52139.594      50.204483    
   3198000   221.47519      127067.31     -46633.163     -52040.66       50.274135    
   3199000   223.38065      127206.44     -46565.653     -52019.673      50.292478    
   3200000   225.35876      126692.39     -46581.276     -52083.594      50.224641    
   3201000   227.56365      126334.29     -46452.184     -52008.336      50.177276    
   3202000   222.4252       126976.19     -46591.976     -52022.669      50.262115    
   3203000   221.33332      126444.38     -46677.356     -52081.39       50.191847    
   3204000   230.45947      126760.61     -46362.436     -51989.292      50.233655    
   3205000   224.57588      126807.65     -46664.812     -52148.015      50.239867    
   3206000   224.67911      126272.64     -46670.685     -52156.409      50.169113    
   3207000   226.47922      126280.64     -46529.297     -52058.972      50.170172    
   3208000   222.51027      126616.65     -46623.389     -52056.159      50.214631    
   3209000   222.86522      126766.37     -46450.893     -51892.329      50.234416    
   3210000   224.93961      126753.37     -46595.55      -52087.634      50.232698    
   3211000   225.31662      126887.41     -46440.938     -51942.227      50.250398    
   3212000   223.43285      126745.91     -46603.954     -52059.249      50.231713    
   3213000   224.07122      126775.27     -46583.24      -52054.122      50.235591    
   3214000   224.17829      126921.7      -46639.461     -52112.957      50.254925    
   3215000   226.54185      127157.52     -46503.03      -52034.234      50.28603     
   3216000   225.81483      127046.22     -46509.356     -52022.81       50.271353    
   3217000   225.10611      126852        -46570.216     -52066.365      50.245724    
   3218000   221.66275      127139.41     -46701.053     -52113.129      50.283642    
   3219000   225.84614      126852.26     -46571.442     -52085.66       50.245758    
   3220000   222.66991      126814.55     -46743.507     -52180.174      50.240779    
   3221000   225.5198       126639.91     -46571.883     -52078.132      50.217705    
   3222000   223.48541      127363.99     -46532.459     -51989.038      50.313232    
   3223000   226.82016      127113.18     -46496.541     -52034.54       50.280185    
   3224000   223.9044       126855.31     -46618.693     -52085.501      50.246161    
   3225000   223.26384      126999.97     -46693.802     -52144.971      50.265254    
   3226000   223.49485      127057.17     -46535.338     -51992.146      50.272798    
   3227000   223.63283      126958.47     -46604.124     -52064.302      50.259778    
   3228000   224.93789      126864.61     -46477.522     -51969.564      50.247389    
   3229000   226.45287      127551.98     -46465.665     -51994.696      50.337974    
   3230000   224.68106      127084.26     -46698.231     -52184.002      50.27637     
   3231000   225.61174      127159.22     -46586.384     -52094.878      50.286255    
   3232000   224.45074      126663.73     -46436.909     -51917.057      50.220853    
   3233000   223.14091      126730.89     -46542.724     -51990.891      50.229728    
   3234000   221.82967      126605.12     -46618.492     -52034.644      50.213107    
   3235000   224.08339      126901.04     -46681.384     -52152.563      50.252198    
   3236000   223.2704       126680.74     -46532.19      -51983.519      50.223102    
   3237000   222.17406      126446.69     -46629.051     -52053.612      50.192152    
   3238000   225.96394      126755.64     -46464.242     -51981.336      50.232999    
   3239000   223.77598      127219.04     -46521.067     -51984.74       50.294138    
   3240000   224.81503      127011.53     -46572.305     -52061.347      50.266778    
   3241000   225.07972      126831.96     -46644.393     -52139.898      50.243077    
   3242000   223.90699      127004.68     -46563.711     -52030.583      50.265874    
   3243000   223.45713      126865.41     -46580.287     -52036.175      50.247494    
   3244000   225.31568      126828.98     -46633.898     -52135.164      50.242684    
   3245000   224.26342      126503.78     -46640.98      -52116.554      50.199706    
   3246000   226.97759      126793.69     -46528.426     -52070.269      50.238024    
   3247000   224.29559      126391.85     -46591.565     -52067.924      50.184895    
   3248000   224.7361       126418.64     -46542.813     -52029.928      50.188442    
   3249000   220.58694      126427.13     -46724.783     -52110.593      50.189564    
   3250000   227.60756      126561.96     -46449.706     -52006.93       50.2074      
   3251000   221.69451      126361.01     -46606.322     -52019.174      50.180813    
   3252000   222.97033      126472.12     -46609.861     -52053.863      50.195517    
   3253000   222.07876      126217.68     -46700.911     -52123.145      50.161833    
   3254000   228.82682      126360        -46453.821     -52040.814      50.180679    
   3255000   223.81801      126385.93     -46602.704     -52067.403      50.184112    
   3256000   229.90463      126255.88     -46446.633     -52059.941      50.166894    
   3257000   223.88896      126682.81     -46538.646     -52005.078      50.223375    
   3258000   227.08196      126492.18     -46444.927     -51989.318      50.19817     
   3259000   225.87046      126848.47     -46483.22      -51998.031      50.245258    
   3260000   226.52296      126696.67     -46529.129     -52059.872      50.225206    
   3261000   225.2349       126318.08     -46629.818     -52129.112      50.17513     
   3262000   225.44821      126221.26     -46556.629     -52061.13       50.162307    
   3263000   223.25292      126029.72     -46555.419     -52006.321      50.13692     
   3264000   225.44043      126142.48     -46579.171     -52083.483      50.151868    
   3265000   227.74066      126206.93     -46407.598     -51968.072      50.160409    
   3266000   227.01908      125807.79     -46547.23      -52090.086      50.107475    
   3267000   226.92006      126077.08     -46587.659     -52128.098      50.1432      
   3268000   225.59449      126153.95     -46512.911     -52020.985      50.153389    
   3269000   221.78721      126807.67     -46665.948     -52081.063      50.23987     
   3270000   222.83756      126542.11     -46623.915     -52064.676      50.204775    
   3271000   224.48864      126572.11     -46503.983     -51985.056      50.208743    
   3272000   225.61702      126086.57     -46464.287     -51972.91       50.144459    
   3273000   224.47317      126433.86     -46602.876     -52083.571      50.190455    
   3274000   224.83451      126188.83     -46528.273     -52017.791      50.158011    
   3275000   222.64944      126643.99     -46640.435     -52076.603      50.218244    
   3276000   223.65595      126274.32     -46571.007     -52031.749      50.169335    
   3277000   225.88966      126668.93     -46513.901     -52029.181      50.22154     
   3278000   222.70874      126516.56     -46559.315     -51996.931      50.201395    
   3279000   224.50862      126263.6      -46591.211     -52072.772      50.167916    
   3280000   227.77274      126477.05     -46483.512     -52044.769      50.19617     
   3281000   225.68575      126194.6      -46559.039     -52069.34       50.158775    
   3282000   224.55351      126357.03     -46432.865     -51915.522      50.180287    
   3283000   227.08393      126390.39     -46548.26      -52092.699      50.184703    
   3284000   225.5092       126317.24     -46360.93      -51866.921      50.175019    
   3285000   225.68835      126303.38     -46468.141     -51978.506      50.173183    
   3286000   223.86592      126529.02     -46414.12      -51879.989      50.203044    
   3287000   227.13859      126615.4      -46350.119     -51895.893      50.214466    
   3288000   223.91548      126322.03     -46571.489     -52038.568      50.175653    
   3289000   226.87941      126238.51     -46437.333     -51976.779      50.164592    
   3290000   227.12465      126333.15     -46480.951     -52026.385      50.177126    
   3291000   225.92546      126233.44     -46402.801     -51918.956      50.163921    
   3292000   226.50063      126307.37     -46516.562     -52046.759      50.173712    
   3293000   222.61918      126283        -46531.2       -51966.628      50.170485    
   3294000   224.84661      126054.26     -46517.202     -52007.016      50.140175    
   3295000   222.81022      126548.94     -46544.333     -51984.426      50.205678    
   3296000   224.32652      126080.94     -46526.56      -52003.675      50.143712    
   3297000   225.83991      126195.51     -46462.322     -51976.387      50.158896    
   3298000   226.64543      126706.94     -46382.951     -51916.684      50.226564    
   3299000   223.95252      126601.72     -46481.573     -51949.556      50.212656    
   3300000   227.81886      126478.48     -46365.96      -51928.343      50.196359    
   3301000   223.67295      126045.28     -46513.07      -51974.228      50.138984    
   3302000   224.71988      126696.46     -46351.32      -51838.039      50.225179    
   3303000   225.22485      126498.16     -46549.009     -52048.057      50.198961    
   3304000   225.89848      126947.09     -46430.207     -51945.702      50.258275    
   3305000   226.35533      126671.99     -46428.62      -51955.27       50.221946    
   3306000   224.16795      126478.83     -46562.082     -52035.326      50.196405    
   3307000   227.43752      126951.8      -46439.674     -51992.747      50.258897    
   3308000   225.68886      126734.9      -46542.761     -52053.138      50.230258    
   3309000   228.79765      126341.02     -46396.207     -51982.489      50.178168    
   3310000   225.33454      126894.74     -46490.551     -51992.277      50.251366    
   3311000   223.88004      126241.51     -46622.657     -52088.87       50.16499     
   3312000   224.10071      126520.34     -46567.026     -52038.627      50.201896    
   3313000   224.34613      126372.8      -46608.799     -52086.393      50.182374    
   3314000   226.06308      126741.67     -46565.597     -52085.111      50.231153    
   3315000   228.9065       126589.86     -46347.035     -51935.974      50.211089    
   3316000   226.36758      126567.65     -46444.832     -51971.781      50.208152    
   3317000   222.81163      126604.75     -46617.061     -52057.188      50.213058    
   3318000   224.91292      126869.45     -46535.629     -52027.061      50.248028    
   3319000   224.35113      126432.45     -46604.817     -52082.533      50.190268    
   3320000   227.68259      126483.13     -46476.32      -52035.375      50.196973    
   3321000   226.49442      127115.37     -46373.918     -51903.964      50.280473    
   3322000   221.76361      126798.94     -46566.254     -51980.793      50.238717    
   3323000   225.3388       126665.73     -46429.942     -51931.772      50.221118    
   3324000   220.82883      126431.32     -46535.52      -51927.236      50.190119    
   3325000   226.87844      126543.13     -46387.753     -51927.175      50.204909    
   3326000   223.52873      126817.15     -46579.852     -52037.489      50.241122    
   3327000   224.95989      126548.06     -46458.102     -51950.681      50.205562    
   3328000   224.33618      126673.55     -46503.841     -51981.191      50.222151    
   3329000   221.65847      126858.31     -46621.88      -52033.853      50.246556    
   3330000   223.76701      126807.75     -46536.639     -52000.093      50.239881    
   3331000   227.05988      126745.37     -46394.593     -51938.445      50.231641    
   3332000   224.17877      126502.53     -46552.122     -52025.63       50.19954     
   3333000   223.93792      126616.15     -46576.882     -52044.509      50.214565    
   3334000   226.83226      126661.29     -46506.476     -52044.771      50.220531    
   3335000   226.15603      126494.91     -46440.59      -51962.374      50.198533    
   3336000   227.59318      126833.5      -46498.386     -52055.259      50.243282    
   3337000   221.95936      127267.9      -46605.769     -52025.088      50.300577    
   3338000   226.44591      126723.63     -46406.486     -51935.347      50.228769    
   3339000   228.44689      125963.87     -46486.68      -52064.397      50.128187    
   3340000   224.41413      126592.88     -46501.557     -51980.811      50.211488    
   3341000   228.93596      126631.77     -46422.89      -52012.548      50.21663     
   3342000   227.89736      127252.92     -46481.293     -52045.593      50.298603    
   3343000   222.24097      126862.4      -46557.182     -51983.376      50.247097    
   3344000   226.20431      126900.31     -46563.535     -52086.497      50.252102    
   3345000   224.93765      126905.53     -46587.526     -52079.562      50.25279     
   3346000   226.52902      126882.63     -46574.134     -52105.024      50.249767    
   3347000   226.48651      127129.17     -46456.639     -51986.492      50.282293    
   3348000   224.62173      127319.31     -46518.595     -52002.918      50.307348    
   3349000   222.30519      127311.71     -46600.132     -52027.895      50.306347    
   3350000   223.59481      126725.32     -46519.526     -51978.775      50.228993    
   3351000   227.30114      126969.78     -46463.817     -52013.56       50.261269    
   3352000   227.76415      126615.67     -46413.586     -51974.633      50.214501    
   3353000   221.21377      127009.33     -46607.009     -52008.124      50.266488    
   3354000   227.82647      127306.83     -46413.463     -51976.032      50.305705    
   3355000   228.02131      127049.91     -46365.549     -51932.875      50.271841    
   3356000   228.11394      127307.99     -46371.454     -51941.042      50.305857    
   3357000   224.30469      127031        -46499.911     -51976.493      50.269347    
   3358000   223.87844      126986.77     -46479.903     -51946.078      50.263511    
   3359000   222.34828      127397.76     -46483.746     -51912.56       50.317679    
   3360000   222.56568      127212.39     -46666.033     -52100.155      50.293262    
   3361000   225.21414      127017.46     -46443.367     -51942.154      50.26756     
   3362000   221.85595      127197.8      -46467.839     -51884.633      50.291339    
   3363000   225.81549      126825.86     -46295.301     -51808.77       50.242272    
   3364000   224.09205      127155.14     -46546.127     -52017.517      50.285716    
   3365000   226.63619      127214.3      -46497.386     -52030.893      50.293514    
   3366000   224.94399      126935.47     -46545.347     -52037.538      50.256742    
   3367000   224.50884      127510.69     -46564.12      -52045.686      50.332542    
   3368000   226.4198       127139.57     -46383.957     -51912.181      50.283663    
   3369000   225.13979      127198.24     -46592.138     -52089.109      50.291398    
   3370000   226.07438      127060.28     -46517.3       -52037.09       50.273208    
   3371000   222.12307      127007.51     -46692.054     -52115.369      50.266248    
   3372000   226.46658      126958.61     -46626.642     -52156.008      50.259796    
   3373000   225.21522      127117.83     -46410.437     -51909.25       50.280798    
   3374000   223.50636      127172.69     -46589.933     -52047.023      50.28803     
   3375000   224.94947      127441.78     -46472.849     -51965.173      50.323474    
   3376000   226.95312      127009.72     -46490.409     -52031.655      50.26654     
   3377000   226.14046      127171.22     -46499.225     -52020.629      50.287836    
   3378000   224.92097      127494.56     -46432.087     -51923.716      50.330419    
   3379000   224.65442      127461.44     -46556.18      -52041.301      50.32606     
   3380000   224.64251      127405.11     -46592.532     -52077.362      50.318647    
   3381000   226.05366      127373.86     -46468.165     -51987.449      50.314532    
   3382000   222.52323      126895.32     -46675.844     -52108.93       50.251443    
   3383000   228.32641      126885.74     -46490.764     -52065.539      50.250178    
   3384000   224.92855      126774.28     -46546.614     -52038.428      50.23546     
   3385000   226.39809      127129.87     -46488.646     -52016.34       50.282385    
   3386000   225.97222      126736.17     -46527.974     -52045.27       50.230426    
   3387000   221.18897      127110.51     -46653.144     -52053.653      50.279833    
   3388000   225.63693      127113.27     -46544.442     -52053.551      50.280196    
   3389000   223.91032      126921.97     -46579.699     -52046.652      50.254961    
   3390000   226.83919      127017.32     -46539.566     -52078.029      50.267541    
   3391000   224.86101      127013.01     -46576.531     -52066.696      50.266973    
   3392000   224.15194      126946.82     -46598.311     -52071.163      50.25824     
   3393000   225.10634      126872.28     -46557.654     -52053.809      50.248401    
   3394000   226.20302      126924.84     -46433.169     -51956.1        50.255339    
   3395000   227.74223      127204.18     -46471.633     -52032.146      50.29218     
   3396000   222.98264      126930.99     -46732.253     -52176.555      50.25615     
   3397000   228.28772      126879.35     -46473.62      -52047.451      50.249335    
   3398000   224.93506      127260.5      -46559.702     -52051.674      50.299602    
   3399000   225.72439      127356.67     -46451.651     -51962.896      50.312268    
   3400000   225.43894      126990.65     -46549.472     -52053.747      50.264023    
   3401000   222.89952      127158.04     -46634.862     -52077.136      50.286098    
   3402000   222.99335      127753.74     -46542.806     -51987.371      50.364502    
   3403000   221.00887      127074.63     -46700.72      -52096.832      50.275101    
   3404000   224.39996      127102.81     -46567.199     -52046.107      50.278818    
   3405000   222.39356      127037.27     -46545.665     -51975.585      50.270174    
   3406000   223.67577      126988.12     -46654.493     -52115.719      50.263689    
   3407000   228.59505      126902.03     -46488.729     -52070.064      50.252329    
   3408000   223.67468      126589.06     -46696.378     -52157.578      50.210983    
   3409000   225.39613      126636.32     -46573.475     -52076.706      50.217231    
   3410000   223.44067      127063.69     -46662.637     -52118.123      50.273658    
   3411000   225.76144      127027.19     -46418.485     -51930.634      50.268843    
   3412000   221.21685      126764.62     -46668.394     -52069.584      50.234184    
   3413000   225.06535      126984.32     -46609.151     -52104.305      50.263188    
   3414000   220.78865      127173.15     -46519.476     -51910.211      50.288091    
   3415000   223.92232      127121.89     -46610.391     -52077.637      50.281332    
   3416000   225.43878      126902.27     -46493.727     -51997.999      50.25236     
   3417000   224.56981      127161.91     -46578.032     -52061.087      50.286608    
   3418000   228.01668      126681.74     -46361.994     -51929.207      50.223234    
   3419000   225.14517      127172.65     -46426.914     -51924.017      50.288024    
   3420000   222.51727      127088.73     -46640.732     -52073.672      50.27696     
   3421000   226.26898      127045.78     -46488.116     -52012.658      50.271296    
   3422000   222.8467       127308.99     -46439.713     -51880.697      50.305989    
   3423000   226.94561      127099.68     -46412.045     -51953.107      50.278404    
   3424000   225.3436       127276.49     -46454.083     -51956.031      50.301708    
   3425000   223.01363      126747.85     -46622.088     -52067.147      50.231968    
   3426000   228.95859      127214.52     -46473.943     -52064.153      50.293542    
   3427000   222.1393       127155.54     -46591.944     -52015.656      50.28577     
   3428000   222.74873      127133.09     -46617.627     -52056.218      50.28281     
   3429000   226.59645      127007.53     -46391.588     -51924.125      50.26625     
   3430000   228.8361       126949.01     -46470.36      -52057.58       50.258528    
   3431000   227.70991      127009.21     -46477.574     -52037.298      50.266472    
   3432000   226.75882      127035.68     -46574.885     -52111.386      50.269964    
   3433000   224.77533      126893.81     -46415.123     -51903.196      50.251244    
   3434000   221.08441      126792.38     -46725.577     -52123.533      50.23785     
   3435000   225.7827       126835.83     -46481.998     -51994.666      50.243589    
   3436000   227.24965      127555.29     -46406.727     -51955.212      50.33841     
   3437000   223.53526      127263.04     -46583.265     -52041.061      50.299936    
   3438000   227.5406       127121.15     -46364.789     -51920.378      50.281235    
   3439000   224.15396      126944.43     -46567.313     -52040.215      50.257924    
   3440000   223.80658      126983.68     -46524.224     -51988.645      50.263104    
   3441000   225.21527      126557.56     -46446.676     -51945.49       50.206817    
   3442000   224.17974      127241.15     -46561.987     -52035.518      50.297052    
   3443000   224.89173      127272.85     -46475.153     -51966.068      50.301229    
   3444000   222.51228      127362.98     -46603.729     -52036.547      50.313099    
   3445000   222.41066      127310.48     -46735.554     -52165.891      50.306185    
   3446000   223.75393      127559.62     -46546.075     -52009.21       50.338979    
   3447000   225.25946      127142.26     -46533.655     -52033.548      50.284018    
   3448000   225.72556      127574.46     -46626.224     -52137.497      50.340931    
   3449000   218.79102      127025.67     -46709.168     -52051.129      50.268643    
   3450000   226.13261      127146.4      -46447.414     -51968.626      50.284564    
   3451000   223.10021      127436.53     -46553.243     -52000.417      50.322782    
   3452000   223.5962       127170.16     -46537.34      -51996.624      50.287696    
   3453000   227.20619      126982.66     -46468.662     -52016.086      50.26297     
   3454000   225.825        127295.78     -46518.061     -52031.762      50.304249    
   3455000   222.09619      127009.88     -46642.317     -52064.977      50.26656     
   3456000   226.02709      126928.57     -46549.639     -52068.275      50.255832    
   3457000   226.7332       127231.84     -46466.884     -52002.76       50.295825    
   3458000   227.81794      126950.42     -46613.979     -52176.339      50.258716    
   3459000   229.22881      126943.24     -46471.389     -52068.197      50.257767    
   3460000   224.05126      126839.85     -46645.239     -52115.633      50.244119    
   3461000   227.05939      126942.23     -46545.144     -52088.984      50.257634    
   3462000   228.97257      126815.39     -46408.189     -51998.741      50.24089     
   3463000   226.20765      126978.25     -46502.673     -52025.717      50.262387    
   3464000   227.13371      127346.14     -46527.269     -52072.924      50.310882    
   3465000   225.51727      127101.93     -46568.156     -52074.344      50.278701    
   3466000   228.05086      126705.98     -46376.598     -51944.646      50.226437    
   3467000   226.82894      126790.1      -46504.545     -52042.759      50.23755     
   3468000   224.37189      126662.95     -46615.557     -52093.78       50.220751    
   3469000   222.74485      126602.37     -46553.343     -51991.84       50.212742    
   3470000   226.63303      126995.78     -46563.241     -52096.671      50.2647      
   3471000   223.8851       126629.97     -46675.886     -52142.223      50.216392    
   3472000   224.67315      126575.79     -46567.474     -52053.052      50.209229    
   3473000   225.37019      127187.62     -46498.351     -52000.948      50.289997    
   3474000   230.06864      127241.03     -46446.143     -52063.456      50.297036    
   3475000   222.25912      127032.91     -46626.395     -52053.032      50.269598    
   3476000   223.53041      126528.65     -46660.22      -52117.897      50.202995    
   3477000   225.04349      127205.74     -46634.91      -52129.53       50.292386    
   3478000   226.36573      127495.7      -46436.471     -51963.375      50.33057     
   3479000   225.83782      127412.52     -46539.502     -52053.517      50.319622    
   3480000   227.4047       127158.75     -46471.407     -52023.678      50.286192    
   3481000   223.71473      126694.19     -46683.103     -52145.281      50.22488     
   3482000   227.8295       127048.02     -46657.869     -52220.512      50.271591    
   3483000   225.59761      127083.47     -46553.082     -52061.231      50.276266    
   3484000   222.13591      126920.81     -46759.394     -52183.023      50.254807    
   3485000   222.45153      126672.32     -46709.91      -52141.246      50.221989    
   3486000   226.5752       126999.67     -46494.257     -52026.275      50.265214    
   3487000   226.79105      126497.24     -46529.369     -52066.657      50.19884     
   3488000   222.27538      126567.87     -46698.564     -52125.598      50.208182    
   3489000   228.06503      126768.35     -46442.91      -52011.304      50.234677    
   3490000   226.89474      126833.13     -46545.927     -52085.747      50.243232    
   3491000   224.91871      126553.43     -46553.986     -52045.56       50.206272    
   3492000   228.04341      126420.71     -46543.423     -52111.289      50.188714    
   3493000   223.21223      126943.53     -46673.39      -52123.298      50.257806    
   3494000   223.90354      126917.76     -46695.209     -52161.997      50.254404    
   3495000   221.77785      126603.38     -46616.049     -52030.936      50.212877    
   3496000   223.22448      126609.88     -46663.278     -52113.485      50.213736    
   3497000   223.36682      126805.73     -46720.033     -52173.717      50.239614    
   3498000   228.18053      126792.53     -46488.045     -52059.259      50.237871    
   3499000   223.14677      126927.67     -46643.019     -52091.329      50.255713    
   3500000   227.57041      126840.29     -46552.485     -52108.802      50.244178    
   3501000   226.79105      126634.59     -46553.49      -52090.779      50.217002    
   3502000   226.05229      126521.44     -46549.845     -52069.096      50.202041    
   3503000   225.27247      126714.49     -46607.278     -52107.489      50.227561    
   3504000   229.44328      127088.65     -46393.813     -51995.858      50.27695     
   3505000   224.26711      126606.82     -46704.08      -52179.745      50.213332    
   3506000   223.44833      126695.76     -46624.769     -52080.442      50.225086    
   3507000   225.04053      126839.49     -46676.185     -52170.733      50.244072    
   3508000   221.99863      126525.73     -46697.824     -52118.101      50.202608    
   3509000   221.61227      126484.87     -46555.01      -51965.854      50.197204    
   3510000   222.84922      126218.78     -46765.059     -52206.104      50.161979    
   3511000   224.03634      126232.46     -46651.478     -52121.507      50.163791    
   3512000   225.94494      126535.78     -46512.833     -52029.463      50.203938    
   3513000   227.35074      126651.4      -46553.773     -52104.727      50.219225    
   3514000   227.57174      126866.08     -46483.086     -52039.436      50.247583    
   3515000   222.85823      127426.04     -46577.79      -52019.056      50.321402    
   3516000   225.409        126779.87     -46572.56      -52076.104      50.236199    
   3517000   225.99393      126740.07     -46480.043     -51997.869      50.230941    
   3518000   223.74296      126550.03     -46614.423     -52077.29       50.205822    
   3519000   226.87524      126800.78     -46546.717     -52086.061      50.23896     
   3520000   225.07119      126707.67     -46668.654     -52163.95       50.226661    
   3521000   220.57276      126746.82     -46805.24      -52190.704      50.231833    
   3522000   225.34323      126850.37     -46676.157     -52178.096      50.245509    
   3523000   226.62698      126757.21     -46592.164     -52125.447      50.233206    
   3524000   224.24531      126597.29     -46590.956     -52066.088      50.212072    
   3525000   225.40359      126704.2      -46545.749     -52049.161      50.226202    
   3526000   227.83656      126881.03     -46557.941     -52120.757      50.249557    
   3527000   224.95225      126444.06     -46622.385     -52114.777      50.191804    
   3528000   224.84911      127209.47     -46552.072     -52041.946      50.292877    
   3529000   221.56348      126817.26     -46670.482     -52080.135      50.241137    
   3530000   223.72188      126298.62     -46586.284     -52048.636      50.172553    
   3531000   224.66796      126770.96     -46527.79      -52013.241      50.235022    
   3532000   222.23091      126530.92     -46641.168     -52067.117      50.203295    
   3533000   227.28498      126520.69     -46456.429     -52005.777      50.201941    
   3534000   222.84707      126585.33     -46459.629     -51900.622      50.21049     
   3535000   225.86034      126837.17     -46579.825     -52094.389      50.243765    
   3536000   224.6878       126513.81     -46545.329     -52031.265      50.201033    
   3537000   225.38367      126366.65     -46439.802     -51942.728      50.18156     
   3538000   228.46062      126084.22     -46531.003     -52109.056      50.144147    
   3539000   224.55913      126757.79     -46578.974     -52061.768      50.233282    
   3540000   223.18259      126730.22     -46626.412     -52075.597      50.22964     
   3541000   226.29613      126951.56     -46408.91      -51934.114      50.258865    
   3542000   226.76817      126256.19     -46499.275     -52036.005      50.166935    
   3543000   222.9058       126501.3      -46682.226     -52124.653      50.199377    
   3544000   226.95773      126378.32     -46580.466     -52121.824      50.183104    
   3545000   224.55462      126520.61     -46540.475     -52023.159      50.201932    
   3546000   221.42699      126342.47     -46757.644     -52163.965      50.178359    
   3547000   225.63212      126488.5      -46550.959     -52059.951      50.197684    
   3548000   224.92002      126705.83     -46478.891     -51970.497      50.226417    
   3549000   225.4044       126478.01     -46587.979     -52091.411      50.196296    
   3550000   221.03065      126200.86     -46666.162     -52062.806      50.159605    
   3551000   227.12065      126179.36     -46557.215     -52102.55       50.156756    
   3552000   225.87967      126726.24     -46550.065     -52065.102      50.229114    
   3553000   225.86497      126670.64     -46516.948     -52031.626      50.221766    
   3554000   225.16878      127366.58     -46505.786     -52003.465      50.313574    
   3555000   223.63038      127101.85     -46662.61      -52122.728      50.27869     
   3556000   224.45353      126757.78     -46493.008     -51973.224      50.233281    
   3557000   225.09148      126719.17     -46556.517     -52052.309      50.228179    
   3558000   226.4625       126396.86     -46555.233     -52084.499      50.185559    
   3559000   225.94436      126514.31     -46521.743     -52038.359      50.201098    
   3560000   224.7276       127399.4      -46636.308     -52123.216      50.317894    
   3561000   226.44078      126811.7      -46623.623     -52152.359      50.240402    
   3562000   225.28194      127104.85     -46695.735     -52196.177      50.279086    
   3563000   223.78845      127087.66     -46642.294     -52106.272      50.276819    
   3564000   225.38204      127607.53     -46641.402     -52144.288      50.345281    
   3565000   224.9539       126850.74     -46633.056     -52125.489      50.245558    
   3566000   226.44469      126729.7      -46746.101     -52274.933      50.229571    
   3567000   223.3752       126968.13     -46718.992     -52172.879      50.261052    
   3568000   227.58227      126681.28     -46632.754     -52189.36       50.223173    
   3569000   225.31947      127490.37     -46731.332     -52232.691      50.329868    
   3570000   223.70949      127241.12     -46659.471     -52121.52       50.297047    
   3571000   223.11919      127199.46     -46764.212     -52211.849      50.291558    
   3572000   225.27794      127302.24     -46639.465     -52139.81       50.305099    
   3573000   228.13571      127217.42     -46417.269     -51987.388      50.293925    
   3574000   222.16104      126923.89     -46679.022     -52103.265      50.255214    
   3575000   222.14783      126953.87     -46640.245     -52064.165      50.25917     
   3576000   226.06486      127028.19     -46595.967     -52115.525      50.268976    
   3577000   222.98179      126678.55     -46739.507     -52183.79       50.222812    
   3578000   220.66086      127082.16     -46769.305     -52156.919      50.276094    
   3579000   225.49691      127014.78     -46711.564     -52217.254      50.267207    
   3580000   223.17793      126700.96     -46738.716     -52187.787      50.225773    
   3581000   228.38523      126534.19     -46556.845     -52133.056      50.203727    
   3582000   223.78657      126702.73     -46661.52      -52125.451      50.226008    
   3583000   226.42748      126839.17     -46630.468     -52158.88       50.244029    
   3584000   222.65099      126865.12     -46742.741     -52178.947      50.247455    
   3585000   226.89337      126913.56     -46613.169     -52152.956      50.253851    
   3586000   225.66774      126808.15     -46573.112     -52082.974      50.239933    
   3587000   225.24883      126940.57     -46671.084     -52170.718      50.257415    
   3588000   219.62392      127011.68     -46797.431     -52159.728      50.266798    
   3589000   224.98953      126994.39     -46595.651     -52088.954      50.264517    
   3590000   224.062        127059.39     -46672.318     -52142.974      50.273091    
   3591000   223.2751       126769.99     -46669.898     -52121.342      50.234893    
   3592000   227.63254      126878.6      -46515.662     -52073.496      50.249236    
   3593000   223.72978      126901.89     -46645.274     -52107.819      50.25231     
   3594000   224.17718      127094.01     -46717.441     -52190.91       50.277657    
   3595000   221.10932      127414.7      -46782.644     -52181.209      50.319909    
   3596000   225.29359      127352.39     -46692.537     -52193.264      50.311705    
   3597000   224.80347      127618.42     -46437.452     -51926.212      50.346713    
   3598000   225.95222      127633.83     -46594.869     -52111.676      50.348739    
   3599000   222.54212      127239.49     -46630.924     -52064.471      50.296833    
   3600000   222.47094      127309.43     -46708.941     -52140.751      50.306047    
   3601000   224.90061      127403.78     -46501.99      -51993.122      50.318471    
   3602000   221.52192      127116.57     -46641.693     -52050.331      50.280631    
   3603000   223.33937      127168.28     -46609.812     -52062.825      50.287448    
   3604000   224.89471      127491.59     -46555.611     -52046.598      50.330028    
   3605000   224.26899      127672.96     -46482.376     -51958.087      50.353885    
   3606000   222.12103      127160.95     -46610.145     -52033.411      50.286482    
   3607000   222.94882      126814.04     -46568.05      -52011.527      50.240711    
   3608000   225.91049      126824.81     -46623.364     -52139.153      50.242133    
   3609000   226.47966      127094.32     -46550.935     -52080.621      50.277697    
   3610000   223.37312      127316.53     -46535.8       -51989.636      50.306983    
   3611000   227.35781      127180.29     -46461.88      -52013.007      50.289031    
   3612000   223.85204      126789.17     -46610.073     -52075.603      50.237427    
   3613000   226.39659      127202.89     -46517.919     -52045.576      50.29201     
   3614000   227.95209      127202.12     -46353.636     -51919.273      50.291909    
   3615000   222.68896      127007.51     -46601.762     -52038.894      50.266248    
   3616000   222.45012      127106.83     -46585.22      -52016.521      50.279347    
   3617000   226.28864      127571.19     -46425.186     -51950.208      50.340501    
   3618000   226.75301      127071.83     -46524.682     -52061.041      50.274731    
   3619000   225.13566      127147.08     -46579.766     -52076.637      50.284654    
   3620000   223.26143      127178.28     -46556.305     -52007.415      50.288766    
   3621000   220.89109      127291.16     -46681.112     -52074.348      50.303641    
   3622000   226.64801      126730.46     -46491.509     -52025.304      50.229671    
   3623000   223.38533      127018.31     -46544.826     -51998.961      50.267672    
   3624000   225.59335      127657.89     -46439.532     -51947.578      50.351902    
   3625000   226.80401      126988.69     -46602.13      -52139.735      50.263765    
   3626000   227.76463      126769.77     -46618.801     -52179.86       50.234864    
   3627000   226.09789      126888.02     -46509.429     -52029.793      50.250479    
   3628000   225.63746      127424.8      -46590.059     -52099.181      50.321238    
   3629000   223.04621      127724.91     -46610.139     -52055.994      50.360712    
   3630000   226.32176      126685.96     -46391.433     -51917.263      50.223791    
   3631000   226.45691      127180.33     -46572.898     -52102.028      50.289037    
   3632000   222.70306      126688.14     -46649.623     -52087.1        50.224079    
   3633000   226.86588      127193.71     -46393.513     -51932.628      50.2908      
   3634000   223.44665      127369.36     -46560.309     -52015.941      50.313939    
   3635000   222.20681      126780.74     -46694.859     -52120.219      50.236313    
   3636000   225.52159      126850.64     -46490.16      -51996.453      50.245544    
   3637000   222.9957       126819.32     -46593.797     -52038.418      50.241408    
   3638000   227.22866      126438.44     -46538.584     -52086.557      50.191061    
   3639000   223.81283      126901.61     -46417.28      -51881.852      50.252273    
   3640000   224.5696       127381.61     -46433.616     -51916.666      50.315553    
   3641000   224.06722      127070.63     -46574.188     -52044.971      50.274574    
   3642000   229.11409      127203.51     -46426.094     -52020.101      50.292092    
   3643000   226.07463      126702.12     -46617.828     -52137.624      50.225927    
   3644000   225.88203      127483.25     -46447.216     -51962.31       50.328932    
   3645000   224.8624       126857.26     -46578.43      -52068.629      50.246418    
   3646000   227.43699      126892.15     -46469.418     -52022.477      50.251024    
   3647000   228.48062      127093.3      -46378.306     -51956.846      50.277563    
   3648000   223.47682      127265.7      -46622.906     -52079.275      50.300286    
   3649000   221.89262      127441.97     -46514.808     -51932.497      50.323499    
   3650000   226.18208      127124.48     -46604.083     -52126.503      50.281674    
   3651000   226.24693      127522.13     -46510.119     -52034.122      50.334047    
   3652000   224.63712      127558.69     -46610.694     -52095.393      50.338857    
   3653000   227.05309      127005.26     -46502.314     -52046          50.26595     
   3654000   223.52465      127132.51     -46649.271     -52106.808      50.282732    
   3655000   222.42968      127517.19     -46512.039     -51942.84       50.333397    
   3656000   227.00979      127422.95     -46558.596     -52101.225      50.320995    
   3657000   224.52038      127774.28     -46629.966     -52111.814      50.367201    
   3658000   228.29841      127430.43     -46626.456     -52200.547      50.321979    
   3659000   223.10322      127563.24     -46675.618     -52122.865      50.339455    
   3660000   227.16575      127650.93     -46589.506     -52135.943      50.350987    
   3661000   224.55297      127122.31     -46581.566     -52064.21       50.281388    
   3662000   228.06179      127282.98     -46588.147     -52156.461      50.302563    
   3663000   224.90708      127637        -46603.387     -52094.677      50.349157    
   3664000   224.58229      127664.34     -46596.419     -52079.779      50.35275     
   3665000   223.37775      127814.59     -46685.76      -52139.709      50.372496    
   3666000   224.15081      127463.29     -46624.775     -52097.599      50.326305    
   3667000   226.46914      127611.23     -46563.384     -52092.813      50.345768    
   3668000   226.14661      127703.98     -46643.171     -52164.725      50.357962    
   3669000   225.67297      127259        -46603.635     -52113.625      50.299404    
   3670000   223.81162      127436.86     -46741.791     -52206.334      50.322826    
   3671000   225.47836      127329.56     -46676.331     -52181.569      50.308698    
   3672000   224.54266      126883.57     -46724.779     -52207.171      50.249892    
   3673000   223.47024      127398.17     -46578.46      -52034.668      50.317732    
   3674000   228.50031      127809.62     -46539.745     -52118.767      50.371844    
   3675000   221.36805      127366.83     -46625.868     -52030.749      50.313606    
   3676000   221.7652       127861.97     -46750.588     -52165.166      50.378721    
   3677000   225.40564      127507.11     -46659.732     -52163.194      50.332072    
   3678000   226.0791       127369.67     -46542.134     -52062.04       50.31398     
   3679000   221.78243      127332.78     -46663.862     -52078.861      50.309123    
   3680000   223.43419      127367.19     -46640.279     -52095.607      50.313654    
   3681000   227.34659      126852.05     -46623.306     -52174.158      50.24573     
   3682000   225.57634      127059.39     -46506.95      -52014.58       50.273091    
   3683000   227.95886      127365.95     -46511.897     -52077.698      50.313491    
   3684000   223.30213      127333.42     -46685.062     -52137.166      50.309207    
   3685000   223.61069      127610.26     -46570.696     -52030.333      50.34564     
   3686000   227.87952      127097.39     -46510.119     -52073.984      50.278102    
   3687000   224.61827      126859.56     -46609.484     -52093.722      50.246722    
   3688000   224.66872      126900.53     -46566.932     -52052.402      50.25213     
   3689000   224.52546      127177.23     -46545.953     -52027.926      50.288628    
   3690000   225.91076      127028.89     -46584.276     -52100.072      50.269068    
   3691000   227.22708      127162.62     -46493.615     -52041.55       50.286702    
   3692000   224.56381      126698.44     -46606.972     -52089.88       50.225441    
   3693000   224.24219      126968.03     -46598.879     -52073.935      50.261039    
   3694000   225.11333      126729.74     -46579.277     -52075.603      50.229576    
   3695000   224.54089      126770.11     -46674.95      -52157.299      50.234909    
   3696000   225.60077      126928.29     -46552.983     -52061.21       50.255794    
   3697000   226.27816      126633.43     -46620.871     -52145.636      50.216849    
   3698000   227.75603      126831.18     -46478.282     -52039.131      50.242975    
   3699000   227.77797      127327.6      -46627.594     -52188.979      50.30844     
   3700000   227.3582       127298.7      -46568.571     -52119.707      50.304633    
   3701000   228.08897      126477.52     -46441.219     -52010.198      50.196231    
   3702000   223.96231      126952.19     -46475.586     -51943.808      50.258949    
   3703000   225.05983      126497.44     -46594.745     -52089.764      50.198867    
   3704000   224.99594      127440.54     -46502.27      -51995.73       50.323311    
   3705000   226.59275      127119.76     -46485.321     -52017.767      50.281052    
   3706000   223.23795      127154.61     -46558.018     -52008.555      50.285646    
   3707000   221.5238       126991.92     -46618.587     -52027.271      50.26419     
   3708000   223.81478      126773.18     -46554.075     -52018.695      50.235315    
   3709000   223.92062      126912.37     -46603.176     -52070.38       50.253694    
   3710000   225.31448      127661.12     -46569.252     -52070.489      50.352328    
   3711000   227.27591      126994.28     -46393.739     -51942.866      50.264502    
   3712000   225.50257      127184.15     -46465.15      -51970.979      50.28954     
   3713000   222.02346      126838.92     -46559.301     -51980.185      50.243997    
   3714000   222.95798      126829.84     -46582.328     -52026.029      50.242798    
   3715000   224.5946       127015.36     -46512.416     -51996.076      50.267283    
   3716000   225.91782      126930.29     -46632.92      -52148.888      50.256059    
   3717000   225.79721      127325.86     -46434.237     -51947.26       50.308211    
   3718000   228.30412      127047.93     -46573.289     -52147.52       50.271579    
   3719000   223.73333      127376.14     -46594.055     -52056.686      50.314833    
   3720000   228.3961       127559.24     -46472.919     -52049.396      50.33893     
   3721000   227.02139      126755.38     -46541.252     -52084.164      50.232964    
   3722000   223.86181      126909.83     -46737.845     -52203.613      50.253358    
   3723000   225.25424      127097.77     -46609.453     -52109.219      50.278153    
   3724000   225.44742      126633.47     -46571.647     -52076.13       50.216854    
   3725000   225.91417      127239.94     -46659.813     -52175.691      50.296892    
   3726000   225.31695      126622.07     -46552.605     -52053.902      50.215347    
   3727000   223.45584      127049.1      -46720.725     -52176.581      50.271733    
   3728000   224.378        127150.86     -46576.988     -52055.36       50.285152    
   3729000   222.01543      126674.55     -46668.944     -52089.632      50.222283    
   3730000   226.40241      126972.62     -46605.043     -52132.843      50.261644    
   3731000   224.10308      126692.4      -46680.377     -52152.036      50.224643    
   3732000   226.66962      126514.49     -46642.556     -52176.88       50.201123    
   3733000   223.35121      126818.44     -46587.317     -52040.619      50.241292    
   3734000   224.86125      127023.68     -46699.149     -52189.32       50.268381    
   3735000   223.51223      126843.69     -46671.547     -52128.78       50.244626    
   3736000   227.00994      126689.65     -46592.494     -52135.127      50.22428     
   3737000   225.45704      126408.16     -46696.7       -52201.418      50.187055    
   3738000   221.37585      127361.08     -46778.06      -52183.131      50.312849    
   3739000   222.2087       126661.32     -46593.123     -52018.53       50.220535    
   3740000   227.78483      126570.69     -46641.763     -52203.315      50.208555    
   3741000   224.04538      126555.94     -46702.357     -52172.607      50.206603    
   3742000   220.82451      126621.83     -46561.652     -51953.262      50.215315    
   3743000   224.10442      126726.76     -46667.103     -52138.795      50.229182    
   3744000   224.72166      126571.21     -46653.953     -52140.716      50.208623    
   3745000   224.27317      126981.57     -46712.8       -52188.612      50.262825    
   3746000   227.56539      126644.7      -46502.857     -52059.051      50.218339    
   3747000   226.86867      126486.83     -46483.794     -52022.978      50.197463    
   3748000   223.27325      126780.57     -46634.562     -52085.961      50.23629     
   3749000   224.19024      126441.29     -46664.131     -52137.918      50.191438    
   3750000   224.55113      126806.85     -46576.123     -52058.722      50.239762    
   3751000   225.69084      126720.53     -46567.751     -52078.177      50.22836     
   3752000   227.51735      126270.45     -46563.977     -52118.999      50.168822    
   3753000   220.17416      126294.92     -46827.521     -52203.252      50.172063    
   3754000   224.95064      126236.4      -46616.159     -52108.512      50.164312    
   3755000   224.60564      126369.04     -46633.509     -52117.439      50.181876    
   3756000   224.41821      126339.89     -46507.344     -51986.698      50.178017    
   3757000   224.23141      126305.8      -46710.361     -52185.153      50.173503    
   3758000   227.6678       126437.11     -46402.052     -51960.747      50.190885    
   3759000   229.27082      125837.23     -46378.4       -51976.234      50.111382    
   3760000   223.25666      126090.49     -46596.212     -52047.205      50.144978    
   3761000   226.36441      126257.49     -46523.451     -52050.322      50.167106    
   3762000   225.77614      126257.81     -46573.964     -52086.472      50.167149    
   3763000   224.36287      126239.6      -46656.364     -52134.366      50.164737    
   3764000   225.2718       126197.26     -46550.886     -52051.081      50.159128    
   3765000   227.15913      125678.22     -46528.306     -52074.582      50.090266    
   3766000   225.653        126054.74     -46551.27      -52060.772      50.140238    
   3767000   228.29175      125745.15     -46484.583     -52058.512      50.099157    
   3768000   226.27292      126301.36     -46514.842     -52039.48       50.172916    
   3769000   225.30085      126253.42     -46501.276     -52002.18       50.166567    
   3770000   224.18767      125962.89     -46576.585     -52050.31       50.128057    
   3771000   224.01664      126549.59     -46659.779     -52129.328      50.205764    
   3772000   228.66248      126604.79     -46459.57      -52042.551      50.213063    
   3773000   226.75729      126567.72     -46547.451     -52083.915      50.208162    
   3774000   226.36841      126627.69     -46595.204     -52122.173      50.21609     
   3775000   224.52888      126520.04     -46625.001     -52107.057      50.201856    
   3776000   227.61145      126148.85     -46463.185     -52020.504      50.152713    
   3777000   223.21289      125739.12     -46638.673     -52088.597      50.098356    
   3778000   224.68482      126408.32     -46554.761     -52040.624      50.187075    
   3779000   222.1583       126064.23     -46528.571     -51952.747      50.141497    
   3780000   222.73264      125894.24     -46681.759     -52119.958      50.118948    
   3781000   225.94026      125393.11     -46554.341     -52070.857      50.05236     
   3782000   224.23039      125972.01     -46551.282     -52026.05       50.129266    
   3783000   227.31801      125987.02     -46529.838     -52079.993      50.131258    
   3784000   224.16904      126570.88     -46572.616     -52045.886      50.20858     
   3785000   229.19398      125677.04     -46318.116     -51914.074      50.09011     
   3786000   224.76355      125858.36     -46643.313     -52131.098      50.114187    
   3787000   224.22519      126563.92     -46622.342     -52096.982      50.20766     
   3788000   227.03983      126648.16     -46547.621     -52090.983      50.218796    
   3789000   221.97177      126187.5      -46774.647     -52194.269      50.157834    
   3790000   222.58908      126366.85     -46672.178     -52106.872      50.181587    
   3791000   229.61601      125862.31     -46409.27      -52015.532      50.114711    
   3792000   227.01126      126192.72     -46656.442     -52199.107      50.158526    
   3793000   228.03833      126037.89     -46378.958     -51946.7        50.138004    
   3794000   226.32471      126524.99     -46454.422     -51980.325      50.202511    
   3795000   225.93839      126404.56     -46592.868     -52109.338      50.186578    
   3796000   225.73324      126308.43     -46524.282     -52035.743      50.173852    
   3797000   224.68306      126392.22     -46585.594     -52071.414      50.184945    
   3798000   223.11937      126273.99     -46703.144     -52150.785      50.169292    
   3799000   227.25938      126458.59     -46496.405     -52045.128      50.193727    
   3800000   223.48478      126039.8      -46621.833     -52078.396      50.138257    
   3801000   224.37969      126389.23     -46555.307     -52033.72       50.184549    
   3802000   224.00382      125972.24     -46629.273     -52098.509      50.129297    
   3803000   225.70239      126005.06     -46601.726     -52112.434      50.13365     
   3804000   226.96575      126218.09     -46456.382     -51997.936      50.161888    
   3805000   226.56044      125862.09     -46537.42      -52069.078      50.114682    
   3806000   224.37584      126128.61     -46629.875     -52108.194      50.15003     
   3807000   223.93283      126163.37     -46545.929     -52013.432      50.154637    
   3808000   223.12816      126435.78     -46621.549     -52069.405      50.190709    
   3809000   227.80904      126628.69     -46415.566     -51977.71       50.216222    
   3810000   225.77599      126642.87     -46509.944     -52022.448      50.218097    
   3811000   227.61813      126231.29     -46688.732     -52246.214      50.163636    
   3812000   226.30726      125907.11     -46618.607     -52144.083      50.120656    
   3813000   222.98358      126319.45     -46552.568     -51996.894      50.175311    
   3814000   221.98057      126430.73     -46664.123     -52083.96       50.190041    
   3815000   225.46748      126565.16     -46701.912     -52206.884      50.207823    
   3816000   225.10453      125942.96     -46598.857     -52094.967      50.125413    
   3817000   225.50693      126756.33     -46542.1       -52048.036      50.233089    
   3818000   223.84283      126645.11     -46603.793     -52069.098      50.218392    
   3819000   225.32198      126532.66     -46575.893     -52077.313      50.203525    
   3820000   224.86846      126627.98     -46550.707     -52041.054      50.216129    
   3821000   223.17949      126208.05     -46604.888     -52053.997      50.160557    
   3822000   224.41776      126685.14     -46548.021     -52027.363      50.223683    
   3823000   225.07988      126656.73     -46496.73      -51992.238      50.219928    
   3824000   227.25938      126442.47     -46602.508     -52151.231      50.191595    
   3825000   224.45721      126236.82     -46577.25      -52057.556      50.164369    
   3826000   225.54948      126390.47     -46590.382     -52097.356      50.184712    
   3827000   223.83672      126222.23     -46757.797     -52222.953      50.162436    
   3828000   223.36176      126770.45     -46635.64      -52089.2        50.234954    
   3829000   223.32745      126171.82     -46633.847     -52086.569      50.155756    
   3830000   226.9441       126344.64     -46600.046     -52141.071      50.178646    
   3831000   222.78903      126242.67     -46773.108     -52212.684      50.165143    
   3832000   226.06359      126392.63     -46639.747     -52159.274      50.184999    
   3833000   225.3172       126028.94     -46572.628     -52073.931      50.136817    
   3834000   221.49291      126138.99     -46803.827     -52211.757      50.151406    
   3835000   227.46561      126271        -46525.766     -52079.524      50.168896    
   3836000   224.32843      126311.16     -46686.525     -52163.687      50.174213    
   3837000   225.51742      126068.72     -46592.117     -52098.308      50.142092    
   3838000   227.13486      126217.27     -46512.869     -52058.551      50.161779    
   3839000   220.5887       125784.35     -46681.718     -52067.57       50.104362    
   3840000   221.75182      126471.6      -46618.499     -52032.75       50.195448    
   3841000   222.61763      126175.23     -46645.376     -52080.766      50.156209    
   3842000   226.28258      126191.84     -46617.161     -52142.035      50.158409    
   3843000   222.24736      126189.41     -46802.213     -52228.563      50.158088    
   3844000   224.63284      126549.6      -46566.809     -52051.403      50.205765    
   3845000   225.21103      126315.25     -46610.155     -52108.866      50.174755    
   3846000   224.88431      126219.94     -46567.848     -52058.582      50.162133    
   3847000   226.43555      126597.17     -46583.606     -52112.214      50.212056    
   3848000   222.75779      126469.19     -46652.317     -52091.13       50.195129    
   3849000   225.1805       126271.16     -46543.474     -52041.439      50.168916    
   3850000   224.50927      126301.47     -46671.699     -52153.276      50.17293     
   3851000   222.32409      126233.32     -46773.625     -52201.849      50.163905    
   3852000   223.9101       125934.59     -46620.257     -52087.205      50.124303    
   3853000   226.88986      126099.16     -46500.419     -52040.12       50.146127    
   3854000   223.25659      125881.27     -46667.493     -52118.485      50.117228    
   3855000   230.83641      125928.13     -46579.214     -52215.274      50.123445    
   3856000   222.57596      126087.45     -46669.63      -52104.004      50.144575    
   3857000   224.28551      126190.7      -46656.154     -52132.267      50.158258    
   3858000   225.73713      126149.03     -46576.309     -52087.865      50.152737    
   3859000   227.3702       126178.1      -46667.242     -52218.67       50.156589    
   3860000   225.9553       126114.45     -46599.492     -52116.375      50.148154    
   3861000   223.21785      126410.42     -46802.713     -52252.759      50.187353    
   3862000   221.55432      125990.21     -46686.812     -52096.241      50.13168     
   3863000   225.11764      126203.01     -46592.258     -52088.688      50.159889    
   3864000   223.46791      126633.45     -46707.754     -52163.905      50.216851    
   3865000   225.0508       125936.88     -46640.913     -52135.712      50.124607    
   3866000   226.76958      125903.52     -46646.514     -52183.278      50.12018     
   3867000   226.59991      126351.04     -46615.091     -52147.712      50.179493    
   3868000   228.87202      126189.54     -46563.51      -52151.607      50.158104    
   3869000   223.69858      126994.42     -46750.821     -52212.604      50.264521    
   3870000   223.61857      126501.41     -46704.355     -52164.184      50.199392    
   3871000   227.27395      126388.96     -46517.74      -52066.819      50.184513    
   3872000   225.54232      126990.5      -46549.076     -52055.876      50.264003    
   3873000   227.0254       126287.72     -46673.472     -52216.482      50.17111     
   3874000   224.82715      126532.74     -46603.722     -52093.06       50.203536    
   3875000   226.65005      125939.76     -46547.829     -52081.675      50.124989    
   3876000   223.3146       126534.44     -46720.823     -52173.231      50.203761    
   3877000   226.21045      126353.8      -46563.388     -52086.501      50.179858    
   3878000   225.69011      125955.96     -46578.551     -52088.959      50.127137    
   3879000   223.56028      126099.22     -46474.745     -51933.151      50.146135    
   3880000   224.33501      125927.86     -46647.742     -52125.064      50.12341     
   3881000   224.22616      126513.69     -46583.604     -52058.269      50.201016    
   3882000   223.21433      126656.48     -46689.892     -52139.852      50.219895    
   3883000   227.41702      126326.93     -46585.587     -52138.159      50.176302    
   3884000   225.04336      126854.54     -46643.563     -52138.18       50.246059    
   3885000   225.99692      126436.82     -46700.921     -52218.82       50.190846    
   3886000   224.49443      126117.78     -46545.824     -52027.038      50.148596    
   3887000   224.26419      126837.38     -46641.295     -52116.888      50.243794    
   3888000   224.38673      126572.55     -46688.051     -52166.636      50.2088      
   3889000   225.49229      126546.3      -46587.505     -52093.084      50.205329    
   3890000   226.32975      126771.28     -46527.484     -52053.509      50.235064    
   3891000   225.61715      126808.94     -46566.232     -52074.858      50.240037    
   3892000   225.85525      126983.85     -46634.835     -52149.275      50.263126    
   3893000   222.0838       126613.79     -46720.871     -52143.228      50.214252    
   3894000   227.11982      126733.71     -46626.218     -52171.534      50.230101    
   3895000   228.01841      126483.46     -46509.132     -52076.388      50.197018    
   3896000   227.78099      126757.96     -46571.448     -52132.906      50.233305    
   3897000   223.86314      126222.65     -46827.616     -52293.417      50.162492    
   3898000   224.07333      126797.16     -46675.018     -52145.951      50.238482    
   3899000   228.16077      126690        -46533.655     -52104.386      50.224325    
   3900000   225.86946      126793.67     -46618.783     -52133.57       50.238021    
   3901000   224.78405      126283.03     -46621.951     -52110.237      50.170489    
   3902000   219.38123      126731.82     -46704.153     -52060.525      50.229851    
   3903000   225.63958      126951.29     -46641.369     -52150.543      50.25883     
   3904000   225.74113      126416.71     -46597.76      -52109.414      50.188186    
   3905000   226.04555      126435.03     -46590.999     -52110.085      50.19061     
   3906000   224.36182      126491.91     -46581.549     -52059.526      50.198135    
   3907000   224.59906      126433.42     -46507.314     -51991.083      50.190397    
   3908000   229.10111      126958.35     -46334.729     -51928.419      50.259761    
   3909000   226.60068      126429.16     -46472.905     -52005.546      50.189832    
   3910000   226.03093      126368.19     -46453.436     -51972.165      50.181764    
   3911000   224.15879      126843.63     -46658.127     -52131.146      50.244619    
   3912000   224.34251      126495.26     -46524.43      -52001.936      50.198578    
   3913000   224.93958      126333.96     -46568.746     -52060.829      50.177232    
   3914000   224.41122      127078.96     -46474.535     -51953.718      50.275672    
   3915000   219.48602      125998.7      -46778.448     -52137.379      50.132807    
   3916000   222.5925       126362.91     -46591.804     -52026.582      50.181065    
   3917000   221.09224      126508.01     -46709.925     -52108.072      50.200265    
   3918000   225.61566      126712.51     -46520.991     -52029.581      50.227299    
   3919000   223.23344      126576.67     -46633.858     -52084.284      50.209345    
   3920000   227.46909      126530.38     -46473.216     -52027.059      50.203224    
   3921000   224.83627      126518        -46603.108     -52092.669      50.201587    
   3922000   222.88234      126856.64     -46758.514     -52200.368      50.246336    
   3923000   224.77265      126527.64     -46464.802     -51952.81       50.202861    
   3924000   220.22458      126859.55     -46677.518     -52054.48       50.24672     
   3925000   224.67664      126161.31     -46631.957     -52117.621      50.154365    
   3926000   226.80514      126414.56     -46460.237     -51997.87       50.187901    
   3927000   224.23178      126576.26     -46562.582     -52037.384      50.20929     
   3928000   224.13078      125916.21     -46596.1       -52068.436      50.121863    
   3929000   222.85765      126307.05     -46431.323     -51872.574      50.173669    
   3930000   226.58999      126726.67     -46493.434     -52025.814      50.22917     
   3931000   225.5843       125917.71     -46640.47      -52148.294      50.122064    
   3932000   226.34441      125881.16     -46587.145     -52113.529      50.117213    
   3933000   224.2331       126736.99     -46626.894     -52101.728      50.230534    
   3934000   226.24655      126313.28     -46604.017     -52128.011      50.174495    
   3935000   227.72497      126365.15     -46617.596     -52177.687      50.181361    
   3936000   225.99183      126734.41     -46691.495     -52209.269      50.230194    
   3937000   224.65473      126613.62     -46538.147     -52023.275      50.21423     
   3938000   229.52118      126758.66     -46378.607     -51982.554      50.233397    
   3939000   225.35228      126999.68     -46579.869     -52082.028      50.265215    
   3940000   225.05834      126216.64     -46707.274     -52202.257      50.161696    
   3941000   225.20535      126393.95     -46670.794     -52169.366      50.185174    
   3942000   220.64591      126806.37     -46671.146     -52058.396      50.239698    
   3943000   226.51479      126342.54     -46644.818     -52175.361      50.178368    
   3944000   228.61036      125976.62     -46602.033     -52183.741      50.129878    
   3945000   223.88136      126074.45     -46658.522     -52124.768      50.142852    
   3946000   226.86095      125813.14     -46537.861     -52076.856      50.108185    
   3947000   223.10265      126529.16     -46545.423     -51992.656      50.203063    
   3948000   224.80339      126558.36     -46722.516     -52211.274      50.206924    
   3949000   227.53188      126560.94     -46505.281     -52060.657      50.207265    
   3950000   224.42721      126665.3      -46601.795     -52081.368      50.221061    
   3951000   226.07814      126594.76     -46472.738     -51992.62       50.211737    
   3952000   222.72071      127110.3      -46669.825     -52107.733      50.279805    
   3953000   227.2928       126930.43     -46530.494     -52080.033      50.256077    
   3954000   226.1333       126754.6      -46510.798     -52032.027      50.232861    
   3955000   226.8395       126609.89     -46492.672     -52031.143      50.213738    
   3956000   225.18155      126608.32     -46654.706     -52152.697      50.21353     
   3957000   227.65644      126487.13     -46528.026     -52086.444      50.197503    
   3958000   227.4146       126621.68     -46461.967     -52014.48       50.215295    
   3959000   222.55176      126560.87     -46579.642     -52013.425      50.207256    
   3960000   225.61082      127125.25     -46569.552     -52078.024      50.281775    
   3961000   221.71685      126382.97     -46657.021     -52070.418      50.18372     
   3962000   225.6869       126318.76     -46543.32      -52053.65       50.17522     
   3963000   224.59734      126223.62     -46567.684     -52051.411      50.16262     
   3964000   227.15589      126649.28     -46502.462     -52048.658      50.218944    
   3965000   222.32852      126670.41     -46696.317     -52124.649      50.221736    
   3966000   225.97498      125918.3      -46542.617     -52059.98       50.122142    
   3967000   224.76813      126025.38     -46697.357     -52185.254      50.136345    
   3968000   225.14361      126392.79     -46515.425     -52012.49       50.18502     
   3969000   223.65808      126218.18     -46518.667     -51979.461      50.161899    
   3970000   224.9384       126184.54     -46462.992     -51955.046      50.157443    
   3971000   223.18682      126348.32     -46513.282     -51962.57       50.179133    
   3972000   222.8247       126103.76     -46627.642     -52068.089      50.146737    
   3973000   227.29519      126500.41     -46452.687     -52002.284      50.19926     
   3974000   222.89548      126430.85     -46634.285     -52076.46       50.190056    
   3975000   227.11089      126495.36     -46440.756     -51985.854      50.198591    
   3976000   224.03237      126331.27     -46472.166     -51942.099      50.176876    
   3977000   224.47128      126618.24     -46463.616     -51944.265      50.214841    
   3978000   226.06773      126127.16     -46360.169     -51879.797      50.149839    
   3979000   227.3725       126376.52     -46503.251     -52054.736      50.182867    
   3980000   226.32932      126164.68     -46593.871     -52119.886      50.154811    
   3981000   227.50327      126530.92     -46430.495     -51985.173      50.203294    
   3982000   222.44066      126316.01     -46628.335     -52059.405      50.174855    
   3983000   221.98498      126542.09     -46603.389     -52023.333      50.204772    
   3984000   224.94515      126510.63     -46431.338     -51923.557      50.200612    
   3985000   223.1055       126077.41     -46479.539     -51926.842      50.143243    
   3986000   226.28115      126523.99     -46561.155     -52085.994      50.202378    
   3987000   229.86037      126621.09     -46332.753     -51944.981      50.215217    
   3988000   225.30897      126255.74     -46460.397     -51961.499      50.166875    
   3989000   223.62974      126490.35     -46601.566     -52061.669      50.197929    
   3990000   225.14277      126591.43     -46468.157     -51965.201      50.211297    
   3991000   224.12683      126138.78     -46507.947     -51980.186      50.151379    
   3992000   227.46703      126543.25     -46309.874     -51863.667      50.204926    
   3993000   224.17366      126452.03     -46550.912     -52024.295      50.19286     
   3994000   222.36044      126844.76     -46541.444     -51970.555      50.244768    
   3995000   223.40914      126907.46     -46583.805     -52038.521      50.253045    
   3996000   220.00225      126851.06     -46536.89      -51908.424      50.2456      
   3997000   223.30966      126539.86     -46453.533     -51905.821      50.204477    
   3998000   225.00286      126683.66     -46499.623     -51993.251      50.223488    
   3999000   225.36352      126436.57     -46451.622     -51954.056      50.190814    
   4000000   226.09047      127024.54     -46448.136     -51968.319      50.268494    
   4001000   224.88144      126451.73     -46501.456     -51992.119      50.192819    
   4002000   222.01332      126615.48     -46553.352     -51973.988      50.214477    
   4003000   223.55509      126971.5      -46431.765     -51890.045      50.261497    
   4004000   224.06144      126977.92     -46561.405     -52032.048      50.262343    
   4005000   227.16959      126620.82     -46458.004     -52004.535      50.215181    
   4006000   226.88691      126720.47     -46492.658     -52032.286      50.228351    
   4007000   224.4901       126891.65     -46558.886     -52039.995      50.250958    
   4008000   227.35998      126936        -46559.671     -52110.851      50.256812    
   4009000   225.54516      127359.16     -46440.039     -51946.909      50.312596    
   4010000   220.46081      126337.25     -46562.561     -51945.291      50.177668    
   4011000   222.71271      126861.33     -46511.705     -51949.417      50.246956    
   4012000   221.62983      126453.88     -46568.99      -51980.263      50.193104    
   4013000   225.79602      127235.33     -46425.351     -51938.345      50.296285    
   4014000   225.35789      126901.5      -46408.535     -51910.832      50.252259    
   4015000   221.00517      126883.68     -46645.748     -52041.769      50.249906    
   4016000   224.55384      126638.67     -46571.815     -52054.48       50.217541    
   4017000   227.65532      126945.28     -46434.423     -51992.813      50.258037    
   4018000   224.60283      126455.51     -46354.839     -51838.7        50.19332     
   4019000   225.26156      126815.05     -46476.221     -51976.165      50.240845    
   4020000   224.3677       126756.9      -46413.004     -51891.124      50.233165    
   4021000   225.87344      127027.88     -46456.411     -51971.295      50.268935    
   4022000   224.78763      126877.03     -46446.422     -51934.795      50.249028    
   4023000   224.69666      126801.65     -46454.645     -51940.797      50.239075    
   4024000   222.50443      126546.59     -46351.58      -51784.207      50.205367    
   4025000   224.67143      126604.03     -46472.835     -51958.371      50.212962    
   4026000   224.8868       126631.76     -46415.852     -51906.647      50.216628    
   4027000   226.2815       127234.09     -46481.92      -52006.767      50.296121    
   4028000   221.80517      126999.19     -46570.986     -51986.54       50.26515     
   4029000   227.97922      126765.48     -46390.789     -51957.087      50.234297    
   4030000   222.8749       127024.43     -46537.579     -51979.252      50.268479    
   4031000   225.23937      126740.92     -46485.193     -51984.596      50.231053    
   4032000   224.42802      126647.98     -46440.596     -51920.189      50.218772    
   4033000   222.88047      126496.1      -46518.515     -51960.323      50.19869     
   4034000   226.45332      126795.88     -46380.261     -51909.303      50.238314    
   4035000   224.74113      126991.54     -46417.006     -51904.244      50.26414     
   4036000   228.052        126643.39     -46434.692     -52002.767      50.218165    
   4037000   225.43717      126922.24     -46490.873     -51995.106      50.254996    
   4038000   228.17306      126616.7      -46381.997     -51953.028      50.214637    
   4039000   221.3389       126580.21     -46505.983     -51910.153      50.209813    
   4040000   225.41857      127304.07     -46451.4       -51955.178      50.305341    
   4041000   222.25389      126937.16     -46455.932     -51882.442      50.256966    
   4042000   227.49478      126478.53     -46379.99      -51934.461      50.196365    
   4043000   224.53789      126763.36     -46498.912     -51981.188      50.234017    
   4044000   224.61631      126621.88     -46509.355     -51993.545      50.215322    
   4045000   226.94701      126707.59     -46482.457     -52023.554      50.22665     
   4046000   222.83643      126469.25     -46505.594     -51946.327      50.195137    
   4047000   223.8632       126967.46     -46475.87      -51941.673      50.260964    
   4048000   226.29215      126306.45     -46464.971     -51990.079      50.17359     
   4049000   221.96321      126674.48     -46661.259     -52080.671      50.222275    
   4050000   226.42959      126046.3      -46532.961     -52061.424      50.139119    
   4051000   225.26235      126714.29     -46516.459     -52016.423      50.227535    
   4052000   226.26367      126734.09     -46441.592     -51966.004      50.230151    
   4053000   228.4514       126629.97     -46612.46      -52190.287      50.216392    
   4054000   227.00934      126467.49     -46506.151     -52048.769      50.194904    
   4055000   226.637        126455.18     -46455.273     -51988.8        50.193276    
   4056000   226.86416      126863.02     -46492.283     -52031.356      50.247179    
   4057000   224.41441      126408.41     -46622.817     -52102.078      50.187087    
   4058000   223.66013      126790.47     -46629.285     -52090.13       50.237599    
   4059000   227.40109      126767.32     -46532.31      -52084.493      50.23454     
   4060000   224.24721      126906        -46623.613     -52098.791      50.252853    
   4061000   222.71728      127076.47     -46587.698     -52025.522      50.275343    
   4062000   223.98048      126525.82     -46714.437     -52183.103      50.20262     
   4063000   226.70452      126926.1      -46483.232     -52018.407      50.255505    
   4064000   225.62148      126705.08     -46617.427     -52126.159      50.226318    
   4065000   224.95574      126277.28     -46557.818     -52050.296      50.169728    
   4066000   224.24345      126713        -46616.581     -52091.667      50.227365    
   4067000   224.51201      126429.13     -46643.264     -52124.908      50.189829    
   4068000   225.24918      126432.07     -46559.24      -52058.882      50.190218    
   4069000   225.96237      126838.12     -46431.412     -51948.467      50.243892    
   4070000   222.18625      126770.19     -46546.75      -51971.608      50.234919    
   4071000   223.3298       126680.14     -46562.761     -52015.54       50.223022    
   4072000   222.22299      126816.54     -46497.454     -51923.209      50.241041    
   4073000   224.96149      126868.61     -46564.819     -52057.438      50.247917    
   4074000   227.46491      127117.75     -46634.397     -52188.138      50.280787    
   4075000   221.93578      126599.29     -46717.18      -52135.923      50.212335    
   4076000   225.02963      126687.24     -46589.41      -52083.692      50.22396     
   4077000   223.26851      127039.15     -46651.093     -52102.375      50.270421    
   4078000   222.72659      126885.83     -46663.828     -52101.88       50.25019     
   4079000   227.86203      126796.27     -46590.121     -52153.558      50.238365    
   4080000   226.00727      126667.94     -46753.105     -52271.257      50.221411    
   4081000   224.73894      127282.87     -46612.926     -52100.11       50.302548    
   4082000   222.99697      127372.2      -46699.294     -52143.947      50.314314    
   4083000   223.77795      127289.12     -46596.004     -52059.725      50.303371    
   4084000   228.55532      126674.86     -46574.129     -52154.493      50.222325    
   4085000   224.61213      127112.92     -46476.529     -51960.617      50.280151    
   4086000   227.89238      126649.59     -46617.925     -52182.103      50.218985    
   4087000   220.40117      126804.67     -46756.284     -52137.558      50.239473    
   4088000   226.19003      127317.01     -46474.356     -51996.969      50.307045    
   4089000   223.65019      126569.14     -46602.162     -52062.764      50.208349    
   4090000   220.61489      126477.66     -46696.289     -52082.782      50.196251    
   4091000   225.55187      126960.1      -46575.247     -52082.28       50.259993    
   4092000   225.20828      126711.72     -46581.226     -52079.869      50.227196    
   4093000   224.59195      126802.94     -46581.105     -52064.7        50.239246    
   4094000   226.97964      126742.22     -46507.338     -52049.231      50.231225    
   4095000   227.56491      126535.96     -46446.547     -52002.729      50.203961    
   4096000   222.54118      126280.86     -46635.081     -52068.605      50.170201    
   4097000   226.56362      126562.5      -46541.612     -52073.348      50.207471    
   4098000   222.93157      126419.19     -46627.58      -52070.636      50.188514    
   4099000   225.42226      126661.45     -46629.059     -52132.927      50.220552    
   4100000   224.65         126450.11     -46527.657     -52012.67       50.192605    
   4101000   221.41549      126802.37     -46551.748     -51957.788      50.23917     
   4102000   225.99565      126742.38     -46485.667     -52003.535      50.231246    
   4103000   226.31793      126682.18     -46387.273     -51913.01       50.223293    
   4104000   230.17811      126590.4      -46430.15      -52050.136      50.21116     
   4105000   225.30993      126583.51     -46543.31      -52044.435      50.21025     
   4106000   223.2377       126952.18     -46498.572     -51949.102      50.258948    
   4107000   223.50086      126585.93     -46558.821     -52015.777      50.210569    
   4108000   225.80937      126432.89     -46475.851     -51989.171      50.190327    
   4109000   223.93737      126702.79     -46496.393     -51964.006      50.226015    
   4110000   223.45257      126783.67     -46425.863     -51881.64       50.236701    
   4111000   224.27653      126736.59     -46522.681     -51998.575      50.230481    
   4112000   224.28744      126793.25     -46546.35      -52022.511      50.237966    
   4113000   223.96433      126697.04     -46499.624     -51967.896      50.225256    
   4114000   226.81722      127366.27     -46460.581     -51998.508      50.313533    
   4115000   226.94398      127059.91     -46469.732     -52010.754      50.27316     
   4116000   222.86544      126857.86     -46498.707     -51940.148      50.246498    
   4117000   227.5991       126646.18     -46497.806     -52054.824      50.218535    
   4118000   223.05874      126384.99     -46569.534     -52015.695      50.183988    
   4119000   221.58043      126348.77     -46756.077     -52166.144      50.179193    
   4120000   225.51749      126558.11     -46475.001     -51981.195      50.206891    
   4121000   224.95884      126703.7      -46439.544     -51932.097      50.226136    
   4122000   222.84409      126478.27     -46587.272     -52028.192      50.196331    
   4123000   224.48167      126800.03     -46524.576     -52005.479      50.238862    
   4124000   224.46521      127110.4      -46537.445     -52017.946      50.279818    
   4125000   222.4287       126225.32     -46632.759     -52063.537      50.162845    
   4126000   225.87974      126677.06     -46435.519     -51950.557      50.222615    
   4127000   227.78068      126071.82     -46555.145     -52116.596      50.142503    
   4128000   226.99605      126645.07     -46607.141     -52149.434      50.218387    
   4129000   225.1794       126712.48     -46552.511     -52050.45       50.227296    
   4130000   223.33576      126068.64     -46603.839     -52056.763      50.142081    
   4131000   229.64369      126117.09     -46453.34      -52060.277      50.148504    
   4132000   223.89598      126293.66     -46569.009     -52035.612      50.171896    
   4133000   221.84349      126674.97     -46714.459     -52130.949      50.222339    
   4134000   226.64091      126410.3      -46441.917     -51975.54       50.187337    
   4135000   222.97559      126247.05     -46637.95      -52082.081      50.165723    
   4136000   230.12162      126460.49     -46410.481     -52029.088      50.193979    
   4137000   225.97752      126386.01     -46545.768     -52063.194      50.184123    
   4138000   222.97908      126950.03     -46594.61      -52038.826      50.258663    
   4139000   226.68096      126993.85     -46543.637     -52078.237      50.264445    
   4140000   224.82494      126460.12     -46503.454     -51992.738      50.19393     
   4141000   222.6554       126350.06     -46637.392     -52073.705      50.179364    
   4142000   227.47728      126463.19     -46464.46      -52018.504      50.194336    
   4143000   222.17528      126478.22     -46619.316     -52043.907      50.196325    
   4144000   225.35108      126357.85     -46579.175     -52081.305      50.180395    
   4145000   225.31146      126621.84     -46529.296     -52030.459      50.215317    
   4146000   222.83323      126284.88     -46526.839     -51967.494      50.170734    
   4147000   222.62139      126764.68     -46529.666     -51965.148      50.234193    
   4148000   221.92001      126626.71     -46597.159     -52015.517      50.215961    
   4149000   224.01218      125975        -46581.874     -52051.313      50.129664    
   4150000   222.06321      126080.62     -46518.22      -51940.074      50.14367     
   4151000   223.6857       126023.62     -46528.973     -51990.441      50.136112    
   4152000   228.03384      126274.46     -46420.732     -51988.364      50.169354    
   4153000   224.58601      126298.75     -46546.96      -52030.411      50.17257     
   4154000   225.96841      126578.88     -46625.021     -52142.224      50.209637    
   4155000   227.20068      126379.51     -46492.048     -52039.338      50.183263    
   4156000   225.99422      126268.15     -46525.697     -52043.53       50.168518    
   4157000   227.03211      126195.51     -46582.01      -52125.184      50.158896    
   4158000   227.56728      126589.51     -46505.992     -52062.233      50.211043    
   4159000   220.39003      125898.07     -46645.786     -52026.788      50.119456    
   4160000   222.70191      126301.47     -46628.409     -52065.858      50.17293     
   4161000   226.76221      126109.57     -46544.149     -52080.733      50.147508    
   4162000   225.16419      125870.62     -46530.283     -52027.85       50.115815    
   4163000   220.81508      126235.82     -46650.245     -52041.625      50.164236    
   4164000   224.70692      126782.67     -46603.574     -52089.976      50.236568    
   4165000   225.52653      126678.85     -46575.823     -52082.237      50.222851    
   4166000   222.97985      126080.6      -46646.524     -52090.759      50.143667    
   4167000   223.34081      126770.41     -46690.826     -52143.874      50.234949    
   4168000   226.10371      126700.58     -46589.871     -52110.377      50.225723    
   4169000   226.45575      126772.44     -46621.025     -52150.127      50.235217    
   4170000   219.80385      126377.14     -46563.354     -51930.044      50.182949    
   4171000   225.11084      126486        -46554.688     -52050.952      50.197353    
   4172000   226.18981      126401.01     -46553.59      -52076.198      50.186108    
   4173000   220.08328      126796.24     -46772.989     -52146.502      50.238361    
   4174000   227.59755      126016.27     -46595.524     -52152.503      50.135138    
   4175000   222.00842      126069.38     -46749.285     -52169.802      50.142179    
   4176000   226.86229      126424.42     -46588.322     -52127.35       50.189205    
   4177000   224.30737      126012.52     -46545.918     -52022.565      50.134639    
   4178000   224.44674      126749.54     -46631.314     -52111.364      50.232192    
   4179000   223.27409      126456.63     -46628.907     -52080.326      50.193468    
   4180000   225.25699      126378.91     -46715.409     -52215.242      50.183183    
   4181000   223.31734      126368.9      -46600.02      -52052.495      50.181857    
   4182000   225.71476      126540.67     -46573.887     -52084.897      50.204584    
   4183000   222.48002      126372.27     -46584.2       -52016.231      50.182304    
   4184000   222.13745      126528.07     -46662.812     -52086.479      50.202918    
   4185000   226.33476      126698.4      -46484.591     -52010.738      50.225435    
   4186000   221.78041      126329.9      -46788.669     -52203.618      50.176695    
   4187000   226.50518      126040.09     -46606.65      -52136.959      50.138296    
   4188000   221.95401      126032.98     -46708.571     -52127.759      50.137353    
   4189000   227.07971      126358.79     -46463.416     -52007.752      50.18052     
   4190000   225.30702      125990.51     -46491.443     -51992.497      50.13172     
   4191000   228.13168      126325.02     -46519.762     -52089.783      50.176049    
   4192000   227.06563      126909.52     -46533.756     -52077.749      50.253317    
   4193000   226.99925      126869.45     -46488.444     -52030.816      50.248028    
   4194000   227.20366      126577.8      -46514.06      -52061.423      50.209494    
   4195000   227.83302      126359.55     -46457.517     -52020.245      50.180621    
   4196000   226.451        126463.23     -46544.866     -52073.852      50.194341    
   4197000   223.3664       126861.87     -46472.415     -51926.087      50.247027    
   4198000   226.56667      126291.68     -46651.626     -52183.436      50.171634    
   4199000   224.7398       126907.25     -46605.31      -52092.515      50.253018    
   4200000   226.00074      126539.02     -46619.317     -52137.309      50.204367    
   4201000   225.24747      126258.23     -46636.045     -52135.645      50.167204    
   4202000   224.4004       126521.33     -46591.868     -52070.787      50.202027    
   4203000   223.25142      126415.57     -46453.798     -51904.664      50.188034    
   4204000   226.84495      126861.93     -46490.686     -52029.29       50.247035    
   4205000   224.98465      126835.1      -46496.742     -51989.926      50.243492    
   4206000   226.11392      126750.51     -46313.294     -51834.05       50.23232     
   4207000   222.41502      126446.97     -46675.278     -52105.722      50.19219     
   4208000   226.59658      127034.24     -46534.534     -52067.074      50.269774    
   4209000   223.69718      126786.28     -46579.161     -52040.91       50.237045    
   4210000   225.49329      126987.81     -46433.575     -51939.178      50.263648    
   4211000   223.85385      126579.56     -46359.944     -51825.518      50.209727    
   4212000   228.07543      126513.96     -46495.551     -52064.199      50.201052    
   4213000   224.4135       126406.58     -46473.945     -51953.184      50.186845    
   4214000   225.1995       126762.77     -46408.806     -51907.236      50.23394     
   4215000   223.71015      125684.6      -46635.671     -52097.736      50.091114    
   4216000   220.90343      126899.24     -46600.275     -51993.812      50.25196     
   4217000   227.60741      126610.53     -46512.075     -52069.295      50.213821    
   4218000   223.47162      126467.46     -46596.196     -52052.438      50.194901    
   4219000   227.49013      126484.88     -46513.786     -52068.143      50.197206    
   4220000   222.57525      126512.57     -46523.541     -51957.897      50.200868    
   4221000   224.0795       126389.21     -46518.657     -51989.741      50.184547    
   4222000   223.71262      126454.94     -46492.89      -51955.016      50.193244    
   4223000   225.47028      126366.04     -46589.544     -52094.584      50.181479    
   4224000   226.61979      126524.28     -46492.781     -52025.888      50.202417    
   4225000   229.03039      126878.83     -46409.992     -52001.955      50.249266    
   4226000   223.69092      126688.64     -46597.155     -52058.751      50.224146    
   4227000   225.48463      127117.48     -46509.785     -52015.177      50.280752    
   4228000   224.29698      126957.27     -46580.297     -52056.69       50.259619    
   4229000   223.23622      126707.57     -46686.86      -52137.355      50.226648    
   4230000   224.5016       126773.54     -46496.832     -51978.221      50.235362    
   4231000   226.75488      126433.27     -46584.391     -52120.796      50.190377    
   4232000   226.99695      126706.86     -46475.758     -52018.073      50.226553    
   4233000   227.06075      127046.25     -46508.264     -52052.137      50.271358    
   4234000   224.76362      126675.76     -46597.737     -52085.523      50.222443    
   4235000   225.56444      126880.49     -46571.782     -52079.121      50.249485    
   4236000   228.76327      127189.74     -46538.66      -52124.102      50.290277    
   4237000   223.07487      126836.11     -46537.422     -51983.977      50.243626    
   4238000   222.43917      126951.28     -46705.332     -52136.366      50.258829    
   4239000   226.90583      126646.97     -46458.204     -51998.295      50.218639    
   4240000   226.31235      127165.92     -46599.934     -52125.534      50.287137    
   4241000   224.81257      127548.51     -46553.63      -52042.612      50.337518    
   4242000   225.80997      126929.16     -46491.762     -52005.096      50.255909    
   4243000   223.34567      126832.68     -46598.024     -52051.19       50.243173    
   4244000   225.15807      126309.72     -46523.225     -52020.643      50.174024    
   4245000   226.09215      126450.45     -46472.369     -51992.593      50.19265     
   4246000   226.23819      126303.04     -46460.286     -51984.076      50.173138    
   4247000   226.66939      126320.73     -46513.695     -52048.013      50.17548     
   4248000   227.57789      126327.07     -46515.8       -52072.3        50.17632     
   4249000   225.96849      126883.27     -46567.111     -52084.316      50.249851    
   4250000   224.24166      126484.31     -46558.438     -52033.481      50.197129    
   4251000   226.70759      126489.81     -46475.215     -52010.466      50.197858    
   4252000   223.99124      126702.75     -46589.891     -52058.82       50.22601     
   4253000   228.06313      126967.99     -46371.776     -51940.123      50.261033    
   4254000   228.09708      127059.81     -46458.054     -52027.231      50.273146    
   4255000   221.85446      126896.14     -46573.25      -51990.007      50.251551    
   4256000   222.2879       126578.89     -46681.461     -52108.802      50.209639    
   4257000   224.03328      125832.35     -46704.534     -52174.489      50.110735    
   4258000   228.11057      126599.7      -46505.694     -52075.2        50.212389    
   4259000   222.10366      126363.18     -46711.049     -52133.891      50.181101    
   4260000   223.37895      126978.99     -46575.226     -52029.205      50.262485    
   4261000   224.35401      126011.79     -46584.66      -52062.445      50.134543    
   4262000   230.01324      126302.26     -46451.58      -52067.541      50.173036    
   4263000   226.54133      126533.87     -46515.973     -52047.165      50.203685    
   4264000   224.3275       126519.2      -46588.561     -52065.7        50.201745    
   4265000   225.6683       126469.56     -46512.306     -52022.181      50.195179    
   4266000   223.89898      126697.83     -46641.274     -52107.95       50.22536     
   4267000   222.27223      126541.32     -46621.942     -52048.9        50.20467     
   4268000   221.88792      126024.12     -46697.667     -52115.241      50.136178    
   4269000   225.9734       126732.45     -46513.744     -52031.069      50.229935    
   4270000   223.73061      126780.41     -46447.753     -51910.318      50.23627     
   4271000   225.53527      126255.52     -46544.473     -52051.101      50.166846    
   4272000   219.18941      126313.64     -46769.406     -52121.094      50.174542    
   4273000   225.57124      126291.03     -46474.89      -51982.395      50.171547    
   4274000   222.3884       126480.96     -46704.653     -52134.447      50.196686    
   4275000   223.51448      126271.49     -46652.584     -52109.872      50.16896     
   4276000   227.15197      126108.36     -46452.354     -51998.454      50.147347    
   4277000   223.96467      126182.79     -46707.438     -52175.718      50.15721     
   4278000   225.46903      126124.04     -46529.353     -52034.363      50.149425    
   4279000   222.39922      126327.59     -46767.731     -52197.789      50.176389    
   4280000   225.15753      126532.3      -46502.664     -52000.069      50.203477    
   4281000   222.80803      126090.11     -46569.446     -52009.485      50.144928    
   4282000   222.83156      125658.26     -46687.221     -52127.835      50.087615    
   4283000   225.00838      126007.3      -46502.581     -51996.344      50.133947    
   4284000   226.81365      126090.54     -46500.369     -52038.209      50.144984    
   4285000   228.53609      126322.29     -46506.363     -52086.258      50.175687    
   4286000   227.21459      126130.6      -46439.568     -51987.197      50.150294    
   4287000   219.79874      126211.03     -46607.341     -51973.906      50.160952    
   4288000   222.21611      125960.28     -46459.77      -51885.358      50.127711    
   4289000   224.80173      125855.87     -46506.903     -51995.62       50.113857    
   4290000   226.87077      126086.31     -46545.812     -52085.047      50.144423    
   4291000   227.4167       125997.2      -46328.743     -51881.307      50.132608    
   4292000   223.1189       125693.56     -46551.975     -51999.605      50.092304    
   4293000   221.21173      125977.39     -46560.942     -51962.006      50.129981    
   4294000   224.31509      126048.44     -46474.91      -51951.746      50.139403    
   4295000   224.08601      126657.54     -46434.24      -51905.483      50.220036    
   4296000   223.82246      126331.51     -46607.846     -52072.654      50.176909    
   4297000   228.52222      126133.49     -46485.883     -52065.439      50.150678    
   4298000   223.43172      126582.77     -46550.231     -52005.498      50.210151    
   4299000   224.87135      126495.76     -46548.353     -52038.77       50.198645    
   4300000   229.40334      126126.86     -46560.349     -52161.419      50.149799    
   4301000   225.25891      126527.05     -46404.89      -51904.77       50.202783    
   4302000   224.48241      126358.33     -46491.79      -51972.71       50.180459    
   4303000   222.39849      126167.68     -46623.208     -52053.249      50.155208    
   4304000   224.30527      126293.48     -46688.593     -52165.189      50.171873    
   4305000   224.08181      126251.11     -46387.969     -51859.109      50.166261    
   4306000   221.63357      126527.47     -46539.939     -51951.303      50.202838    
   4307000   223.72979      126152.11     -46641.327     -52103.872      50.153145    
   4308000   227.45174      125811.66     -46544.51      -52097.93       50.107987    
   4309000   222.31017      126339.8      -46487.459     -51915.343      50.178006    
   4310000   225.72151      126404.72     -46514.037     -52025.211      50.186598    
   4311000   224.86837      125750.14     -46532.326     -52022.671      50.099819    
   4312000   229.04684      126128.06     -46432.202     -52024.567      50.149958    
   4313000   220.65288      126135.62     -46636.518     -52023.938      50.15096     
   4314000   222.33835      126161.21     -46712.281     -52140.853      50.154352    
   4315000   224.65224      126258.05     -46597.324     -52082.391      50.167181    
   4316000   223.54958      126149.79     -46585.108     -52043.253      50.152838    
   4317000   221.73687      126270.93     -46515.473     -51929.36       50.168886    
   4318000   224.37869      126702.45     -46500.685     -51979.074      50.225971    
   4319000   227.77194      126347.73     -46471.249     -52032.486      50.179056    
   4320000   225.47082      125895.32     -46591.93      -52096.984      50.119092    
   4321000   226.80839      126310.85     -46456.315     -51994.027      50.174172    
   4322000   223.73931      125986.39     -46581.643     -52044.42       50.131174    
   4323000   223.11985      126228.3      -46563.482     -52011.135      50.16324     
   4324000   226.18836      126204.94     -46529.695     -52052.268      50.160145    
   4325000   225.10944      126819.07     -46429.114     -51925.344      50.241375    
   4326000   225.33966      126853.6      -46455.7       -51957.552      50.245935    
   4327000   225.19735      125834.51     -46536.204     -52034.581      50.111021    
   4328000   224.41455      125865.93     -46511.157     -51990.421      50.115192    
   4329000   223.81242      125771.18     -46498.446     -51963.008      50.102614    
   4330000   223.65882      126005.38     -46649.506     -52110.318      50.133692    
   4331000   226.98735      126452.18     -46459.129     -52001.211      50.192879    
   4332000   222.03484      126186.42     -46619.051     -52040.212      50.157691    
   4333000   226.30173      126336.09     -46455.462     -51980.803      50.177515    
   4334000   225.26125      126127.8      -46430.948     -51930.885      50.149923    
   4335000   221.89601      125940.47     -46562.893     -51980.665      50.125083    
   4336000   225.01645      126554.96     -46519.784     -52013.744      50.206474    
   4337000   223.05987      126537.71     -46427.759     -51873.947      50.204193    
   4338000   226.03373      126375.84     -46581.964     -52100.762      50.182777    
   4339000   227.37524      126337.4      -46541.795     -52093.347      50.177688    
   4340000   226.27295      126087.26     -46517.232     -52041.871      50.144549    
   4341000   224.92505      126631.91     -46495.269     -51986.997      50.216647    
   4342000   225.76502      126524.1      -46501.638     -52013.875      50.202393    
   4343000   223.3351       126491.66     -46484.424     -51937.332      50.198102    
   4344000   221.94858      126259.38     -46575.758     -51994.814      50.167356    
   4345000   223.46252      126939.87     -46562.947     -52018.967      50.257323    
   4346000   226.60542      127065.38     -46335.965     -51868.721      50.27388     
   4347000   223.24017      126471.93     -46581.369     -52031.959      50.195492    
   4348000   226.14911      126892.82     -46469.766     -51991.381      50.251113    
   4349000   221.29825      126467.93     -46669.343     -52072.521      50.194963    
   4350000   226.0366       126710.94     -46537.733     -52056.6        50.227092    
   4351000   222.95566      126940.19     -46536.967     -51980.611      50.257364    
   4352000   225.0992       126793.29     -46636.603     -52132.584      50.237971    
   4353000   220.82169      126658.89     -46685.954     -52077.496      50.220214    
   4354000   224.9628       126769.89     -46574.23      -52066.88       50.234881    
   4355000   222.98219      126535.34     -46576.235     -52020.527      50.20388     
   4356000   224.08979      126204.18     -46396.197     -51867.532      50.160044    
   4357000   223.458        126575.8      -46615.91      -52071.819      50.20923     
   4358000   226.16527      126543.47     -46468.695     -51990.704      50.204955    
   4359000   224.2949       125953.9      -46485.785     -51962.128      50.126865    
   4360000   222.8737       126212.26     -46530.975     -51972.618      50.161115    
   4361000   225.78088      125872.58     -46539.198     -52051.823      50.116074    
   4362000   222.68573      125980.89     -46659.507     -52096.561      50.130445    
   4363000   226.46372      126533.9      -46503.892     -52033.189      50.203689    
   4364000   223.2094       126331.97     -46533.729     -51983.568      50.176969    
   4365000   226.5097       126349.71     -46454.144     -51984.563      50.179317    
   4366000   221.53032      126488.5      -46573.897     -51982.74       50.197683    
   4367000   227.13301      126301.55     -46634.716     -52180.353      50.172941    
   4368000   227.0808       126690.41     -46489.302     -52033.665      50.224379    
   4369000   226.27591      126795.44     -46586.627     -52111.338      50.238255    
   4370000   221.98427      126677.61     -46689.236     -52109.163      50.222688    
   4371000   220.90132      126402.04     -46763.056     -52156.542      50.186244    
   4372000   227.74703      126241.35     -46523.832     -52084.462      50.164969    
   4373000   219.81695      126234.4      -46641.416     -52008.426      50.164047    
   4374000   223.35485      126508.65     -46482.696     -51936.087      50.20035     
   4375000   224.99003      126527.91     -46560.55      -52053.865      50.202896    
   4376000   226.38623      126850.35     -46490.358     -52017.762      50.245506    
   4377000   225.28872      126124.69     -46562.665     -52063.273      50.149512    
   4378000   222.23005      126537.78     -46709.437     -52135.365      50.204203    
   4379000   225.04175      126765.36     -46531.397     -52025.974      50.234282    
   4380000   224.51839      126246.48     -46569.58      -52051.379      50.165648    
   4381000   228.4727       126386.48     -46600.504     -52178.851      50.184184    
   4382000   222.90088      126295.02     -46619.843     -52062.15       50.172077    
   4383000   227.06308      126513.78     -46500.115     -52044.046      50.201028    
   4384000   223.63716      126830.9      -46580.848     -52041.131      50.242938    
   4385000   223.09943      126272.81     -46656.457     -52103.612      50.169135    
   4386000   227.49204      126293.57     -46460.909     -52015.312      50.171884    
   4387000   223.82601      126741.74     -46524.603     -51989.498      50.231162    
   4388000   227.06033      126763.27     -46448.594     -51992.457      50.234006    
   4389000   225.11133      126128.28     -46612.858     -52109.135      50.149987    
   4390000   222.13774      126416.2      -46671.85      -52095.524      50.188118    
   4391000   225.15254      126732.35     -46597.203     -52094.486      50.229922    
   4392000   225.86988      126588.16     -46515.025     -52029.823      50.210864    
   4393000   226.38079      126998.53     -46541.345     -52068.617      50.265062    
   4394000   225.41633      126064.65     -46608.066     -52111.789      50.141552    
   4395000   227.2514       126452.81     -46500.361     -52048.889      50.192962    
   4396000   225.97711      126203.35     -46564.128     -52081.543      50.159935    
   4397000   222.40375      126254.53     -46620.746     -52050.915      50.166714    
   4398000   223.75683      126675.18     -46516.572     -51979.777      50.222366    
   4399000   225.60099      126485.15     -46519.752     -52027.984      50.19724     
   4400000   228.01592      126534.67     -46412.857     -51980.052      50.203792    
   4401000   226.3207       126331.58     -46569.688     -52095.492      50.176917    
   4402000   226.19206      126470.86     -46283.994     -51806.657      50.195351    
   4403000   224.61885      126798.72     -46587.734     -52071.986      50.238688    
   4404000   223.99053      126726.22     -46399.243     -51868.154      50.229112    
   4405000   222.59514      126638.19     -46593.762     -52028.603      50.217478    
   4406000   227.74592      126553.08     -46456.693     -52017.295      50.206226    
   4407000   221.24877      126801.21     -46713.512     -52115.481      50.239017    
   4408000   224.74725      126134.68     -46526.864     -52014.252      50.150835    
   4409000   226.18816      126587.7      -46506.186     -52028.755      50.210803    
   4410000   227.25881      126813.42     -46451.236     -51999.945      50.240629    
   4411000   226.04589      126658.52     -46524.919     -52044.014      50.220166    
   4412000   224.71371      126328.44     -46488.691     -51975.26       50.176501    
   4413000   226.97024      126527.54     -46482.37      -52024.033      50.202848    
   4414000   223.26643      127154.66     -46549.973     -52001.205      50.285653    
   4415000   221.37934      126585.05     -46679.2       -52084.357      50.210453    
   4416000   226.72504      127010.79     -46529.351     -52065.028      50.266681    
   4417000   226.90264      126276.99     -46447.925     -51987.938      50.169689    
   4418000   226.7266       126863.41     -46408.99      -51944.705      50.247231    
   4419000   224.17597      126242.48     -46588.301     -52061.74       50.165118    
   4420000   225.79207      126525.19     -46499.04      -52011.938      50.202537    
   4421000   225.37313      126482.49     -46542.382     -52045.051      50.196889    
   4422000   224.80923      126718.05     -46547.953     -52036.854      50.228031    
   4423000   223.11396      126773.91     -46659.987     -52107.496      50.235411    
   4424000   227.92346      126592.75     -46471.49      -52036.427      50.211471    
   4425000   224.58836      126894.87     -46592.068     -52075.576      50.251384    
   4426000   226.54749      126504.82     -46459.248     -51990.59       50.199842    
   4427000   223.03368      126340.83     -46574.065     -52019.614      50.178142    
   4428000   227.02663      126770.29     -46478.474     -52021.514      50.234933    
   4429000   222.97473      126810.31     -46698.679     -52142.789      50.240219    
   4430000   223.91113      126570.94     -46602.768     -52069.741      50.208588    
   4431000   224.59629      126929.57     -46598.081     -52081.782      50.255963    
   4432000   229.55496      127053.12     -46362.233     -51967.004      50.272264    
   4433000   224.55105      126583.66     -46609.642     -52092.239      50.21027     
   4434000   226.38257      127044.22     -46637.315     -52164.63       50.27109     
   4435000   223.36321      127089.36     -46642.934     -52096.529      50.277044    
   4436000   226.8935       126327.85     -46531.824     -52071.614      50.176424    
   4437000   221.58596      126650.95     -46690.216     -52100.418      50.219164    
   4438000   225.01547      126872.88     -46515.691     -52009.627      50.24848     
   4439000   224.52384      126510.12     -46600.824     -52082.756      50.200544    
   4440000   226.82055      126687.44     -46453.334     -51991.342      50.223987    
   4441000   227.84325      126344.47     -46529.389     -52092.368      50.178624    
   4442000   224.05287      126308.16     -46594.042     -52064.475      50.173817    
   4443000   220.96958      126920.28     -46622.484     -52017.636      50.254737    
   4444000   225.70925      127138.19     -46453.91      -51964.785      50.283482    
   4445000   228.39218      126896.44     -46493.223     -52069.604      50.251591    
   4446000   224.63617      127109.93     -46586.981     -52071.656      50.279756    
   4447000   224.66437      126900.53     -46579.521     -52064.885      50.25213     
   4448000   223.67502      126457.45     -46606.171     -52067.379      50.193576    
   4449000   224.54184      126343.22     -46499.706     -51982.078      50.178458    
   4450000   226.18919      126075.24     -46564.849     -52087.442      50.142957    
   4451000   223.4924       126990.69     -46509.66      -51966.409      50.264029    
   4452000   225.82534      125976.5      -46575.437     -52089.146      50.129863    
   4453000   224.47316      126318.73     -46589.129     -52069.824      50.175216    
   4454000   225.3541       126360.44     -46576.386     -52078.59       50.180738    
   4455000   226.78941      126783.83     -46503.732     -52040.981      50.236721    
   4456000   224.90797      126663.82     -46582.024     -52073.335      50.220865    
   4457000   224.52974      126582.25     -46506.305     -51988.382      50.210082    
   4458000   227.54696      127037.69     -46536.427     -52092.172      50.270229    
   4459000   221.45619      126651.48     -46614.463     -52021.496      50.219235    
   4460000   224.25954      126360.68     -46604.197     -52079.676      50.180769    
   4461000   221.92859      126240.27     -46665.212     -52083.78       50.164825    
   4462000   226.82716      126534.09     -46533.671     -52071.841      50.203715    
   4463000   222.14711      126409.94     -46729.116     -52153.019      50.18729     
   4464000   225.58681      126362.36     -46488.654     -51996.54       50.180992    
   4465000   221.04643      126762.57     -46590.85      -51987.878      50.233914    
   4466000   225.96355      126577.59     -46577.896     -52094.98       50.209467    
   4467000   221.60927      126775.57     -46612.463     -52023.234      50.235631    
   4468000   222.90551      126414.43     -46487.409     -51929.829      50.187884    
   4469000   224.91256      126498.06     -46639.612     -52131.035      50.198948    
   4470000   224.33746      126389.11     -46477.719     -51955.101      50.184533    
   4471000   226.41371      126305.05     -46613.318     -52141.393      50.173405    
   4472000   225.6777       126464.42     -46564.876     -52074.981      50.194498    
   4473000   224.05763      126309.79     -46530.591     -52001.14       50.174032    
   4474000   224.57899      126771.12     -46671.401     -52154.68       50.235042    
   4475000   223.31138      126781.45     -46730.714     -52183.043      50.236408    
   4476000   224.46677      126951        -46564.813     -52045.352      50.258791    
   4477000   225.5923       126819.85     -46533.474     -52041.494      50.241478    
   4478000   224.82437      126654.04     -46504.322     -51993.592      50.219573    
   4479000   223.94003      127312.14     -46526.116     -51993.794      50.306404    
   4480000   225.8532       126918.86     -46658.606     -52172.996      50.25455     
   4481000   225.87229      126961.53     -46555.617     -52070.473      50.260182    
   4482000   228.57995      127045.94     -46443.393     -52024.359      50.271317    
   4483000   222.50406      126927.2      -46649.214     -52081.831      50.255651    
   4484000   227.70945      126937.04     -46637.781     -52197.493      50.256949    
   4485000   225.39998      126958.39     -46738.479     -52241.804      50.259767    
   4486000   224.56313      127494.7      -46602.699     -52085.591      50.330438    
   4487000   222.0175       127218.57     -46675.381     -52096.119      50.294077    
   4488000   226.35463      126992.07     -46607.619     -52134.252      50.264211    
   4489000   224.32205      127573.56     -46595.584     -52072.59       50.340813    
   4490000   224.75552      126944.8      -46519.496     -52007.085      50.257974    
   4491000   222.17577      127040.19     -46661.02      -52085.623      50.270558    
   4492000   227.50272      127145.26     -46575.359     -52130.023      50.284414    
   4493000   222.31086      127332.58     -46733.448     -52161.348      50.309097    
   4494000   223.78751      127098.27     -46560.473     -52024.428      50.278219    
   4495000   226.4916       127255.9      -46569.21      -52099.187      50.298995    
   4496000   224.37007      127496.67     -46689.249     -52167.427      50.330697    
   4497000   227.738        127134.27     -46579.247     -52139.656      50.282965    
   4498000   225.77797      126974.65     -46524.197     -52036.75       50.261912    
   4499000   225.15527      127409.83     -46574.464     -52071.813      50.319268    
   4500000   227.78925      127236.45     -46514.271     -52075.931      50.296432    
   4501000   223.21691      126830.42     -46703.48      -52153.503      50.242874    
   4502000   221.2097       127295.71     -46651.329     -52052.344      50.30424     
   4503000   224.4079       127887.14     -46662.764     -52141.866      50.382026    
   4504000   225.8808       127309.9      -46603.912     -52118.975      50.306109    
   4505000   224.98489      127074.98     -46662.411     -52155.6        50.275147    
   4506000   227.55887      127356.13     -46574.77      -52130.806      50.312197    
   4507000   222.68474      127474.17     -46710.744     -52147.773      50.327737    
   4508000   223.91358      127213.54     -46739.768     -52206.8        50.293414    
   4509000   226.0408       127160.24     -46585.023     -52103.993      50.286388    
   4510000   220.42556      127272.72     -46735.159     -52117.028      50.301212    
   4511000   225.23735      127041.56     -46536.307     -52035.661      50.270739    
   4512000   224.87698      127654.13     -46466.858     -51957.413      50.351408    
   4513000   224.57216      127634.52     -46517.314     -52000.427      50.34883     
   4514000   219.60718      127136.56     -46773.229     -52135.117      50.283267    
   4515000   227.19788      127569.23     -46535.466     -52082.688      50.340244    
   4516000   224.69997      126947.88     -46651.998     -52138.231      50.25838     
   4517000   222.85141      127010.51     -46807.31      -52248.409      50.266644    
   4518000   224.98989      127258.37     -46620.239     -52113.551      50.299321    
   4519000   223.75405      127969.31     -46585.664     -52048.801      50.392814    
   4520000   225.11203      127838.52     -46637.224     -52133.517      50.37564     
   4521000   223.98334      127463.1      -46720.549     -52189.285      50.32628     
   4522000   228.26022      127468.63     -46490.946     -52064.105      50.327008    
   4523000   225.71329      127661.48     -46692.308     -52203.282      50.352375    
   4524000   226.73815      127703.45     -46587.606     -52123.603      50.357893    
   4525000   227.06003      127227.8      -46565.924     -52109.78       50.295293    
   4526000   225.52615      126878.96     -46589.537     -52095.942      50.249284    
   4527000   228.91409      127224.7      -46523.934     -52113.058      50.294884    
   4528000   224.43408      127366.94     -46714.161     -52193.902      50.31362     
   4529000   221.61422      127209.7      -46706.714     -52117.606      50.292907    
   4530000   230.18161      127285.34     -46452.612     -52072.683      50.302874    
   4531000   223.9268       127265.04     -46634.976     -52102.331      50.300199    
   4532000   228.57386      127308.11     -46555.005     -52135.822      50.305873    
   4533000   224.61401      127139.45     -46661.237     -52145.371      50.283648    
   4534000   225.87827      126883.36     -46644.604     -52159.606      50.249864    
   4535000   224.33173      127004.4      -46664.905     -52142.147      50.265837    
   4536000   222.935        127281.15     -46730.352     -52173.492      50.302321    
   4537000   228.195        126954.28     -46532.124     -52103.691      50.259225    
   4538000   226.58978      127029.56     -46578.1       -52110.475      50.269156    
   4539000   223.71495      127467.38     -46645.906     -52108.089      50.326843    
   4540000   226.33669      126868.76     -46622.702     -52148.897      50.247936    
   4541000   222.41959      127564.04     -46596.759     -52027.314      50.33956     
   4542000   222.681        127464.16     -46653.668     -52090.606      50.326419    
   4543000   225.7493       127298.79     -46586.064     -52097.917      50.304646    
   4544000   220.26445      126932.6      -46645.418     -52023.354      50.256363    
   4545000   225.15436      127348.61     -46547.62      -52044.947      50.311207    
   4546000   220.71556      127413.09     -46693.335     -52082.286      50.319697    
   4547000   230.43866      127374.93     -46583.356     -52209.703      50.314673    
   4548000   226.33948      127760.92     -46587.054     -52113.317      50.365445    
   4549000   224.30378      127397.51     -46755.812     -52232.372      50.317646    
   4550000   225.4539       127999.62     -46576.819     -52081.46       50.396792    
   4551000   225.40672      127634.36     -46757.798     -52261.287      50.348809    
   4552000   224.35857      127692.67     -46649.37      -52127.267      50.356475    
   4553000   227.68116      127516.8      -46642.186     -52201.207      50.333346    
   4554000   226.48252      127540.48     -46542.294     -52072.049      50.336462    
   4555000   223.95038      127356.03     -46739.346     -52207.277      50.312184    
   4556000   227.69882      127692.21     -46585.27      -52144.722      50.356415    
   4557000   222.28372      127404.64     -46643.208     -52070.446      50.318585    
   4558000   226.44266      127240.95     -46693.372     -52222.154      50.297025    
   4559000   221.87503      127468.42     -46772.48      -52189.74       50.32698     
   4560000   223.13278      127489.28     -46775.417     -52223.386      50.329725    
   4561000   223.58829      127481.11     -46626.725     -52085.815      50.328649    
   4562000   224.51881      127271.59     -46708.159     -52189.968      50.301062    
   4563000   223.0763       127136.04     -46777.53      -52224.12       50.283198    
   4564000   227.53604      126926.9      -46611.16      -52166.638      50.255611    
   4565000   224.50767      126819.51     -46720.84      -52202.378      50.241434    
   4566000   226.63881      127524.66     -46617.394     -52150.965      50.33438     
   4567000   224.41867      127860.55     -46594.738     -52074.103      50.378534    
   4568000   222.61238      127555.41     -46625.783     -52061.046      50.338425    
   4569000   225.35369      127237.37     -46724.856     -52227.05       50.296553    
   4570000   226.40664      127163.16     -46605.85      -52133.753      50.286773    
   4571000   223.52269      127731.67     -46608.458     -52065.946      50.361601    
   4572000   224.81719      126964.85     -46765.289     -52254.384      50.260619    
   4573000   222.33455      126860.29     -46719.867     -52148.346      50.246818    
   4574000   224.93808      127168.7      -46607.223     -52099.269      50.287503    
   4575000   222.10387      127021.63     -46698.508     -52121.355      50.26811     
   4576000   224.36652      127697.5      -46597.606     -52075.698      50.357111    
   4577000   226.7312       127534.88     -46476.145     -52011.973      50.335725    
   4578000   226.42502      126623.47     -46598.915     -52127.266      50.215532    
   4579000   223.33255      127256.21     -46647.001     -52099.847      50.299036    
   4580000   221.96165      126988.71     -46585.964     -52005.338      50.263767    
   4581000   224.4575       126605.12     -46662.153     -52142.466      50.213106    
   4582000   228.114        127078.05     -46454.296     -52023.885      50.275552    
   4583000   222.38445      126742.39     -46649.976     -52079.674      50.231248    
   4584000   224.30902      126937.3      -46760.547     -52237.234      50.256983    
   4585000   223.09759      126963.65     -46639.608     -52086.717      50.260461    
   4586000   224.35225      127358.2      -46566.386     -52044.129      50.31247     
   4587000   222.60063      126798.65     -46687.733     -52122.709      50.238679    
   4588000   228.23114      127048.55     -46581.935     -52154.385      50.271661    
   4589000   228.89929      127146.62     -46629.083     -52217.845      50.284593    
   4590000   225.75949      127337.96     -46538.957     -52051.059      50.309805    
   4591000   225.22389      126951.52     -46672.922     -52171.947      50.25886     
   4592000   227.84626      126735.26     -46507.303     -52070.356      50.230306    
   4593000   224.125        126840.95     -46716.6       -52188.794      50.244264    
   4594000   226.13692      126549.74     -46656.723     -52178.04       50.205784    
   4595000   225.09307      127067.29     -46690.401     -52186.231      50.274133    
   4596000   223.5112       126710.74     -46725.239     -52182.447      50.227066    
   4597000   224.46004      127163.76     -46638.692     -52119.066      50.286852    
   4598000   223.10724      127229.24     -46675.996     -52123.341      50.295483    
   4599000   225.92311      126963.18     -46531.975     -52048.072      50.260398    
   4600000   227.54371      126676.35     -46559.605     -52115.27       50.222522    
   4601000   228.23914      126995.56     -46579.085     -52151.729      50.264671    
   4602000   225.49023      127185.88     -46620.843     -52126.371      50.289768    
   4603000   226.74767      127433.7      -46706.049     -52242.278      50.322409    
   4604000   225.27941      127146.29     -46773.209     -52273.589      50.284549    
   4605000   227.66708      126885.36     -46608.823     -52167.5        50.250128    
   4606000   225.36763      127205.7      -46668.589     -52171.124      50.29238     
   4607000   224.93387      126991.67     -46588.208     -52080.152      50.264158    
   4608000   223.70035      126709.96     -46685.391     -52147.217      50.226962    
   4609000   225.50195      126880.37     -46619.34      -52125.153      50.24947     
   4610000   226.27076      126978.02     -46707.464     -52232.049      50.262358    
   4611000   224.48209      127425.18     -46696.25      -52177.163      50.321289    
   4612000   226.74595      126954.99     -46616.145     -52152.332      50.259319    
   4613000   226.75523      126391.48     -46657.749     -52194.163      50.184847    
   4614000   222.29335      126980.6      -46689.322     -52116.795      50.262698    
   4615000   222.81237      126795.67     -46715.555     -52155.7        50.238285    
   4616000   223.58329      127194.78     -46618.481     -52077.449      50.290942    
   4617000   222.35275      127461.87     -46595.521     -52024.445      50.326118    
   4618000   227.58232      127218.14     -46712.333     -52268.941      50.29402     
   4619000   228.12251      127345.32     -46750.757     -52320.554      50.310773    
   4620000   223.5592       126984.17     -46846.199     -52304.58       50.263169    
   4621000   226.40559      127168.21     -46671.891     -52199.768      50.287439    
   4622000   228.53198      126832.11     -46577.779     -52157.574      50.243097    
   4623000   225.02263      126722.46     -46677.689     -52171.8        50.228614    
   4624000   224.05407      126762.31     -46774.763     -52245.226      50.23388     
   4625000   225.29484      126847.33     -46670.048     -52170.806      50.245108    
   4626000   222.00722      126902.06     -46624.554     -52045.041      50.252333    
   4627000   231.12807      126570.15     -46607.185     -52250.365      50.208482    
   4628000   222.43868      126669.79     -46707.701     -52138.722      50.221654    
   4629000   227.61916      126751.98     -46564.342     -52121.849      50.232514    
   4630000   222.43627      126564.85     -46739.302     -52170.265      50.207782    
   4631000   224.25198      126673.52     -46700.39      -52175.685      50.222147    
   4632000   225.83077      126594.68     -46591.786     -52105.628      50.211726    
   4633000   225.02662      126937.82     -46817.25      -52311.458      50.257052    
   4634000   222.84815      126766.55     -46659.909     -52100.928      50.234439    
   4635000   227.14623      126450.8      -46674.766     -52220.726      50.192696    
   4636000   225.42294      126808.75     -46622.342     -52126.226      50.240013    
   4637000   223.05058      126709.53     -46664.38      -52110.342      50.226906    
   4638000   225.97998      126245.24     -46546.914     -52064.4        50.165483    
   4639000   227.69856      126216.97     -46552.152     -52111.598      50.161739    
   4640000   222.49033      126838.68     -46685.993     -52118.275      50.243965    
   4641000   225.27202      126716.45     -46575.965     -52076.165      50.22782     
   4642000   224.27986      126551.66     -46667.61      -52143.585      50.206038    
   4643000   224.04612      126804.63     -46609.758     -52080.027      50.239469    
   4644000   225.07869      126683.59     -46553.206     -52048.685      50.223478    
   4645000   227.94349      127349.2      -46422.316     -51987.742      50.311285    
   4646000   227.11404      126706.19     -46660.546     -52205.721      50.226465    
   4647000   220.44579      126846.7      -46730.03      -52112.394      50.245024    
   4648000   224.0453       126982.5      -46601.052     -52071.301      50.262948    
   4649000   227.15636      126934.1      -46617.988     -52164.196      50.256561    
   4650000   226.72232      127221.13     -46671.678     -52207.288      50.294413    
   4651000   224.80589      127011.75     -46632.199     -52121.018      50.266808    
   4652000   223.71914      126978.8      -46750.61      -52212.895      50.26246     
   4653000   222.59529      126755.78     -46799.976     -52234.821      50.233016    
   4654000   224.7441       127127.74     -46662.422     -52149.733      50.282104    
   4655000   225.92822      127438.52     -46714.458     -52230.679      50.323044    
   4656000   223.33854      126951.15     -46740.255     -52193.248      50.258811    
   4657000   221.81554      127060.5      -46814.712     -52230.52       50.273237    
   4658000   224.257        127283.64     -46661.874     -52137.292      50.30265     
   4659000   225.86446      126937.69     -46659.995     -52174.659      50.257035    
   4660000   227.35518      126751.89     -46549.86      -52100.922      50.232502    
   4661000   226.72924      126806.85     -46657.126     -52192.905      50.239761    
   4662000   226.251        126501.02     -46641.485     -52165.588      50.19934     
   4663000   222.82607      126675.79     -46696.465     -52136.945      50.222447    
   4664000   228.42732      127097.86     -46471.202     -52048.441      50.278164    
   4665000   224.95114      127099.97     -46694.694     -52187.059      50.278442    
   4666000   225.75988      126826.54     -46561.588     -52073.7        50.242361    
   4667000   224.68413      126877.15     -46701.235     -52187.081      50.249044    
   4668000   223.5736       126554.53     -46452.93      -51911.662      50.206417    
   4669000   224.19651      126815.47     -46671.841     -52145.781      50.2409      
   4670000   225.65417      126669.65     -46669.388     -52178.919      50.221636    
   4671000   228.58917      126520.17     -46467.445     -52048.636      50.201873    
   4672000   222.64761      126799.56     -46635.007     -52071.13       50.238799    
   4673000   227.19206      126859.4      -46644.669     -52191.748      50.246701    
   4674000   221.64961      126777.01     -46771.52      -52183.276      50.23582     
   4675000   224.15041      126724.5      -46733.047     -52205.862      50.228884    
   4676000   227.72324      126793.21     -46573.82      -52133.869      50.23796     
   4677000   224.68194      126883.4      -46562.711     -52048.504      50.249869    
   4678000   227.76474      126974.46     -46491.198     -52052.26       50.261887    
   4679000   225.38037      127077.35     -46632.488     -52135.334      50.275459    
   4680000   220.74053      127261.62     -46732.276     -52121.835      50.299748    
   4681000   225.0074       126951.43     -46529.722     -52023.461      50.258848    
   4682000   224.09809      126487.52     -46624.734     -52096.271      50.197554    
   4683000   226.31959      126991.76     -46518.638     -52044.416      50.264169    
   4684000   225.38803      126845.62     -46564.137     -52067.17       50.244882    
   4685000   227.48544      126692.13     -46662.681     -52216.924      50.224607    
   4686000   223.58118      126244.5      -46603.804     -52062.721      50.165385    
   4687000   223.00502      126589.24     -46482.856     -51927.705      50.211007    
   4688000   223.70966      126401.49     -46536.126     -51998.18       50.186171    
   4689000   225.76484      126834.69     -46495.094     -52007.327      50.243439    
   4690000   220.3025       126933.01     -46626.952     -52005.817      50.256417    
   4691000   224.60694      126636.8      -46587.358     -52071.319      50.217294    
   4692000   229.68492      127177.85     -46517.669     -52125.614      50.288709    
   4693000   223.93714      126818.5      -46544.634     -52012.242      50.2413      
   4694000   225.02152      127217.07     -46654.399     -52148.483      50.293879    
   4695000   218.81381      126916.09     -46766.319     -52108.836      50.254185    
   4696000   227.56876      127042.1      -46499.944     -52056.221      50.27081     
   4697000   224.16113      126565.27     -46569.014     -52042.091      50.207837    
   4698000   225.31092      126556.73     -46574.141     -52075.291      50.206708    
   4699000   228.64226      126481.84     -46486.882     -52069.369      50.196803    
   4700000   224.91145      126843.68     -46643.958     -52135.354      50.244625    
   4701000   222.00851      126632.13     -46659.703     -52080.222      50.216677    
   4702000   223.7703       127018.19     -46526.889     -51990.423      50.267656    
   4703000   224.6688       127150.87     -46583.741     -52069.213      50.285154    
   4704000   226.33291      127413.26     -46447.959     -51974.061      50.319719    
   4705000   229.00192      126925.63     -46386.189     -51977.458      50.255444    
   4706000   224.0554       126426.91     -46497.969     -51968.464      50.189535    
   4707000   222.78052      126874.92     -46676.779     -52116.147      50.248749    
   4708000   226.0893       126898.19     -46476.008     -51996.163      50.251822    
   4709000   222.39145      127016.2      -46657.436     -52087.304      50.267394    
   4710000   227.43588      126882.46     -46442.098     -51995.13       50.249745    
   4711000   225.05749      126914.48     -46596.558     -52091.52       50.253971    
   4712000   227.67018      126722.03     -46473.908     -52032.661      50.228558    
   4713000   222.76297      126538.66     -46656.203     -52095.142      50.204319    
   4714000   223.3472       126625.6      -46534.67      -51987.874      50.215813    
   4715000   223.6582       126854.21     -46559.551     -52020.349      50.246016    
   4716000   227.14063      126991.16     -46491.132     -52036.955      50.264091    
   4717000   225.70414      126586.3      -46510.919     -52021.669      50.210618    
   4718000   226.49487      126329.55     -46576.173     -52106.23       50.176648    
   4719000   221.64765      126729.3      -46551.914     -51963.622      50.229518    
   4720000   227.07233      126783.62     -46401.832     -51945.987      50.236694    
   4721000   225.80863      126586.23     -46529.34      -52042.642      50.21061     
   4722000   221.44831      126859.14     -46675.872     -52082.714      50.246667    
   4723000   224.15827      126693.07     -46441.037     -51914.044      50.224732    
   4724000   226.92447      126545.69     -46536.476     -52077.022      50.205248    
   4725000   222.15786      126395.96     -46728.177     -52152.343      50.185439    
   4726000   222.91018      126610.8      -46624.229     -52066.763      50.213857    
   4727000   226.69947      126555.5      -46519.27      -52054.322      50.206546    
   4728000   225.57375      127140.34     -46497.727     -52005.294      50.283765    
   4729000   225.32522      126930.69     -46574.361     -52075.86       50.256111    
   4730000   225.4677       127152.59     -46455.399     -51960.377      50.28538     
   4731000   226.2398       126262.04     -46450.599     -51974.428      50.167708    
   4732000   226.51588      126726.55     -46532.536     -52063.106      50.229154    
   4733000   226.09381      126479.02     -46500.931     -52021.196      50.196431    
   4734000   226.80599      126454.84     -46458.363     -51996.016      50.193231    
   4735000   225.46362      126655.79     -46450.992     -51955.87       50.219804    
   4736000   222.86829      126834.28     -46550.345     -51991.856      50.243384    
   4737000   228.57275      126800.25     -46490.549     -52071.339      50.238891    
   4738000   226.15676      126407.33     -46403.507     -51925.309      50.186945    
   4739000   226.81471      126668.15     -46376.604     -51914.47       50.221438    
   4740000   224.06233      126870.24     -46578.661     -52049.326      50.248131    
   4741000   222.56321      125984.6      -46576.791     -52010.853      50.130937    
   4742000   224.36943      126824.09     -46512.371     -51990.534      50.242039    
   4743000   224.02034      126759.99     -46541.534     -52011.173      50.233572    
   4744000   226.3409       126193.63     -46551.371     -52077.668      50.158647    
   4745000   224.74693      126559.17     -46532.035     -52019.414      50.20703     
   4746000   225.15517      126548.99     -46473.98      -51971.327      50.205684    
   4747000   226.04752      126648.6      -46429.629     -51948.764      50.218854    
   4748000   222.44352      126403.84     -46629.703     -52060.843      50.186482    
   4749000   223.70692      126973.59     -46508.343     -51970.329      50.261773    
   4750000   223.63743      126768.89     -46514.723     -51975.013      50.234748    
   4751000   225.2339       126457.51     -46612.121     -52111.39       50.193584    
   4752000   226.01754      126636.29     -46381.515     -51899.917      50.217227    
   4753000   225.13984      126463.07     -46481.742     -51978.715      50.19432     
   4754000   225.5473       126224.59     -46330.798     -51837.719      50.162748    
   4755000   225.17288      126086.31     -46597.049     -52094.829      50.144424    
   4756000   223.5323       126255.69     -46495.946     -51953.669      50.166867    
   4757000   222.79708      126487.06     -46659.302     -52099.075      50.197494    
   4758000   226.09888      126228.37     -46552.425     -52072.813      50.16325     
   4759000   224.85453      126424.54     -46473.02      -51963.026      50.189221    
   4760000   225.14979      126274.77     -46451.629     -51948.845      50.169394    
   4761000   224.24055      126307.38     -46482.091     -51957.106      50.173714    
   4762000   225.37712      126485.98     -46421.074     -51923.841      50.19735     
   4763000   225.61256      126232.16     -46478.463     -51986.977      50.163752    
   4764000   224.90924      126242.09     -46493.788     -51985.131      50.165066    
   4765000   221.26146      125631.07     -46645.009     -52047.288      50.084001    
   4766000   226.73335      125916.84     -46557.807     -52093.687      50.121948    
   4767000   224.41283      126103.5      -46487.879     -51967.101      50.146703    
   4768000   227.91343      126205.9      -46513.516     -52078.209      50.160272    
   4769000   224.13433      125465.11     -46643.006     -52115.429      50.061939    
   4770000   225.69571      126511.49     -46494.953     -52005.497      50.200725    
   4771000   225.35368      125934.53     -46446.699     -51948.892      50.124294    
   4772000   227.35003      126071.61     -46419.991     -51970.927      50.142475    
   4773000   225.23975      125444.97     -46585.284     -52084.696      50.059258    
   4774000   224.89121      126065.96     -46560.048     -52050.95       50.141725    
   4775000   227.99839      126105.51     -46455.197     -52021.963      50.146969    
   4776000   224.48478      125841.41     -46489.044     -51970.022      50.111937    
   4777000   227.17789      126277.93     -46553.355     -52100.088      50.169813    
   4778000   227.016        126202.39     -46438.917     -51981.697      50.159808    
   4779000   222.5017       125794.04     -46687.901     -52120.462      50.105648    
   4780000   226.8458       126296.35     -46514.275     -52052.9        50.172253    
   4781000   224.63254      125741.54     -46460.111     -51944.698      50.098677    
   4782000   225.53807      125927.31     -46497.1       -52003.795      50.123337    
   4783000   224.11548      126000.18     -46552.161     -52024.123      50.133004    
   4784000   227.61371      125795.77     -46407.86      -51965.234      50.105878    
   4785000   228.55135      126327.07     -46346.24      -51926.507      50.17632     
   4786000   220.7382       125814.23     -46598.951     -51988.455      50.108329    
   4787000   224.27355      125825.58     -46586.494     -52062.316      50.109835    
   4788000   227.36309      126070.18     -46492.799     -52044.055      50.142285    
   4789000   225.5821       125736        -46556.75      -52064.521      50.097941    
   4790000   219.82836      125891.44     -46718.226     -52085.514      50.118578    
   4791000   221.13967      125816.89     -46640.151     -52039.457      50.108682    
   4792000   229.02719      126095.81     -46463.01      -52054.896      50.145684    
   4793000   222.52449      126494.93     -46518.462     -51951.579      50.198534    
   4794000   222.26974      126112.16     -46642.039     -52068.935      50.147851    
   4795000   222.79108      126588.31     -46658.474     -52098.1        50.210884    
   4796000   222.93622      126392.88     -46490.13      -51933.299      50.185032    
   4797000   227.77038      126434.06     -46450.784     -52011.984      50.190481    
   4798000   222.83142      126255.98     -46653.01      -52093.621      50.166906    
   4799000   227.28491      126473.51     -46570.568     -52119.914      50.195701    
   4800000   228.92074      126479.33     -46359.983     -51949.27       50.19647     
   4801000   227.15975      126264.91     -46482.897     -52029.187      50.168089    
   4802000   224.11825      126301.72     -46679.576     -52151.606      50.172963    
   4803000   224.77279      126642.19     -46597.208     -52085.219      50.218006    
   4804000   225.23991      126333.98     -46514.78      -52014.197      50.177235    
   4805000   225.55724      126418.37     -46585.267     -52092.431      50.188405    
   4806000   227.51337      126574.89     -46453.477     -52008.401      50.209109    
   4807000   228.02828      126827.33     -46406.761     -51974.258      50.242467    
   4808000   227.11496      127346        -46415.351     -51960.548      50.310864    
   4809000   228.21742      126496.1      -46532.856     -52104.97       50.19869     
   4810000   224.06791      126467.75     -46669.115     -52139.915      50.194939    
   4811000   224.53013      126075.48     -46705.771     -52187.858      50.142988    
   4812000   224.65541      125983.12     -46580.107     -52065.252      50.13074     
   4813000   222.72942      126775.79     -46613.217     -52051.337      50.23566     
   4814000   221.87616      126546.09     -46609.365     -52026.653      50.205302    
   4815000   226.3785       125796.64     -46514.433     -52041.649      50.105994    
   4816000   222.62394      126047.02     -46625.014     -52060.559      50.139215    
   4817000   225.73032      126144.52     -46466.122     -51977.512      50.152139    
   4818000   223.64223      126793.22     -46567.875     -52028.282      50.237962    
   4819000   225.45505      126519.68     -46582.352     -52087.021      50.201808    
   4820000   225.52084      126671.61     -46470.323     -51976.598      50.221895    
   4821000   223.9739       126518.92     -46525.846     -51994.351      50.201707    
   4822000   225.45017      126486.12     -46465.017     -51969.567      50.197369    
   4823000   222.23913      125813.78     -46672.105     -52098.254      50.108269    
   4824000   224.70224      126607.79     -46552.066     -52038.354      50.213459    
   4825000   223.31914      126279.15     -46580.585     -52033.104      50.169975    
   4826000   226.66597      126548.7      -46312.241     -51846.476      50.205646    
   4827000   228.76461      125848.04     -46448.407     -52033.882      50.112817    
   4828000   223.28527      126108.95     -46582.453     -52034.145      50.147425    
   4829000   225.76617      126555.39     -46434.164     -51946.429      50.206532    
   4830000   229.73078      126498.2      -46471.415     -52080.479      50.198967    
   4831000   225.10118      126558.07     -46537.985     -52034.014      50.206885    
   4832000   222.76619      126146.82     -46513.596     -51952.614      50.152444    
   4833000   226.1705       126610.01     -46569.232     -52091.369      50.213752    
   4834000   226.22517      126613.4      -46567.631     -52091.103      50.214201    
   4835000   222.64115      126514.2      -46560.117     -51996.082      50.201083    
   4836000   226.4772       127069.99     -46497.386     -52027.012      50.274488    
   4837000   226.33106      127208.79     -46522.004     -52048.061      50.292788    
   4838000   223.95869      126668.73     -46577.347     -52045.48       50.221515    
   4839000   225.97046      126963.06     -46503.331     -52020.584      50.260383    
   4840000   222.97537      126909.02     -46607.474     -52051.6        50.253251    
   4841000   223.98064      126934.45     -46442.997     -51911.667      50.256608    
   4842000   222.85489      126782.64     -46693.453     -52134.636      50.236564    
   4843000   225.13306      127008.22     -46458.861     -51955.668      50.266342    
   4844000   222.67658      126565.29     -46638.448     -52075.278      50.20784     
   4845000   224.91305      126908.8      -46526.801     -52018.236      50.253222    
   4846000   225.55548      126763        -46506.618     -52013.738      50.23397     
   4847000   226.24928      126718.24     -46561.728     -52085.789      50.228058    
   4848000   221.36958      126540.38     -46705.832     -52110.751      50.204545    
   4849000   224.26905      126866.63     -46606.3       -52082.011      50.247655    
   4850000   222.71443      126673.24     -46719.615     -52157.37       50.222111    
   4851000   225.72328      126321.22     -46613.654     -52124.872      50.175545    
   4852000   223.39142      126461.83     -46640.365     -52094.648      50.194156    
   4853000   225.55572      125859.22     -46555.864     -52062.991      50.114301    
   4854000   222.20738      126522.2      -46598.04      -52023.414      50.202142    
   4855000   226.2713       125796.28     -46550.55      -52075.148      50.105946    
   4856000   222.18066      126044.42     -46666.953     -52091.675      50.138869    
   4857000   226.99392      125932.01     -46504.651     -52046.893      50.12396     
   4858000   223.9592       126312        -46420.683     -51888.83       50.174325    
   4859000   224.79124      126555.53     -46522.02      -52010.481      50.206549    
   4860000   226.89793      125948.11     -46599.45      -52139.348      50.126096    
   4861000   224.80272      126306.18     -46443.483     -51932.225      50.173555    
   4862000   223.43906      125803.6      -46545.291     -52000.738      50.106918    
   4863000   226.09827      126024.63     -46471.016     -51991.389      50.136245    
   4864000   224.60011      126079.12     -46563.509     -52047.303      50.14347     
   4865000   223.47756      126141.95     -46620.077     -52076.464      50.151798    
   4866000   225.63634      126273.8      -46535.208     -52044.303      50.169267    
   4867000   227.03751      126449.28     -46609.093     -52152.399      50.192496    
   4868000   226.24419      126460.7      -46599.688     -52123.624      50.194006    
   4869000   226.3986       126411.46     -46483.163     -52010.87       50.187491    
   4870000   224.14279      126128.02     -46551.262     -52023.891      50.149953    
   4871000   218.8951       126736.82     -46734.376     -52078.878      50.230511    
   4872000   224.14252      126516.94     -46611.598     -52084.22       50.201446    
   4873000   223.37976      126411.61     -46599.704     -52053.703      50.187511    
   4874000   227.17672      126446.57     -46453.64      -52000.345      50.192137    
   4875000   223.68373      126543.3      -46682.692     -52144.113      50.204932    
   4876000   227.5594       126746.28     -46564.784     -52120.832      50.231761    
   4877000   222.90318      126182.74     -46663.711     -52106.074      50.157204    
   4878000   224.53768      126787.52     -46532.714     -52014.985      50.237208    
   4879000   219.60144      126263.72     -46640.541     -52002.289      50.167932    
   4880000   225.68086      126398.88     -46578.444     -52088.626      50.185826    
   4881000   225.40504      125981.83     -46591.404     -52094.852      50.13057     
   4882000   223.34066      126378.35     -46616.815     -52069.859      50.183108    
   4883000   223.02822      126362.04     -46615.935     -52061.351      50.18095     
   4884000   225.86095      126216.77     -46481.247     -51995.826      50.161712    
   4885000   226.46434      126533.72     -46406.838     -51936.149      50.203665    
   4886000   221.40002      126354.94     -46592.104     -51997.766      50.180009    
   4887000   224.80419      126201.81     -46609.92      -52098.698      50.15973     
   4888000   223.56093      126299.43     -46568.128     -52026.551      50.172661    
   4889000   223.97825      126354.12     -46618.331     -52086.943      50.179901    
   4890000   225.24605      126692.47     -46588.915     -52088.48       50.224652    
   4891000   226.39664      126547.52     -46459.2       -51986.858      50.20549     
   4892000   222.26507      126453.23     -46577.559     -52004.342      50.193018    
   4893000   222.80283      126363.37     -46652.401     -52092.314      50.181126    
   4894000   226.22897      126591.05     -46560.406     -52083.97       50.211246    
   4895000   220.49102      126233.42     -46580.34      -51963.808      50.163918    
   4896000   223.77003      126109.32     -46561.758     -52025.286      50.147474    
   4897000   227.54642      126620.92     -46483.289     -52039.021      50.215196    
   4898000   222.12759      126641.91     -46486.619     -51910.045      50.217969    
   4899000   224.87308      126503.27     -46545.784     -52036.243      50.199638    
   4900000   222.41393      126594.51     -46596.856     -52027.274      50.211703    
   4901000   228.16456      126018.58     -46516.695     -52087.519      50.135444    
   4902000   229.19249      126013.03     -46416.923     -52012.844      50.134708    
   4903000   224.37786      126424.77     -46523.724     -52002.092      50.189252    
   4904000   221.92893      126422.75     -46629.443     -52048.018      50.188985    
   4905000   228.40371      125990.04     -46437.577     -52014.24       50.131659    
   4906000   224.02664      126490.58     -46571.745     -52041.538      50.19796     
   4907000   225.42658      126298.45     -46502.068     -52006.041      50.172531    
   4908000   223.19735      126068.82     -46449.214     -51898.759      50.142105    
   4909000   224.66433      126565.27     -46543.183     -52028.546      50.207838    
   4910000   227.08055      126099.03     -46560.019     -52104.376      50.14611     
   4911000   222.61252      126317.29     -46549.444     -51984.71       50.175025    
   4912000   226.191        126616.14     -46441.46      -51964.097      50.214563    
   4913000   225.97462      126735.8      -46556.815     -52074.169      50.230377    
   4914000   226.16631      126331.27     -46525.948     -52047.983      50.176876    
   4915000   225.39695      126255.07     -46529.988     -52033.238      50.166785    
   4916000   224.71756      126340.41     -46480.173     -51966.836      50.178086    
   4917000   224.56387      126294.71     -46511.735     -51994.645      50.172035    
   4918000   226.69807      126287.65     -46423.082     -51958.1        50.1711      
   4919000   225.31639      126623.85     -46506.758     -52008.041      50.215583    
   4920000   227.36495      126399.2      -46428.088     -51979.388      50.185869    
   4921000   220.56707      127252.76     -46634.975     -52020.3        50.298581    
   4922000   227.55202      126597.61     -46457.816     -52013.684      50.212113    
   4923000   228.39495      126576.27     -46441.846     -52018.295      50.209292    
   4924000   221.5589       126307.45     -46687.939     -52097.48       50.173722    
   4925000   223.68969      126319.2      -46558.787     -52020.353      50.175278    
   4926000   223.76157      126839.95     -46524.319     -51987.64       50.244133    
   4927000   222.77221      126701.7      -46502.121     -51941.286      50.225872    
   4928000   225.38393      126068.26     -46526.648     -52029.581      50.142031    
   4929000   226.30352      126779.13     -46557.748     -52083.133      50.236101    
   4930000   227.7126       125960.07     -46433.217     -51993.006      50.127684    
   4931000   221.06905      126432.69     -46622.16      -52019.741      50.190301    
   4932000   223.87397      126158.27     -46589.185     -52055.25       50.153961    
   4933000   223.72499      126496.53     -46428.033     -51890.461      50.198746    
   4934000   230.48726      126321.62     -46342.613     -51970.147      50.175598    
   4935000   224.30535      126263.3      -46587.949     -52064.547      50.167876    
   4936000   226.84543      125971.66     -46516.196     -52054.812      50.12922     
   4937000   227.21329      126118.46     -46513.34      -52060.938      50.148685    
   4938000   227.64308      126490.46     -46483.651     -52041.742      50.197943    
   4939000   225.73435      126241.16     -46549.997     -52061.485      50.164943    
   4940000   224.1633       126383.88     -46591.491     -52064.621      50.18384     
   4941000   227.48676      126159.19     -46451.519     -52005.794      50.154084    
   4942000   227.50119      126459.31     -46509.722     -52064.349      50.193822    
   4943000   226.8482       126913.03     -46434.975     -51973.658      50.253781    
   4944000   221.83885      126138.98     -46708.515     -52124.892      50.151406    
   4945000   219.79472      126045.26     -46611.675     -51978.142      50.138981    
   4946000   224.32541      126228.56     -46506.47      -51983.557      50.163274    
   4947000   223.16339      126166        -46570.09      -52018.806      50.154986    
   4948000   223.55622      125837.73     -46605.303     -52063.61       50.111448    
   4949000   226.85963      126229.76     -46481.122     -52020.085      50.163433    
   4950000   222.50554      126248.52     -46602.438     -52035.092      50.165918    
   4951000   226.34646      126324.48     -46538.715     -52065.149      50.175977    
   4952000   225.27196      126472.79     -46476.336     -51976.535      50.195605    
   4953000   225.55639      126017.67     -46559.731     -52066.874      50.135322    
   4954000   222.95388      126236.55     -46628.236     -52071.836      50.164332    
   4955000   221.59906      126445.77     -46636.739     -52047.261      50.192031    
   4956000   225.72026      126230.82     -46476.057     -51987.201      50.163574    
   4957000   227.85754      126391.8      -46485.581     -52048.909      50.184888    
   4958000   225.00654      126309.91     -46609.883     -52103.601      50.174049    
   4959000   222.73038      126365.48     -46623.901     -52062.045      50.181405    
   4960000   227.4677       126315.3      -46472.804     -52026.613      50.174762    
   4961000   224.905        126547.62     -46551.354     -52042.593      50.205503    
   4962000   221.82643      126251.59     -46676.208     -52092.282      50.166324    
   4963000   223.98298      126585.21     -46641.12      -52109.847      50.210474    
   4964000   222.46933      126809.93     -46488.608     -51920.378      50.240169    
   4965000   223.58266      126372.79     -46618.916     -52077.869      50.182372    
   4966000   225.2282       126383.55     -46436.213     -51935.343      50.183797    
   4967000   223.5564       126348.76     -46611.024     -52069.336      50.179192    
   4968000   225.66161      126613.91     -46529.281     -52038.993      50.214269    
   4969000   228.31842      126537.73     -46411.614     -51986.195      50.204196    
   4970000   226.65112      126629.68     -46518.414     -52052.286      50.216353    
   4971000   225.92919      126046.65     -46628.746     -52144.991      50.139165    
   4972000   224.3756       126276.61     -46554.29      -52032.603      50.169639    
   4973000   221.63641      125987.95     -46590.603     -52002.036      50.131381    
   4974000   225.24363      126241.54     -46540.366     -52039.873      50.164993    
   4975000   225.496        126264.19     -46540.94      -52046.609      50.167993    
   4976000   225.32396      125797.06     -46545.087     -52046.556      50.106049    
   4977000   226.85379      125913.49     -46433.66      -51972.481      50.121504    
   4978000   223.84011      126762.04     -46511.218     -51976.457      50.233843    
   4979000   223.81028      126434.52     -46644.253     -52108.763      50.190542    
   4980000   223.16742      126276.54     -46559.255     -52008.07       50.169629    
   4981000   225.3972       126154.74     -46538.654     -52041.911      50.153494    
   4982000   227.68876      126688.19     -46482.655     -52041.861      50.224086    
   4983000   226.24981      126372.88     -46578.339     -52102.412      50.182385    
   4984000   224.85305      126798.24     -46655.938     -52145.909      50.238625    
   4985000   226.92484      126906.86     -46432.875     -51973.43       50.252966    
   4986000   224.856        126700.94     -46580.474     -52070.516      50.225771    
   4987000   225.52233      126915.28     -46581.318     -52087.629      50.254077    
   4988000   222.72231      126756.87     -46637.264     -52075.211      50.23316     
   4989000   229.26183      126557.2      -46378.881     -51976.495      50.20677     
   4990000   224.65436      126188.76     -46566.03      -52051.149      50.158001    
   4991000   227.04704      126569.32     -46433.927     -51977.466      50.208373    
   4992000   227.47922      126591.64     -46404.92      -51959.011      50.211324    
   4993000   226.45921      126091.81     -46463.297     -51992.483      50.145153    
   4994000   224.71243      125988.79     -46490.175     -51976.713      50.131492    
   4995000   227.17727      126362.46     -46561.418     -52108.136      50.181005    
   4996000   227.35151      126503.14     -46526.295     -52077.267      50.19962     
   4997000   225.64934      126146.87     -46580.556     -52089.969      50.152451    
   4998000   226.44581      126086.51     -46429.798     -51958.658      50.14445     
   4999000   224.52727      126153.32     -46550.909     -52032.925      50.153306    
   5000000   227.84025      125456.43     -46433.58      -51996.485      50.060783    
   5001000   226.03789      125836.68     -46558.014     -52076.913      50.111309    
   5002000   227.51008      125986.72     -46417.443     -51972.287      50.131218    
   5003000   223.51631      125930.73     -46606.634     -52063.967      50.12379     
   5004000   226.61753      126030.75     -46448.629     -51981.681      50.137057    
   5005000   226.17553      125446.05     -46444.915     -51967.175      50.059403    
   5006000   227.66251      125937.77     -46335.091     -51893.656      50.124725    
   5007000   225.3647       126307.11     -46450.416     -51952.879      50.173678    
   5008000   225.2726       125879.77     -46512.161     -52012.376      50.117028    
   5009000   223.16569      126179.74     -46441.8       -51890.573      50.156807    
   5010000   224.14609      126034.28     -46561.539     -52034.249      50.137525    
   5011000   223.62678      125955.82     -46667.155     -52127.185      50.127119    
   5012000   226.9524       126071.3      -46401.954     -51943.182      50.142434    
   5013000   222.04161      126236.31     -46493.997     -51915.324      50.164301    
   5014000   226.45796      125542.9      -46376.589     -51905.744      50.072282    
   5015000   222.72894      125698.64     -46741.099     -52179.208      50.092979    
   5016000   227.05939      125859.87     -46503.732     -52047.572      50.114387    
   5017000   223.24         125823.99     -46566.366     -52016.952      50.109624    
   5018000   220.12391      125737.93     -46711.859     -52086.364      50.098198    
   5019000   225.43894      125941.86     -46558.431     -52062.707      50.125268    
   5020000   222.41479      125992.57     -46668.958     -52099.397      50.131994    
   5021000   225.92489      126167.38     -46563.272     -52079.412      50.155169    
   5022000   227.01514      126459.2      -46440.814     -51983.573      50.193808    
   5023000   222.37694      126611.15     -46655.622     -52085.136      50.213903    
   5024000   226.60802      126121.1      -46514         -52046.819      50.149035    
   5025000   226.93433      125873.91     -46579.372     -52120.159      50.116251    
   5026000   225.18073      126120.76     -46623.933     -52121.904      50.14899     
   5027000   225.435        126419.23     -46398.906     -51903.085      50.188519    
   5028000   227.02502      125892.05     -46436.258     -51979.259      50.118658    
   5029000   225.81726      126386.86     -46498.275     -52011.788      50.184235    
   5030000   224.3133       125679.99     -46725.7       -52202.492      50.090501    
   5031000   221.73545      126114.5      -46503.834     -51917.686      50.14816     
   5032000   222.70008      125907.23     -46605.764     -52043.168      50.120673    
   5033000   224.77692      126071.49     -46731.764     -52219.876      50.142459    
   5034000   229.90898      126113.56     -46437.135     -52050.55       50.148035    
   5035000   226.83889      125758.59     -46633.335     -52171.791      50.100941    
   5036000   227.10031      125643.78     -46540.955     -52085.794      50.085691    
   5037000   227.58792      126366.2      -46381.111     -51937.856      50.1815      
   5038000   225.52422      125675.07     -46492.026     -51998.384      50.089848    
   5039000   224.67542      126101.65     -46497.521     -51983.154      50.146457    
   5040000   226.28409      125760.85     -46580.628     -52105.539      50.101241    
   5041000   223.70462      125564.88     -46554.527     -52016.458      50.075205    
   5042000   221.45505      125646.58     -46705.548     -52112.553      50.086063    
   5043000   225.0618       125929.59     -46438.631     -51933.698      50.12364     
   5044000   226.58068      125800.39     -46587.921     -52120.073      50.106491    
   5045000   225.05449      125918.91     -46501.303     -51996.192      50.122222    
   5046000   223.50828      125899.09     -46618.366     -52075.503      50.119593    
   5047000   222.44897      125370.32     -46578.749     -52010.022      50.049328    
   5048000   222.16798      125573.51     -46453.379     -51877.791      50.076352    
   5049000   225.75857      125509.69     -46569.598     -52081.677      50.067867    
   5050000   225.37637      125358.21     -46476.35      -51979.098      50.047716    
   5051000   224.72633      125161.48     -46566.102     -52052.978      50.021521    
   5052000   226.51404      125889.49     -46464.178     -51994.703      50.118319    
   5053000   221.91011      125561.64     -46611.476     -52029.592      50.074773    
   5054000   219.86904      125912.04     -46635.559     -52003.841      50.121311    
   5055000   223.20256      125989.37     -46555.158     -52004.83       50.131569    
   5056000   226.73204      125675.31     -46498.933     -52034.781      50.089879    
   5057000   222.92351      125752.61     -46616.81      -52059.669      50.100147    
   5058000   224.017        126511.98     -46489.342     -51958.9        50.20079     
   5059000   226.1114       125929.19     -46461.576     -51982.27       50.123586    
   5060000   226.69764      126201.33     -46600.039     -52135.047      50.159668    
   5061000   222.98149      126398.4      -46675.125     -52119.399      50.185762    
   5062000   222.73662      126155.38     -46584.447     -52022.743      50.153578    
   5063000   229.41154      126456.18     -46413.489     -52014.758      50.193408    
   5064000   223.97502      125846.98     -46644.289     -52112.821      50.112676    
   5065000   225.38394      126286.4      -46453.002     -51955.935      50.170936    
   5066000   220.71952      125313.19     -46729.561     -52118.608      50.041723    
   5067000   227.44201      126260.49     -46592.287     -52145.469      50.167504    
   5068000   223.2672       125865.42     -46654.011     -52105.261      50.115125    
   5069000   224.48133      125758.37     -46668.715     -52149.61       50.100913    
   5070000   226.74627      125777.95     -46486.76      -52022.955      50.103512    
   5071000   223.72799      126070.75     -46596.045     -52058.546      50.142361    
   5072000   226.63409      126024.38     -46577.416     -52110.872      50.136212    
   5073000   222.83525      125730.57     -46542.684     -51983.388      50.097221    
   5074000   223.00346      126072.83     -46638.095     -52082.906      50.142636    
   5075000   223.69273      125476.75     -46488.2       -51949.841      50.063486    
   5076000   225.37028      126126.21     -46452.8       -51955.399      50.149713    
   5077000   225.23811      125883.59     -46508.735     -52008.107      50.117535    
   5078000   224.49022      125996.39     -46450.532     -51931.644      50.132501    
   5079000   226.54554      126371.7      -46571.129     -52102.423      50.182229    
   5080000   225.73098      126248.91     -46404.63      -51916.036      50.16597     
   5081000   222.14887      125986.3      -46601.476     -52025.422      50.131163    
   5082000   223.48719      125157.76     -46650.776     -52107.398      50.021026    
   5083000   225.79889      125641.13     -46483.892     -51996.956      50.085338    
   5084000   225.61494      126299.49     -46568.259     -52076.832      50.172669    
   5085000   222.23169      126328.83     -46444.154     -51870.122      50.176553    
   5086000   228.1973       126474.13     -46361.034     -51932.657      50.195782    
   5087000   223.62038      125825.04     -46444.792     -51904.666      50.109764    
   5088000   223.16596      125604.02     -46499.993     -51948.772      50.080406    
   5089000   223.98436      126138.26     -46471.623     -51940.384      50.151309    
   5090000   224.87621      125102.49     -46582.839     -52073.375      50.013662    
   5091000   229.6342       126126.52     -46356.067     -51962.773      50.149754    
   5092000   225.11297      125943.48     -46436.045     -51932.361      50.125482    
   5093000   224.00834      126028.99     -46542.541     -52011.887      50.136824    
   5094000   228.89177      125590.18     -46530.194     -52118.773      50.078567    
   5095000   224.9009       125877.17     -46522.182     -52013.321      50.116683    
   5096000   222.52089      126025.63     -46633.024     -52066.053      50.136378    
   5097000   225.84718      125727.5      -46550.307     -52064.55       50.096813    
   5098000   224.28812      126149.91     -46614.652     -52090.83       50.152854    
   5099000   222.7471       125493.28     -46640.644     -52079.196      50.065684    
   5100000   227.39578      126122.53     -46528.075     -52080.128      50.149225    
   5101000   223.58123      126098.92     -46553.662     -52012.58       50.146096    
   5102000   225.34481      126054.24     -46586.715     -52088.692      50.140172    
   5103000   226.14525      125820.95     -46405.062     -51926.583      50.109221    
   5104000   227.72432      125870.83     -46560.337     -52120.412      50.115842    
   5105000   228.62712      125902.64     -46426.505     -52008.622      50.120063    
   5106000   224.82332      126188.63     -46488.13      -51977.374      50.157984    
   5107000   224.84063      125874.71     -46581.732     -52071.4        50.116357    
   5108000   222.8329       125964.21     -46538.776     -51979.423      50.128232    
   5109000   227.06715      126093.12     -46472.232     -52016.262      50.145327    
   5110000   222.41769      125669.26     -46656.052     -52086.561      50.089076    
   5111000   225.78635      125672.79     -46529.967     -52042.725      50.089545    
   5112000   221.4383       125770.85     -46642.185     -52048.782      50.10257     
   5113000   223.65303      125824.81     -46566.882     -52027.553      50.109734    
   5114000   221.37466      125574.19     -46743.704     -52148.747      50.076442    
   5115000   225.31715      125868.72     -46502.058     -52003.36       50.115562    
   5116000   221.76622      125788.99     -46625.581     -52040.184      50.104978    
   5117000   224.5957       125550.45     -46680.716     -52164.403      50.073285    
   5118000   223.92446      125959.87     -46521.915     -51989.213      50.127656    
   5119000   224.02412      125932.23     -46580.226     -52049.957      50.12399     
   5120000   222.94136      125999.38     -46506.042     -51949.337      50.132897    
   5121000   224.15478      125327.43     -46438.69      -51911.611      50.04362     
   5122000   224.46523      125603.32     -46499.118     -51979.62       50.080313    
   5123000   224.30701      125616.43     -46576.918     -52053.557      50.082056    
   5124000   222.84644      125710.29     -46580.104     -52021.082      50.094526    
   5125000   224.13227      125639.97     -46512.498     -51984.87       50.085185    
   5126000   221.97737      125623.13     -46657.722     -52077.481      50.082947    
   5127000   226.11955      125904.42     -46536.208     -52057.101      50.1203      
   5128000   226.86592      126278.38     -46515.229     -52054.345      50.169872    
   5129000   221.91686      126006.9      -46653.874     -52072.155      50.133894    
   5130000   226.48664      126159.34     -46484.873     -52014.729      50.154104    
   5131000   221.30478      125904.75     -46672.372     -52075.708      50.120344    
   5132000   221.5571       125869.03     -46703.855     -52113.353      50.115604    
   5133000   225.96499      126198.24     -46491.006     -52008.126      50.159258    
   5134000   223.54928      126134.82     -46586.72      -52044.858      50.150853    
   5135000   225.60525      126501.59     -46593.976     -52102.312      50.199415    
   5136000   225.97034      126089.79     -46586.679     -52103.929      50.144885    
   5137000   224.21631      126436.35     -46602.327     -52076.751      50.190785    
   5138000   224.50913      126171.31     -46449.767     -51931.341      50.155689    
   5139000   227.05066      125998.82     -46586.36      -52129.987      50.132823    
   5140000   227.30922      125925.11     -46549.827     -52099.767      50.123045    
   5141000   225.70486      125654.17     -46537.597     -52048.365      50.087071    
   5142000   227.70545      126224.26     -46582.793     -52142.407      50.162705    
   5143000   226.608        125909.7      -46559.2       -52092.019      50.121       
   5144000   226.96434      126040.48     -46413.125     -51954.645      50.138348    
   5145000   225.89258      125674.92     -46552.695     -52068.046      50.089828    
   5146000   227.35702      126169.55     -46615.12      -52166.227      50.155456    
   5147000   224.95632      126112.56     -46522.167     -52014.659      50.147903    
   5148000   226.54219      126352.19     -46477.39      -52008.603      50.179646    
   5149000   223.43401      126477.29     -46546.164     -52001.488      50.196201    
   5150000   224.95595      125957.79     -46484.276     -51976.759      50.127381    
   5151000   223.63712      125871.94     -46602.692     -52062.974      50.11599     
   5152000   222.42733      126054.92     -46602.405     -52033.15       50.140263    
   5153000   225.92457      126252.56     -46451.914     -51968.047      50.166453    
   5154000   224.26384      126414.79     -46566.689     -52042.273      50.187931    
   5155000   224.15514      126006.17     -46653.372     -52126.303      50.133797    
   5156000   223.5321       125905.88     -46510.727     -51968.445      50.120493    
   5157000   226.89363      125868.63     -46398.13      -51937.923      50.11555     
   5158000   223.77449      126240.48     -46577.154     -52040.791      50.164854    
   5159000   226.77186      126285.06     -46550.693     -52087.513      50.170758    
   5160000   226.75478      125985.77     -46513.851     -52050.254      50.131092    
   5161000   229.5068       126186.17     -46376.698     -51980.294      50.157658    
   5162000   222.54678      126272.71     -46610.808     -52044.469      50.169122    
   5163000   223.42007      126392.84     -46533.029     -51988.012      50.185027    
   5164000   225.5323       126408.67     -46552.469     -52059.024      50.187121    
   5165000   224.6606       126165.06     -46497.3       -51982.572      50.154862    
   5166000   222.73547      126589.24     -46530.031     -51968.299      50.211007    
   5167000   222.91121      126447.03     -46540.063     -51982.622      50.192197    
   5168000   223.2104       126211.61     -46557.853     -52007.717      50.161029    
   5169000   223.72161      126099.39     -46569         -52031.345      50.146157    
   5170000   226.08199      126390.02     -46523.991     -52043.967      50.184654    
   5171000   227.73547      126350.5      -46334.332     -51894.679      50.179421    
   5172000   224.19575      126007.18     -46542.758     -52016.68       50.133932    
   5173000   225.58679      126340.45     -46541.705     -52049.59       50.178091    
   5174000   226.93173      126386.87     -46497.012     -52037.735      50.184236    
   5175000   226.46465      126739.81     -46415.222     -51944.541      50.230907    
   5176000   225.25647      126604.53     -46657.834     -52157.654      50.213029    
   5177000   226.99671      125893.76     -46509.663     -52051.973      50.118885    
   5178000   225.70326      126314.09     -46485.614     -51996.343      50.174602    
   5179000   224.72917      126722.99     -46474.5       -51961.446      50.228684    
   5180000   222.34144      126583.76     -46692.385     -52121.032      50.210283    
   5181000   222.72923      126576.17     -46544.018     -51982.134      50.209279    
   5182000   222.00514      126692.65     -46565.009     -51985.446      50.224675    
   5183000   222.00854      126543.09     -46551.52      -51972.04       50.204905    
   5184000   224.15855      126396.48     -46439.438     -51912.451      50.185508    
   5185000   220.94         126575.07     -46625.675     -52020.105      50.209133    
   5186000   224.84391      126300.69     -46517.076     -52006.824      50.172827    
   5187000   224.897        126258.57     -46513.379     -52004.423      50.167249    
   5188000   230.83466      126384.33     -46271.601     -51907.617      50.1839      
   5189000   224.31127      126613.34     -46521.864     -51998.606      50.214194    
   5190000   224.11915      126545.6      -46379.653     -51851.704      50.205237    
   5191000   228.06652      126024.15     -46500.559     -52068.989      50.136182    
   5192000   227.4714       125855.92     -46466.748     -52020.648      50.113863    
   5193000   225.55977      126215.65     -46552.577     -52059.803      50.161564    
   5194000   224.22583      126184        -46536.551     -52011.207      50.157371    
   5195000   223.04862      126425.29     -46547.757     -51993.671      50.189322    
   5196000   223.37326      126334.97     -46522.043     -51975.883      50.177366    
   5197000   227.47199      126649.66     -46390.671     -51944.585      50.218994    
   5198000   224.46362      126109.23     -46506.573     -51987.035      50.147462    
   5199000   224.64086      125821.79     -46469.573     -51954.363      50.109332    
   5200000   229.3991       125887.3      -46372.326     -51973.292      50.118027    
   5201000   226.09116      125982.48     -46522.488     -52042.688      50.130655    
   5202000   222.66562      125510.67     -46570.241     -52006.804      50.067997    
   5203000   221.60571      125651.93     -46422.538     -51833.223      50.086773    
   5204000   224.78944      125704.81     -46523.08      -52011.497      50.093798    
   5205000   228.18619      126111.41     -46348.723     -51920.075      50.147751    
   5206000   228.28198      126075.81     -46445.624     -52019.315      50.143032    
   5207000   226.91242      126052.37     -46486.324     -52026.576      50.139924    
   5208000   222.58253      126265.19     -46508.744     -51943.278      50.168126    
   5209000   226.4787       125694.02     -46459.976     -51989.638      50.092366    
   5210000   227.41676      126470.03     -46526.016     -52078.581      50.195241    
   5211000   221.66353      126517.15     -46691.777     -52103.873      50.201473    
   5212000   223.566        125962.71     -46571.654     -52030.201      50.128033    
   5213000   224.1787       126300.05     -46492.216     -51965.722      50.172743    
   5214000   227.45483      126182.19     -46451.2       -52004.695      50.157131    
   5215000   226.06887      126523.51     -46453.787     -51973.443      50.202315    
   5216000   224.29808      125797.02     -46495.811     -51972.231      50.106044    
   5217000   224.88176      125474.41     -46560.546     -52051.217      50.063175    
   5218000   223.02359      125801.51     -46538.789     -51984.092      50.106641    
   5219000   226.33097      125866.36     -46470.814     -51996.869      50.115249    
   5220000   226.44302      125849.66     -46373.899     -51902.69       50.113032    
   5221000   220.04844      126393.97     -46552.186     -51924.848      50.185176    
   5222000   226.29546      126239.77     -46408.442     -51933.63       50.164759    
   5223000   223.62112      126754.22     -46520.916     -51980.808      50.23281     
   5224000   228.05916      125766.39     -46542.589     -52110.839      50.101977    
   5225000   224.24839      126150.56     -46590.43      -52065.637      50.152939    
   5226000   224.83466      125802.4      -46500.234     -51989.755      50.106758    
   5227000   226.58772      125706.51     -46546.144     -52078.468      50.094025    
   5228000   223.66183      126012.71     -46503.261     -51964.147      50.134664    
   5229000   225.86577      126102.19     -46461.659     -51976.356      50.146528    
   5230000   218.28275      126323.98     -46753.828     -52083.379      50.175911    
   5231000   230.18305      126524.15     -46455.688     -52075.794      50.2024      
   5232000   224.47791      125942.71     -46551.272     -52032.083      50.125379    
   5233000   226.66617      126448.46     -46487.258     -52021.497      50.192386    
   5234000   225.60147      126061.83     -46372.528     -51880.772      50.141179    
   5235000   223.79654      126290.08     -46514.543     -51978.718      50.171423    
   5236000   220.32213      126651.51     -46614.191     -51993.535      50.219239    
   5237000   225.93785      126656.23     -46508.044     -52024.5        50.219863    
   5238000   223.63421      125824.66     -46578.995     -52039.207      50.109714    
   5239000   221.14406      126153.09     -46532.978     -51932.39       50.153275    
   5240000   221.67278      126424.33     -46612.731     -52025.052      50.189194    
   5241000   224.90116      126249.36     -46609.624     -52100.769      50.166029    
   5242000   225.57152      125659.14     -46589.73      -52097.243      50.087731    
   5243000   229.63711      126226.89     -46378.781     -51985.558      50.163053    
   5244000   223.99762      126660.83     -46516.425     -51985.509      50.220471    
   5245000   226.92242      126434.77     -46629.9       -52170.396      50.190576    
   5246000   223.52055      126027.65     -46695.541     -52152.977      50.136646    
   5247000   224.64257      126247.52     -46452.554     -51937.386      50.165786    
   5248000   224.80223      125921.43     -46592.621     -52081.351      50.122557    
   5249000   225.60919      126614.08     -46567.541     -52075.973      50.214291    
   5250000   225.40948      126387.23     -46471.319     -51974.875      50.184284    
   5251000   226.86739      126299.11     -46556.046     -52095.199      50.172619    
   5252000   224.11514      126815.95     -46542.523     -52014.477      50.240963    
   5253000   225.64471      126499.47     -46555.037     -52064.337      50.199135    
   5254000   226.97392      125995.96     -46537.686     -52079.44       50.132444    
   5255000   222.53303      126206.61     -46680.737     -52114.062      50.160366    
   5256000   223.63197      126409.28     -46448.5       -51908.657      50.187202    
   5257000   224.01738      126222.38     -46488.459     -51958.026      50.162456    
   5258000   221.64474      126307.91     -46613.843     -52025.48       50.173783    
   5259000   225.48267      126393.15     -46536.103     -52041.447      50.185068    
   5260000   228.98897      126390.58     -46442.6       -52033.553      50.184727    
   5261000   225.6066       126245.77     -46496.119     -52004.488      50.165554    
   5262000   225.18885      126630.94     -46478.244     -51976.413      50.21652     
   5263000   224.81276      126621.63     -46502.332     -51991.318      50.215288    
   5264000   225.52707      126658.6      -46519.563     -52025.991      50.220176    
   5265000   224.09512      126355.77     -46653.778     -52125.243      50.180119    
   5266000   228.80772      126524.43     -46379.99      -51966.517      50.202436    
   5267000   224.29424      126249.9      -46648.403     -52124.73       50.166101    
   5268000   219.20791      126598.99     -46686.381     -52038.521      50.212296    
   5269000   225.7116       126078.75     -46525.801     -52036.734      50.143422    
   5270000   226.60792      126169.95     -46446.931     -51979.748      50.155509    
   5271000   221.01158      126754.92     -46595.462     -51991.64       50.232903    
   5272000   219.65001      126258.14     -46686.302     -52049.236      50.167193    
   5273000   226.80656      126729.59     -46316.43      -51854.097      50.229556    
   5274000   222.76633      126291.04     -46537.733     -51976.754      50.17155     
   5275000   218.8067       126195.03     -46700.031     -52042.375      50.158832    
   5276000   228.31909      126373.5      -46516.901     -52091.498      50.182466    
   5277000   226.63415      126569.29     -46498.96      -52032.418      50.208369    
   5278000   225.34559      126882.3      -46447.623     -51949.62       50.249723    
   5279000   224.20803      126768.82     -46591.744     -52065.966      50.234739    
   5280000   222.40646      126663.91     -46568.861     -51999.096      50.220877    
   5281000   227.35602      126489.17     -46449.461     -52000.544      50.197773    
   5282000   223.67435      126342.27     -46633.076     -52094.268      50.178332    
   5283000   225.50755      126213.6      -46538.92      -52044.87       50.161292    
   5284000   226.99622      126018.94     -46527.572     -52069.87       50.135491    
   5285000   224.22022      126060.94     -46575.507     -52050.027      50.14106     
   5286000   223.9756       126162.04     -46549.037     -52017.584      50.154461    
   5287000   223.00755      126260.8      -46625.721     -52070.632      50.167544    
   5288000   226.75657      126077.79     -46474.651     -52011.097      50.143294    
   5289000   221.30771      125867.56     -46593.888     -51997.296      50.115408    
   5290000   226.12841      126227.09     -46409.075     -51930.185      50.16308     
   5291000   222.94109      125884.63     -46584.052     -52027.34       50.117674    
   5292000   223.79286      125965.21     -46506.002     -51970.087      50.128365    
   5293000   221.74767      126082.96     -46476.118     -51890.268      50.14398     
   5294000   223.4239       126067.55     -46447.11      -51902.187      50.141937    
   5295000   222.46437      125377        -46520.935     -51952.584      50.050216    
   5296000   222.72281      125960.92     -46353.539     -51791.498      50.127796    
   5297000   226.11245      125651.61     -46563.816     -52084.536      50.086731    
   5298000   227.76441      126342.37     -46443.076     -52004.13       50.178345    
   5299000   221.72825      125758.72     -46595.984     -52009.66       50.100959    
   5300000   224.16288      126231.58     -46504.542     -51977.661      50.163675    
   5301000   226.10507      126467.88     -46379.804     -51900.344      50.194956    
   5302000   222.44609      126153.23     -46650.445     -52081.647      50.153293    
   5303000   227.30445      126247.93     -46416.388     -51966.211      50.16584     
   5304000   223.58067      126289.56     -46359.097     -51818.001      50.171354    
   5305000   226.7888       126145.4      -46475.264     -52012.498      50.152256    
   5306000   221.99896      126331.76     -46570.633     -51990.918      50.176941    
   5307000   224.15678      126065.7      -46397.535     -51870.505      50.141691    
   5308000   222.50469      126147.46     -46598.605     -52031.239      50.152529    
   5309000   223.6153       126503.46     -46520.551     -51980.3        50.199663    
   5310000   226.53691      126353.89     -46350.738     -51881.822      50.179871    
   5311000   223.08992      126518.14     -46538.341     -51985.263      50.201604    
   5312000   224.89375      126705.85     -46526.143     -52017.107      50.22642     
   5313000   223.17479      126272.61     -46447.413     -51896.408      50.169109    
   5314000   226.63018      126613.69     -46476.006     -52009.366      50.21424     
   5315000   225.56678      126790.01     -46521.637     -52029.034      50.237538    
   5316000   223.0064       126580.96     -46491.3       -51936.183      50.209912    
   5317000   224.99553      127170.16     -46450.182     -51943.631      50.287696    
   5318000   222.50743      126344.07     -46559.702     -51992.402      50.178571    
   5319000   221.46431      126680.2      -46531.518     -51938.75       50.22303     
   5320000   225.98879      126525.19     -46521.102     -52038.803      50.202537    
   5321000   223.90344      126468.16     -46493.831     -51960.616      50.194994    
   5322000   226.60667      126156.13     -46414.617     -51947.404      50.153678    
   5323000   227.18339      126177.22     -46240.962     -51787.829      50.156472    
   5324000   224.77942      126302.49     -46429.077     -51917.25       50.173066    
   5325000   223.63041      126179.79     -46489.77      -51949.889      50.156813    
   5326000   225.04567      126629.78     -46422.875     -51917.549      50.216366    
   5327000   223.85884      126604.98     -46488.641     -51954.337      50.213088    
   5328000   226.4499       126354.32     -46392.224     -51921.183      50.179928    
   5329000   226.22744      126298.29     -46377.383     -51900.91       50.172509    
   5330000   224.75654      126267.66     -46558.752     -52046.366      50.168454    
   5331000   224.54443      126383.19     -46448.771     -51931.206      50.183749    
   5332000   223.61913      126321.51     -46510.383     -51970.226      50.175583    
   5333000   225.89514      126069.22     -46373.33      -51888.744      50.142158    
   5334000   226.68517      125804.66     -46279.369     -51814.072      50.107058    
   5335000   224.98619      126243.98     -46534.735     -52027.957      50.165317    
   5336000   223.10449      126226.62     -46561.76      -52009.037      50.163017    
   5337000   223.23876      126069.46     -46564.639     -52015.196      50.14219     
   5338000   226.76634      126515.04     -46525.143     -52061.828      50.201194    
   5339000   223.78501      125972.88     -46667.368     -52131.261      50.129383    
   5340000   224.51794      126042.35     -46476.829     -51958.618      50.138596    
   5341000   222.6849       126112.59     -46625.297     -52062.33       50.147908    
   5342000   226.14406      126631.91     -46566.062     -52087.554      50.216648    
   5343000   227.2945       126216.61     -46433.032     -51982.613      50.161691    
   5344000   222.76012      126403.36     -46518.594     -51957.464      50.186419    
   5345000   221.03078      126009.79     -46498.366     -51895.012      50.134278    
   5346000   225.91837      126507.51     -46437.446     -51953.427      50.200199    
   5347000   224.34835      126445.72     -46332.163     -51809.811      50.192025    
   5348000   225.1971       125872.43     -46509.821     -52008.192      50.116055    
   5349000   224.07532      125929.6      -46518.431     -51989.413      50.12364     
   5350000   222.79149      126401.35     -46580.251     -52019.886      50.186153    
   5351000   222.5757       126601.61     -46533.946     -51968.313      50.212643    
   5352000   227.83472      126857.38     -46249.983     -51812.753      50.246435    
   5353000   226.99919      126196.73     -46422.363     -51964.733      50.159058    
   5354000   220.75476      126188.43     -46530.363     -51920.27       50.157957    
   5355000   224.42673      125602.34     -46356.329     -51835.891      50.080184    
   5356000   222.24476      125471.45     -46462.799     -51889.086      50.062781    
   5357000   224.35902      125584.11     -46430.792     -51908.701      50.077761    
   5358000   225.5367       125596.73     -46454.564     -51961.226      50.079438    
   5359000   224.17013      125133.78     -46429.627     -51902.923      50.01783     
   5360000   227.67968      125851.04     -46459.63      -52018.615      50.113216    
   5361000   226.86012      126330.23     -46319.067     -51858.041      50.176738    
   5362000   226.43297      125783.46     -46444.431     -51972.977      50.104244    
   5363000   227.48447      125475.99     -46499.757     -52053.976      50.063385    
   5364000   226.73373      125568.98     -46389.704     -51925.593      50.07575     
   5365000   224.3735       125497.68     -46461.828     -51940.089      50.066269    
   5366000   225.30072      125433.92     -46456.434     -51957.334      50.057789    
   5367000   223.49187      125678.51     -46502.665     -51959.401      50.090305    
   5368000   223.07219      125366.62     -46470.13      -51916.619      50.048835    
   5369000   222.96906      125600.33     -46454.938     -51898.909      50.079916    
   5370000   228.85115      125143.87     -46401.487     -51989.074      50.019176    
   5371000   227.36864      125384.13     -46398.849     -51950.24       50.051165    
   5372000   226.11889      125228.51     -46423.501     -51944.378      50.030449    
   5373000   225.90545      125071.64     -46366.072     -51881.738      50.00955     
   5374000   225.25049      125194.63     -46554.789     -52054.463      50.025937    
   5375000   226.79306      125877.2      -46386.509     -51923.847      50.116687    
   5376000   224.17634      125427.67     -46427.168     -51900.616      50.056958    
   5377000   225.68458      125127.38     -46354.183     -51864.456      50.016978    
   5378000   224.3946       125249.72     -46475.119     -51953.896      50.033274    
   5379000   223.33751      125036.77     -46443.056     -51896.023      50.004903    
   5380000   225.0264       125557.74     -46318.852     -51813.055      50.074256    
   5381000   226.63377      125381.52     -46376.526     -51909.974      50.050817    
   5382000   224.9319       125606.35     -46491.815     -51983.71       50.080717    
   5383000   223.62337      125257.86     -46395.474     -51855.42       50.034357    
   5384000   222.03237      125263.25     -46515.903     -51937.004      50.035075    
   5385000   226.10653      125119.89     -46423.068     -51943.643      50.01598     
   5386000   224.50037      125352.64     -46525.476     -52006.836      50.046975    
   5387000   224.0924       125476.29     -46550.556     -52021.955      50.063425    
   5388000   226.50118      126073.6      -46373.989     -51904.2        50.142739    
   5389000   225.61552      126250.04     -46396.079     -51904.666      50.16612     
   5390000   222.54803      126098.49     -46510.858     -51944.549      50.146039    
   5391000   224.44884      125701.25     -46507.663     -51987.765      50.093325    
   5392000   226.02175      126048.83     -46492.949     -52011.454      50.139454    
   5393000   224.9916       125302.78     -46493.98      -51987.333      50.040338    
   5394000   223.84384      125993.39     -46545.336     -52010.666      50.132103    
   5395000   227.04285      125403.43     -46413.43      -51956.866      50.053733    
   5396000   227.49173      125627.29     -46439.088     -51993.484      50.083499    
   5397000   222.40451      125555.01     -46462.822     -51893.01       50.073893    
   5398000   225.03651      125380.11     -46582.635     -52077.084      50.05063     
   5399000   224.75827      125967.72     -46607.182     -52094.838      50.128698    
   5400000   224.24284      125916.55     -46490.781     -51965.852      50.12191     
   5401000   229.17026      125736.23     -46458.019     -52053.398      50.097972    
   5402000   220.14184      126297.95     -46552.208     -51927.151      50.172465    
   5403000   225.66309      126239.48     -46639.743     -52149.491      50.164721    
   5404000   227.76185      125908.76     -46412.127     -51973.118      50.120876    
   5405000   224.62616      125410.39     -46508.32      -51992.751      50.054659    
   5406000   227.40785      125202.77     -46386.422     -51938.77       50.027022    
   5407000   226.70196      125170.41     -46404.982     -51940.095      50.022711    
   5408000   224.65504      125649.82     -46586.584     -52071.72       50.086494    
   5409000   227.60526      125944.16     -46369.28      -51926.448      50.125573    
   5410000   222.17462      125198.14     -46546.605     -51971.18       50.026405    
   5411000   223.39534      125423.66     -46530.895     -51985.274      50.056425    
   5412000   225.53626      125640.99     -46389.695     -51896.347      50.08532     
   5413000   223.50643      125147.97     -46391.616     -51848.708      50.019721    
   5414000   225.37082      125571.24     -46529.835     -52032.447      50.076049    
   5415000   228.16689      126093.83     -46321.824     -51892.704      50.14542     
   5416000   225.72868      125918.76     -46498.893     -52010.243      50.122203    
   5417000   223.07483      125731.23     -46475.447     -51922.001      50.097308    
   5418000   225.41053      125681.38     -46562.938     -52066.52       50.090686    
   5419000   227.1215       125986.19     -46430.625     -51975.982      50.131148    
   5420000   225.59873      125638.35     -46483.484     -51991.66       50.084968    
   5421000   227.38843      125909.76     -46442.524     -51994.398      50.121008    
   5422000   225.68519      125892.2      -46560.301     -52070.589      50.118678    
   5423000   222.151        125809        -46559.871     -51983.868      50.107635    
   5424000   223.88896      125581.09     -46624.464     -52090.895      50.077359    
   5425000   224.54489      125447.69     -46574.142     -52056.589      50.059621    
   5426000   224.85813      125124.64     -46558.065     -52048.16       50.016613    
   5427000   225.68421      125838.87     -46603.825     -52114.088      50.1116      
   5428000   226.85986      125752.14     -46301.532     -51840.5        50.100085    
   5429000   222.87174      125880.86     -46602.446     -52044.041      50.117173    
   5430000   229.72044      125525.78     -46511.697     -52120.509      50.070006    
   5431000   223.5047       125523.59     -46625.407     -52082.457      50.069714    
   5432000   228.50613      125810.57     -46472.331     -52051.495      50.107843    
   5433000   224.10155      125483.9      -46528.358     -51999.979      50.064437    
   5434000   225.18902      125789.78     -46445.769     -51943.943      50.105083    
   5435000   226.50069      125517.13     -46569.955     -52100.154      50.068856    
   5436000   224.75457      125496.03     -46550.284     -52037.85       50.066049    
   5437000   227.53455      125685.36     -46419.404     -51974.845      50.091215    
   5438000   226.25285      125642.45     -46505.758     -52029.906      50.085513    
   5439000   227.09448      125675.13     -46373.124     -51917.821      50.089856    
   5440000   223.36899      125945        -46530.647     -51984.383      50.125684    
   5441000   225.42804      126237.92     -46474.891     -51978.9        50.164514    
   5442000   227.74669      125886.87     -46425.452     -51986.073      50.11797     
   5443000   222.91133      125766.69     -46697.915     -52140.477      50.102017    
   5444000   221.25145      125881.72     -46538.493     -51940.528      50.117287    
   5445000   226.96504      125631.46     -46415.616     -51957.152      50.084054    
   5446000   224.07769      125677.45     -46631.606     -52102.646      50.090164    
   5447000   224.8852       125806.71     -46572.685     -52063.441      50.107331    
   5448000   225.09006      125666.96     -46451.518     -51947.276      50.088771    
   5449000   222.81684      125423.78     -46520.373     -51960.628      50.05644     
   5450000   222.21679      125818.22     -46623.735     -52049.34       50.108858    
   5451000   228.4815       125683.35     -46483.917     -52062.479      50.090948    
   5452000   227.74496      125355.16     -46459.658     -52020.237      50.04731     
   5453000   223.92967      125562.11     -46482.49      -51949.915      50.074836    
   5454000   222.96179      125640.91     -46499.642     -51943.436      50.085309    
   5455000   227.77392      125860.32     -46388.601     -51949.887      50.114448    
   5456000   226.42202      125749.06     -46483.508     -52011.786      50.099676    
   5457000   228.9969       125461.8      -46485.46      -52076.606      50.061498    
   5458000   223.51373      125746.54     -46571.427     -52028.697      50.099341    
   5459000   222.71484      125848.13     -46477.706     -51915.471      50.112829    
   5460000   224.30989      126549.71     -46573.51      -52050.219      50.20578     
   5461000   229.01006      126205.81     -46411.059     -52002.526      50.16026     
   5462000   221.49766      126378.39     -46540.203     -51948.249      50.183114    
   5463000   230.08899      126396.24     -46386.771     -52004.581      50.185476    
   5464000   225.79748      125870.48     -46618.408     -52131.438      50.115796    
   5465000   222.26865      125937.42     -46682.428     -52109.298      50.124679    
   5466000   224.64833      126003.58     -46516.841     -52001.813      50.133455    
   5467000   223.93759      126221        -46465.916     -51933.535      50.162273    
   5468000   224.88567      125750.54     -46488.409     -51979.176      50.099872    
   5469000   224.43527      125533.96     -46486.983     -51966.753      50.071093    
   5470000   224.11331      125968.15     -46442.226     -51914.135      50.128754    
   5471000   227.04114      125696.33     -46389.679     -51933.074      50.092672    
   5472000   228.308        126115.23     -46472.101     -52046.427      50.148257    
   5473000   224.65905      125839.39     -46474.581     -51959.815      50.111669    
   5474000   224.268        126124.82     -46469.601     -51945.287      50.149529    
   5475000   223.472        126419.02     -46455.112     -51911.363      50.188491    
   5476000   223.27096      125956.07     -46627.459     -52078.802      50.127152    
   5477000   226.44785      125843.99     -46473.547     -52002.456      50.112279    
   5478000   227.38198      126502.98     -46395.125     -51946.841      50.1996      
   5479000   227.34588      126519.8      -46482.594     -52033.429      50.201824    
   5480000   223.23287      126075.08     -46566.944     -52017.356      50.142935    
   5481000   222.681        125954.94     -46494.634     -51931.572      50.127003    
   5482000   221.50339      125967.62     -46628.213     -52036.399      50.128684    
   5483000   221.19634      126405.75     -46537.948     -51938.636      50.186735    
   5484000   223.38476      126611.21     -46527.8       -51981.921      50.213911    
   5485000   221.59513      125936.09     -46639.315     -52049.741      50.124502    
   5486000   225.27827      126500.53     -46479.145     -51979.498      50.199276    
   5487000   225.13477      126320.52     -46431.174     -51928.023      50.175453    
   5488000   228.79613      125980.42     -46455.353     -52041.597      50.130382    
   5489000   226.60803      126264.88     -46449.006     -51981.825      50.168085    
   5490000   224.84377      125759.81     -46531.997     -52021.74       50.101104    
   5491000   224.60476      126188.06     -46400.501     -51884.409      50.157908    
   5492000   224.95071      126675.73     -46390.622     -51882.977      50.222439    
   5493000   224.09101      126360.97     -46530.362     -52001.727      50.180808    
   5494000   224.07616      126348.88     -46469.591     -51940.593      50.179207    
   5495000   224.41806      125760.38     -46466.342     -51945.692      50.101179    
   5496000   226.82077      126337.2      -46475.182     -52013.196      50.177661    
   5497000   226.19022      126233.05     -46388.564     -51911.183      50.163869    
   5498000   222.30956      126294.33     -46502.512     -51930.381      50.171985    
   5499000   222.88307      126285.83     -46532.645     -51974.517      50.170859    
   5500000   224.23506      126358.19     -46370.332     -51845.214      50.180441    
   5501000   221.8952       126014.92     -46429.993     -51847.745      50.134958    
   5502000   232.26947      126351.24     -46203.479     -51874.527      50.179519    
   5503000   225.3485       126529.05     -46345.698     -51847.765      50.203047    
   5504000   226.45482      125889.51     -46427.615     -51956.694      50.118321    
   5505000   223.96215      126234.29     -46505.292     -51973.51       50.164034    
   5506000   223.22016      125821.55     -46397.788     -51847.89       50.109301    
   5507000   227.71766      125874.18     -46411.577     -51971.489      50.116286    
   5508000   222.85436      125760.24     -46511.138     -51952.309      50.101161    
   5509000   224.42109      126390.12     -46472.747     -51952.171      50.184666    
   5510000   224.69271      126720.71     -46376.994     -51863.05       50.228383    
   5511000   220.63531      126416        -46552.27      -51939.26       50.188092    
   5512000   224.98441      126217.81     -46441.341     -51934.519      50.16185     
   5513000   225.32092      125968.9      -46381.927     -51883.321      50.128854    
   5514000   224.11938      126601.21     -46430.404     -51902.461      50.21259     
   5515000   223.40909      126090.34     -46462.211     -51916.926      50.144958    
   5516000   226.0622       126284.43     -46459.784     -51979.277      50.170674    
   5517000   222.84182      126240.14     -46464.209     -51905.073      50.164808    
   5518000   224.92157      126058.1      -46329.705     -51821.349      50.140684    
   5519000   224.6547       126309.06     -46420.956     -51906.084      50.173935    
   5520000   226.65473      125510.82     -46536.744     -52070.704      50.068017    
   5521000   226.04052      125923.67     -46435.673     -51954.636      50.122854    
   5522000   226.33861      126117.15     -46447.254     -51973.495      50.148512    
   5523000   226.38858      125735.22     -46679.6       -52207.062      50.097837    
   5524000   226.28403      126192.57     -46409.397     -51934.306      50.158507    
   5525000   225.37764      126132.73     -46474.304     -51977.082      50.150577    
   5526000   226.21254      126031.27     -46441.26      -51964.424      50.137126    
   5527000   225.62601      126643.93     -46427.291     -51936.134      50.218236    
   5528000   225.29389      126095.35     -46417.896     -51918.63       50.145622    
   5529000   224.60716      125979.94     -46556.717     -52040.684      50.130318    
   5530000   223.47841      126091.02     -46493.211     -51949.619      50.145048    
   5531000   224.12324      126148.53     -46448.194     -51920.346      50.15267     
   5532000   225.30179      126363.59     -46474.513     -51975.44       50.181154    
   5533000   224.24279      126450.26     -46468.49      -51943.561      50.192624    
   5534000   224.61387      126090.45     -46478.81      -51962.941      50.144973    
   5535000   226.40026      126075.68     -46491.227     -52018.974      50.143015    
   5536000   221.35869      125815.59     -46533.056     -51937.709      50.10851     
   5537000   223.04625      126311.98     -46384.033     -51829.889      50.174322    
   5538000   224.79201      126398.15     -46486.475     -51974.956      50.18573     
   5539000   226.90401      126434.64     -46404.839     -51944.885      50.190558    
   5540000   226.3258       126202.78     -46385.714     -51911.643      50.159859    
   5541000   221.3643       126177.7      -46604.653     -52009.443      50.156537    
   5542000   222.76685      126610.79     -46405.258     -51844.292      50.213856    
   5543000   221.76098      126806.19     -46473.379     -51887.854      50.239675    
   5544000   227.48842      126435.34     -46460.595     -52014.91       50.190651    
   5545000   223.91328      126458.08     -46377.723     -51844.748      50.19366     
   5546000   227.57917      125733.17     -46318.614     -51875.145      50.097565    
   5547000   224.46295      126591.96     -46446.61      -51927.056      50.211366    
   5548000   223.68508      126705.43     -46497.899     -51959.353      50.226365    
   5549000   228.65647      126186.46     -46366.342     -51949.176      50.157697    
   5550000   222.56471      125834.68     -46551.65      -51985.749      50.111044    
   5551000   223.74615      125966.89     -46400.098     -51863.042      50.128588    
   5552000   224.00049      125652.11     -46545.729     -52014.884      50.086798    
   5553000   223.76232      126270.26     -46418.693     -51882.033      50.168798    
   5554000   222.119        126211.92     -46502.798     -51926.014      50.16107     
   5555000   221.98871      125966.93     -46634.49      -52054.526      50.128593    
   5556000   224.3745       126444.85     -46447.164     -51925.45       50.191909    
   5557000   224.91618      126277.64     -46467.246     -51958.758      50.169774    
   5558000   224.9049       126247.8      -46393.592     -51884.828      50.165822    
   5559000   225.24457      126110.22     -46502.1       -52001.629      50.147594    
   5560000   222.78541      126060.09     -46431.654     -51871.141      50.140948    
   5561000   225.94332      126166.92     -46377.258     -51893.849      50.155108    
   5562000   226.6318       126113.49     -46495.822     -52029.222      50.148027    
   5563000   223.62694      125754.34     -46494.28      -51954.314      50.100377    
   5564000   225.59647      126077.44     -46303.606     -51811.727      50.143247    
   5565000   221.57583      126067.04     -46531.332     -51941.287      50.141869    
   5566000   226.15474      126524.16     -46343.3       -51865.052      50.202401    
   5567000   223.86975      126381.51     -46521.781     -51987.743      50.183526    
   5568000   223.3886       126710.13     -46460.575     -51914.79       50.226986    
   5569000   227.5685       126141.91     -46497.215     -52053.486      50.151794    
   5570000   223.44532      126281.32     -46444.984     -51900.584      50.170263    
   5571000   226.87333      125915.52     -46427.817     -51967.114      50.121772    
   5572000   226.63716      126611.63     -46387.867     -51921.398      50.213968    
   5573000   226.59134      126225.71     -46387.8       -51920.212      50.162896    
   5574000   222.45436      126280.99     -46457.231     -51888.636      50.170218    
   5575000   223.26548      126703.54     -46364.558     -51815.766      50.226114    
   5576000   224.65915      126383.62     -46432.01      -51917.246      50.183806    
   5577000   226.88835      126558.67     -46425.169     -51964.833      50.206965    
   5578000   226.76599      126182.91     -46426.16      -51962.837      50.157227    
   5579000   226.61362      125994.77     -46327.098     -51860.054      50.132286    
   5580000   226.08714      126481.62     -46314.956     -51835.058      50.196774    
   5581000   220.62449      125959.24     -46443.458     -51830.185      50.127573    
   5582000   223.75965      126208.99     -46374.207     -51837.481      50.160682    
   5583000   230.34287      125996.95     -46280.662     -51904.671      50.132574    
   5584000   225.68385      125355.73     -46397.343     -51907.598      50.047386    
   5585000   225.0883       125746.93     -46358.041     -51853.755      50.099393    
   5586000   225.73643      125770.3      -46353.61      -51865.149      50.102496    
   5587000   224.89951      126067.53     -46370.082     -51861.187      50.141934    
   5588000   225.43988      125694.92     -46498.269     -52002.568      50.092485    
   5589000   226.16059      125844.67     -46382.077     -51903.972      50.112371    
   5590000   224.89112      125545.88     -46466.194     -51957.094      50.072679    
   5591000   226.90397      126023.86     -46338.5       -51878.546      50.136144    
   5592000   223.98946      125908.48     -46502.324     -51971.209      50.120838    
   5593000   224.01736      125884.11     -46388.456     -51858.022      50.117605    
   5594000   227.08995      125794.25     -46396.085     -51940.671      50.105677    
   5595000   225.26849      125889.47     -46489.7       -51989.814      50.118316    
   5596000   224.40303      126022.07     -46380.243     -51859.226      50.135906    
   5597000   222.73202      125839.93     -46431.306     -51869.49       50.11174     
   5598000   222.00499      126101.91     -46461.361     -51881.794      50.146492    
   5599000   224.37209      125909.16     -46464.945     -51943.173      50.120928    
   5600000   226.14147      125989.02     -46284.805     -51806.233      50.131523    
   5601000   225.09477      125719.17     -46385.157     -51881.03       50.095706    
   5602000   224.34028      125789.58     -46377.632     -51855.082      50.105056    
   5603000   223.2784       125783.66     -46304.119     -51755.644      50.10427     
   5604000   224.86297      126531.12     -46455.348     -51945.56       50.203321    
   5605000   225.87369      125895.42     -46400.352     -51915.242      50.119105    
   5606000   224.5228       126308.71     -46388.231     -51870.138      50.17389     
   5607000   223.27223      126419.89     -46455.35      -51906.724      50.188607    
   5608000   225.70259      126188.38     -46273.861     -51784.574      50.157951    
   5609000   224.8916       125678.82     -46343.946     -51834.858      50.090347    
   5610000   227.88835      125750.55     -46248.622     -51812.701      50.099874    
   5611000   223.57306      126428.21     -46520.937     -51979.655      50.189707    
   5612000   226.31025      126604.94     -46411.994     -51937.543      50.213083    
   5613000   225.29988      126117.62     -46414.534     -51915.414      50.148574    
   5614000   224.36992      126982.46     -46497.666     -51975.841      50.262943    
   5615000   230.10903      126746.92     -46245.52      -51863.819      50.231847    
   5616000   226.03331      126345.68     -46410.679     -51929.467      50.178784    
   5617000   224.1627       126219.28     -46528.877     -52001.992      50.162045    
   5618000   224.58375      126283.32     -46324.004     -51807.399      50.170527    
   5619000   227.68367      126254.99     -46317.505     -51876.588      50.166776    
   5620000   222.61009      126184.02     -46494.436     -51929.643      50.157374    
   5621000   223.90232      126467.18     -46321.391     -51788.149      50.194864    
   5622000   222.61565      126004.16     -46454.667     -51890.01       50.133531    
   5623000   225.4941       125952.98     -46325.829     -51831.451      50.126743    
   5624000   228.02677      126454.19     -46409.24      -51976.699      50.193145    
   5625000   222.51044      126680.06     -46413.913     -51846.687      50.223012    
   5626000   221.89193      126304.02     -46568.871     -51986.544      50.173268    
   5627000   222.07383      126311.35     -46442.796     -51864.91       50.174238    
   5628000   225.56136      125891.35     -46424.395     -51931.659      50.118565    
   5629000   225.5379       126403.75     -46392.554     -51899.246      50.18647     
   5630000   225.46477      126575.74     -46337.116     -51842.022      50.209222    
   5631000   225.92769      126115.56     -46349.726     -51865.935      50.148301    
   5632000   223.98677      126387.53     -46392.954     -51861.774      50.184324    
   5633000   225.18992      125929.41     -46400.921     -51899.116      50.123615    
   5634000   223.35104      126314.59     -46410.667     -51863.965      50.174668    
   5635000   226.46578      126796.44     -46382.25      -51911.597      50.238386    
   5636000   224.79804      126649.74     -46430.169     -51918.796      50.219005    
   5637000   224.14408      126876.8      -46412.747     -51885.407      50.248997    
   5638000   225.27186      126590.27     -46445.844     -51946.04       50.211144    
   5639000   226.59133      126373.45     -46388.627     -51921.039      50.18246     
   5640000   221.59954      126780.01     -46480.741     -51891.274      50.236217    
   5641000   222.61448      126604.81     -46463.574     -51898.888      50.213065    
   5642000   225.79412      126810.15     -46421.71      -51934.657      50.240197    
   5643000   221.89174      126286.42     -46510.442     -51928.11       50.170938    
   5644000   222.6925       126160.58     -46492.991     -51930.209      50.154268    
   5645000   225.76059      126664.38     -46508.298     -52020.426      50.220939    
   5646000   225.03345      126591.1      -46317.307     -51811.682      50.211252    
   5647000   223.79441      126168.26     -46439.436     -51903.559      50.155285    
   5648000   225.3585       126680.15     -46317.697     -51820.008      50.223023    
   5649000   226.50728      126226.55     -46421.427     -51951.787      50.163008    
   5650000   220.92347      126444.69     -46586.727     -51980.754      50.191888    
   5651000   223.78172      126650.58     -46428.727     -51892.54       50.219116    
   5652000   228.85538      126500.2      -46440.732     -52028.422      50.199232    
   5653000   225.92828      126468.1      -46423.063     -51939.286      50.194985    
   5654000   226.98855      126371.47     -46349.054     -51891.165      50.182197    
   5655000   218.94959      125932.67     -46545.274     -51891.107      50.124048    
   5656000   219.28127      126341.29     -46458.163     -51812.094      50.178203    
   5657000   226.97996      126372.9      -46234.616     -51776.517      50.182387    
   5658000   224.0745       125631.94     -46469.787     -51940.748      50.084117    
   5659000   224.48056      126298.47     -46463.204     -51944.08       50.172534    
   5660000   229.08721      126810.2      -46260.418     -51853.769      50.240205    
   5661000   223.958        125848.5      -46561.79      -52029.908      50.112878    
   5662000   224.08905      126487.33     -46423.599     -51894.915      50.19753     
   5663000   221.57825      126517.93     -46475.49      -51885.503      50.201578    
   5664000   224.41251      126246.2      -46433.141     -51912.355      50.165611    
   5665000   225.63918      126430.37     -46428.307     -51937.471      50.189993    
   5666000   223.73221      125793.18     -46261.908     -51724.512      50.105534    
   5667000   226.67493      126324.36     -46298.441     -51832.895      50.175961    
   5668000   224.82319      126305.66     -46425.164     -51914.405      50.173485    
   5669000   226.99588      126310.75     -46307.164     -51849.453      50.17416     
   5670000   222.42435      126132.62     -46543.088     -51973.759      50.150562    
   5671000   226.7022       125906.41     -46419.386     -51954.505      50.120563    
   5672000   226.06194      126872.6      -46423.637     -51943.123      50.248443    
   5673000   221.10703      126174.26     -46646.717     -52045.225      50.156081    
   5674000   223.05553      125783.32     -46434.607     -51880.689      50.104225    
   5675000   223.26124      125860.22     -46508.208     -51959.313      50.114434    
   5676000   221.76829      126714.53     -46584.917     -51999.571      50.227567    
   5677000   224.25278      126289.88     -46516.426     -51991.74       50.171396    
   5678000   224.28524      126602.75     -46334.359     -51810.466      50.212793    
   5679000   223.87466      126810.16     -46428.212     -51894.295      50.240198    
   5680000   225.59112      126357.28     -46446.585     -51954.576      50.180319    
   5681000   224.25926      126191.07     -46562.094     -52037.566      50.158308    
   5682000   223.58593      126292.42     -46599.54      -52058.573      50.171732    
   5683000   222.04389      125984.24     -46490.422     -51911.804      50.130889    
   5684000   225.40484      126902.7      -46528.295     -52031.738      50.252417    
   5685000   228.14914      126083.34     -46623.356     -52193.804      50.14403     
   5686000   225.82712      126375.67     -46531.016     -52044.769      50.182753    
   5687000   225.23837      126109.26     -46503.007     -52002.386      50.147466    
   5688000   227.29012      126360.86     -46514.791     -52064.264      50.180794    
   5689000   228.09241      126499.65     -46450.256     -52019.318      50.19916     
   5690000   224.62265      126799.1      -46488.326     -51972.671      50.238738    
   5691000   221.68512      126628.75     -46523.515     -51936.138      50.21623     
   5692000   226.42671      126485.46     -46507.639     -52036.032      50.197282    
   5693000   223.30895      126031.88     -46488.198     -51940.468      50.137207    
   5694000   224.99333      126128.21     -46458.545     -51951.941      50.149977    
   5695000   224.04844      126401.83     -46436.218     -51906.543      50.186216    
   5696000   222.44379      126294.31     -46507.596     -51938.742      50.171982    
   5697000   225.17524      126245.75     -46489.514     -51987.351      50.165552    
   5698000   223.77987      127092.05     -46525.275     -51989.043      50.277398    
   5699000   225.51756      126602.02     -46507.548     -52013.743      50.212697    
   5700000   224.30652      126639.35     -46463.494     -51940.121      50.217631    
   5701000   225.02387      126421.01     -46510.86      -52005.001      50.188755    
   5702000   224.48262      126467.08     -46397.523     -51878.449      50.194851    
   5703000   224.07322      126730.46     -46516.71      -51987.64       50.229671    
   5704000   223.59791      126680.07     -46478.825     -51938.15       50.223013    
   5705000   222.86425      126707.36     -46640.174     -52081.586      50.226619    
   5706000   222.37692      126231.13     -46567.431     -51996.945      50.163615    
   5707000   223.20478      126697.51     -46459.493     -51909.22       50.225318    
   5708000   231.57601      126038.24     -46268.399     -51922.516      50.13805     
   5709000   223.54956      125995.78     -46548.078     -52006.222      50.132419    
   5710000   227.51473      126216.43     -46416.489     -51971.447      50.161667    
   5711000   226.73828      126502.24     -46480.794     -52016.794      50.199502    
   5712000   226.05773      126320.27     -46432.804     -51952.188      50.17542     
   5713000   224.06114      125939.75     -46563.731     -52034.366      50.124987    
   5714000   224.4448       126636.23     -46431.747     -51911.75       50.217219    
   5715000   223.95309      126548.25     -46398.814     -51866.811      50.205587    
   5716000   221.07174      126608.9      -46547.957     -51945.604      50.213607    
   5717000   222.10533      126358.11     -46555.831     -51978.714      50.18043     
   5718000   227.38362      126096.27     -46405.919     -51957.675      50.145744    
   5719000   224.97769      126344.3      -46356.194     -51849.208      50.178601    
   5720000   224.14314      126480.22     -46456.98      -51929.617      50.196589    
   5721000   224.97153      126580.63     -46406.306     -51899.169      50.209869    
   5722000   224.33568      126540.42     -46430.431     -51907.77       50.204552    
   5723000   226.11959      127176.09     -46447.49      -51968.384      50.288478    
   5724000   230.64634      126610.17     -46369.02      -52000.439      50.213774    
   5725000   224.27704      126490.54     -46585.455     -52061.361      50.197954    
   5726000   222.15262      126637.21     -46419.198     -51843.235      50.217348    
   5727000   223.55081      126530.37     -46532.462     -51990.637      50.203222    
   5728000   225.42361      126658.75     -46474.921     -51978.823      50.220196    
   5729000   225.58258      126824.2      -46459.862     -51967.645      50.242052    
   5730000   225.66523      126658.99     -46446.641     -51956.441      50.220228    
   5731000   224.4592       126337.48     -46436.867     -51917.221      50.177698    
   5732000   225.10049      126694.52     -46511.321     -52007.333      50.224923    
   5733000   228.67838      126483.87     -46379.265     -51962.634      50.197072    
   5734000   218.3146       126548.25     -46683.201     -52013.53       50.205587    
   5735000   228.41881      126687.17     -46441.276     -52018.307      50.223952    
   5736000   225.68253      126973.01     -46367.932     -51878.155      50.261696    
   5737000   223.87626      126501.69     -46519.077     -51985.199      50.199429    
   5738000   219.68127      126935.09     -46583.051     -51946.749      50.256691    
   5739000   224.63525      127021.28     -46521.285     -52005.937      50.268065    
   5740000   226.02529      127020.62     -46376.648     -51895.239      50.267978    
   5741000   226.92111      126721.52     -46494.658     -52035.121      50.22849     
   5742000   229.51249      127181.57     -46283.625     -51887.36       50.2892      
   5743000   223.48544      126304.82     -46517.39      -51973.969      50.173375    
   5744000   226.46588      126642.95     -46442.223     -51971.573      50.218108    
   5745000   224.25826      126454.48     -46573.348     -52048.797      50.193183    
   5746000   227.51937      126297.45     -46463.662     -52018.733      50.172398    
   5747000   221.92038      126323.29     -46506.28      -51924.647      50.17582     
   5748000   223.37083      126515.69     -46615.628     -52069.409      50.20128     
   5749000   229.6838       126493.77     -46413.102     -52021.019      50.198381    
   5750000   226.45407      126499.4      -46414.57      -51943.631      50.199125    
   5751000   224.64295      126758.56     -46570.908     -52055.748      50.233384    
   5752000   226.41695      126054.97     -46508.082     -52036.237      50.140269    
   5753000   226.70058      126186.85     -46593.309     -52128.388      50.157748    
   5754000   222.46562      125976.64     -46594.762     -52026.442      50.129881    
   5755000   227.13066      126596.26     -46378.23      -51923.81       50.211935    
   5756000   226.78986      126411.29     -46541.144     -52078.404      50.187468    
   5757000   224.9165       126761.1      -46484.42      -51975.94       50.233719    
   5758000   224.61563      126798.04     -46545.848     -52030.022      50.238599    
   5759000   226.82477      126759.6      -46441.729     -51979.841      50.233521    
   5760000   221.61306      126737.12     -46526.687     -51937.55       50.230552    
   5761000   222.9001       126809.64     -46502.618     -51944.905      50.24013     
   5762000   225.77574      126888.6      -46567.034     -52079.533      50.250555    
   5763000   227.26514      126626.82     -46487.918     -52036.782      50.215975    
   5764000   224.25798      126996.35     -46653.031     -52128.473      50.264775    
   5765000   225.22344      126521.23     -46493.207     -51992.22       50.202013    
   5766000   227.26226      126950.6      -46511.847     -52060.641      50.258739    
   5767000   227.13253      126922        -46392.248     -51937.874      50.254964    
   5768000   225.55069      126838.87     -46602.498     -52109.502      50.24399     
   5769000   226.35624      127081.58     -46390.192     -51916.864      50.276017    
   5770000   227.38259      126989.83     -46421.056     -51972.788      50.263915    
   5771000   226.2632       126771.36     -46494.393     -52018.793      50.235075    
   5772000   226.31719      126795.46     -46481.611     -52007.33       50.238257    
   5773000   223.63474      126654.22     -46580.357     -52040.582      50.219597    
   5774000   227.70402      126870.66     -46579.779     -52139.358      50.248187    
   5775000   226.64394      127274.84     -46490.516     -52024.213      50.301491    
   5776000   222.2035       126854.71     -46538.99      -51964.27       50.246082    
   5777000   226.5228       126972.4      -46443.227     -51973.966      50.261616    
   5778000   227.55999      126590.33     -46521.107     -52077.17       50.211151    
   5779000   225.0049       126810.01     -46573.42      -52067.098      50.240179    
   5780000   226.6351       126881.6      -46411.158     -51944.639      50.249632    
   5781000   227.09049      126487.31     -46524.464     -52069.063      50.197527    
   5782000   221.76864      126651.19     -46715.019     -52129.681      50.219197    
   5783000   223.68086      127107.21     -46613.207     -52074.558      50.279398    
   5784000   226.86482      127290.66     -46446.828     -51985.918      50.303574    
   5785000   225.46123      127276.84     -46619.082     -52123.902      50.301753    
   5786000   224.40375      127431.5      -46512.857     -51991.858      50.32212     
   5787000   225.51158      126983.91     -46522.436     -52028.485      50.263134    
   5788000   225.88271      127010.03     -46536.408     -52051.519      50.26658     
   5789000   228.72563      127334.32     -46522.985     -52107.508      50.309325    
   5790000   222.56753      127568.74     -46637.554     -52071.721      50.340179    
   5791000   225.32719      127357.71     -46630.401     -52131.948      50.312405    
   5792000   225.14969      127252.6      -46516.186     -52013.399      50.29856     
   5793000   226.40702      127500.03     -46355.425     -51883.337      50.33114     
   5794000   223.91069      127119.8      -46491.636     -51958.598      50.281057    
   5795000   224.38211      127394.3      -46595.893     -52074.365      50.317223    
   5796000   226.16328      126969.21     -46528.544     -52050.505      50.261195    
   5797000   223.15389      127232.12     -46469.197     -51917.681      50.295862    
   5798000   229.21715      126549.64     -46463.86      -52060.383      50.20577     
   5799000   221.25936      127379.41     -46611.175     -52013.402      50.315263    
   5800000   225.88254      127251.76     -46491.378     -52006.484      50.298449    
   5801000   224.21168      127267.21     -46518.062     -51992.373      50.300485    
   5802000   226.10704      127385.24     -46573.524     -52094.111      50.31603     
   5803000   230.07129      127351.03     -46420.633     -52038.011      50.311526    
   5804000   223.09055      126852.91     -46578.288     -52025.225      50.245844    
   5805000   231.63672      127100        -46403.292     -52058.891      50.278447    
   5806000   224.89622      126915.87     -46596.376     -52087.4        50.254155    
   5807000   230.80742      126695.46     -46427.369     -52062.721      50.225047    
   5808000   225.05432      127297.6      -46571.565     -52066.45       50.304489    
   5809000   224.79108      127284.93     -46534.854     -52023.311      50.302819    
   5810000   224.70048      127309.98     -46520.489     -52006.735      50.30612     
   5811000   221.65951      127523.7      -46580.732     -51992.729      50.334254    
   5812000   228.27499      126707.56     -46397.363     -51970.882      50.226646    
   5813000   224.61456      127197.67     -46562.023     -52046.171      50.291322    
   5814000   223.8811       127076.97     -46478.151     -51944.391      50.275409    
   5815000   225.77706      126872.43     -46589.554     -52102.085      50.248421    
   5816000   225.10452      126450.16     -46493.102     -51989.212      50.192611    
   5817000   223.09577      126347.32     -46608.694     -52055.759      50.179001    
   5818000   224.97682      126908.78     -46544.821     -52037.814      50.253219    
   5819000   224.76707      126691.43     -46638.285     -52126.157      50.224515    
   5820000   227.8292       127210.46     -46565.384     -52128.019      50.293007    
   5821000   221.67004      127481.67     -46555.42      -51967.674      50.328723    
   5822000   227.42083      126925.29     -46429.146     -51981.811      50.255398    
   5823000   222.1799       126693.25     -46572.653     -51997.356      50.224755    
   5824000   222.88732      127299.23     -46555.661     -51997.637      50.304703    
   5825000   230.69252      126387.28     -46474.276     -52106.822      50.184291    
   5826000   225.90276      126708.63     -46502.14      -52017.74       50.226787    
   5827000   224.76356      127094.91     -46452.68      -51940.465      50.277776    
   5828000   228.46842      126895.84     -46454.42      -52032.663      50.251511    
   5829000   224.23839      127079.86     -46608.622     -52083.585      50.275791    
   5830000   229.19088      126552.25     -46451.838     -52047.72       50.206116    
   5831000   220.89404      126343.97     -46748.395     -52141.703      50.178557    
   5832000   225.86497      126640.25     -46511.037     -52025.714      50.21775     
   5833000   224.7878       126943.33     -46623.869     -52112.246      50.257779    
   5834000   224.57966      126365.84     -46487.47      -51970.765      50.181452    
   5835000   226.99939      126656.55     -46459.539     -52001.914      50.219905    
   5836000   224.67212      126361.93     -46497.779     -51983.332      50.180935    
   5837000   218.72722      126752.93     -46541.209     -51881.612      50.23264     
   5838000   227.11937      126523.78     -46581.141     -52126.445      50.202351    
   5839000   225.25572      126664.35     -46543.181     -52042.983      50.220935    
   5840000   226.17917      127103.26     -46552.879     -52075.228      50.278877    
   5841000   222.98572      126532.1      -46637.238     -52081.616      50.203451    
   5842000   224.26496      126730        -46477.532     -51953.144      50.229611    
   5843000   225.48044      126592.07     -46501.02      -52006.309      50.211381    
   5844000   225.5058       127063.82     -46488.896     -51994.804      50.273676    
   5845000   225.09679      127072.87     -46476.17      -51972.091      50.274869    
   5846000   225.58396      127282.8      -46522.531     -52030.347      50.302538    
   5847000   223.43705      126814.73     -46514.773     -51970.171      50.240802    
   5848000   226.891        126818.05     -46474.212     -52013.941      50.241241    
   5849000   225.96569      127380.53     -46421.371     -51938.508      50.31541     
   5850000   224.63214      127012.42     -46525.397     -52009.974      50.266895    
   5851000   221.91558      127517.03     -46503.449     -51921.699      50.333376    
   5852000   225.46742      127678.19     -46581.039     -52086.01       50.354572    
   5853000   224.95235      126641.73     -46505.109     -51997.504      50.217946    
   5854000   222.56706      126618.43     -46506.773     -51940.93       50.214866    
   5855000   226.49975      127343.46     -46532.149     -52062.325      50.310529    
   5856000   224.90262      127270.97     -46505.999     -51997.18       50.300981    
   5857000   226.48237      126964.84     -46432.881     -51962.633      50.260617    
   5858000   224.56001      127389.35     -46512.588     -51995.404      50.316572    
   5859000   227.39546      126706.41     -46575.677     -52127.723      50.226494    
   5860000   224.08024      127208.54     -46617.129     -52088.23       50.292754    
   5861000   219.71243      126898.42     -46711.461     -52075.919      50.251852    
   5862000   227.90353      126446.43     -46587.864     -52152.314      50.192118    
   5863000   228.51275      127048.05     -46546.365     -52125.691      50.271596    
   5864000   223.15273      127283.84     -46605.829     -52054.284      50.302676    
   5865000   224.90342      127085.98     -46521.5       -52012.7        50.276598    
   5866000   222.11762      126593.41     -46726.977     -52150.16       50.211558    
   5867000   225.92704      126653.38     -46617.901     -52134.094      50.219486    
   5868000   227.16631      126418.49     -46630.201     -52176.651      50.188421    
   5869000   225.56316      126205.94     -46648.86      -52156.169      50.160277    
   5870000   226.62441      127072.82     -46583.482     -52116.701      50.274862    
   5871000   221.93499      126807.08     -46640.69      -52059.414      50.239792    
   5872000   225.99356      127255.22     -46559.638     -52077.455      50.298906    
   5873000   221.74326      126827.27     -46656.173     -52070.216      50.242459    
   5874000   222.19911      126952.3      -46693.514     -52118.686      50.258963    
   5875000   227.05039      127045.09     -46633.498     -52177.119      50.271205    
   5876000   229.95067      127127.97     -46406.616     -52021.049      50.282134    
   5877000   222.94624      127071.15     -46669.575     -52112.989      50.274643    
   5878000   228.61549      127042.8      -46438.693     -52020.526      50.270903    
   5879000   225.07796      126700.58     -46493.84      -51989.302      50.225724    
   5880000   227.95417      126849.93     -46436.611     -52002.298      50.24545     
   5881000   225.80119      126966.27     -46646.677     -52159.797      50.260806    
   5882000   226.89392      126906.86     -46483.599     -52023.399      50.252966    
   5883000   223.83467      126904.78     -46639.136     -52104.242      50.252692    
   5884000   223.72031      127174.08     -46522.622     -51984.935      50.288213    
   5885000   221.87952      127076.03     -46697.736     -52115.106      50.275285    
   5886000   223.58661      126882.49     -46451.453     -51910.502      50.249749    
   5887000   224.0276       126663.37     -46648.447     -52118.263      50.220806    
   5888000   227.30263      126876.44     -46531.415     -52081.194      50.24895     
   5889000   224.06398      126953.39     -46686.956     -52157.66       50.259107    
   5890000   223.99453      126766        -46660.438     -52129.447      50.234367    
   5891000   227.21575      126740.83     -46441.796     -51989.454      50.231042    
   5892000   224.60081      126365.25     -46561.326     -52045.138      50.181374    
   5893000   224.52028      126326.21     -46553.632     -52035.478      50.176206    
   5894000   222.57527      126286.66     -46654.268     -52088.624      50.170969    
   5895000   226.37275      126620.51     -46535.885     -52062.96       50.215141    
   5896000   224.37303      126654.54     -46614.019     -52092.269      50.21964     
   5897000   221.37935      126799.6      -46713.886     -52119.043      50.238805    
   5898000   225.19913      125824.72     -46551.996     -52050.416      50.109721    
   5899000   225.94684      126657.27     -46590.319     -52106.996      50.22        
   5900000   223.90107      126812.96     -46662.778     -52129.505      50.240568    
   5901000   226.9446       126533.09     -46531.677     -52072.714      50.203583    
   5902000   226.2387       126755.81     -46489.632     -52013.434      50.23302     
   5903000   222.68942      126790.2      -46629.864     -52067.007      50.237563    
   5904000   226.56915      126375.7      -46586.149     -52118.019      50.182757    
   5905000   226.94032      126507.23     -46588.383     -52129.316      50.200162    
   5906000   228.70983      126584.7      -46510.884     -52095.021      50.210407    
   5907000   222.02354      126506.53     -46646.822     -52067.708      50.20007     
   5908000   231.44686      126974.78     -46392.251     -52043.215      50.261929    
   5909000   225.51731      126743.23     -46590.433     -52096.622      50.231359    
   5910000   223.7704       127050.17     -46489.776     -51953.313      50.271875    
   5911000   227.08664      126718.35     -46553.385     -52097.891      50.228071    
   5912000   225.15104      126606.71     -46592.118     -52089.364      50.213316    
   5913000   224.06279      127202.95     -46603.079     -52073.755      50.292018    
   5914000   228.12992      126807.96     -46467.392     -52037.37       50.239908    
   5915000   226.87378      127041.19     -46557.117     -52096.426      50.270691    
   5916000   227.7781       126990.66     -46448.155     -52009.543      50.264024    
   5917000   225.87079      126308.46     -46574.946     -52089.765      50.173856    
   5918000   225.34296      126826.2      -46539.508     -52041.44       50.242317    
   5919000   225.83089      126752.64     -46532.667     -52046.512      50.232602    
   5920000   226.59689      126343.92     -46504.343     -52036.891      50.178551    
   5921000   226.40211      126070.76     -46501.34      -52029.132      50.142362    
   5922000   221.99876      126555.54     -46614.033     -52034.314      50.206551    
   5923000   224.03302      126098.44     -46659.429     -52129.378      50.146032    
   5924000   227.8566       126518.02     -46577.1       -52140.405      50.201588    
   5925000   227.96441      126312.56     -46526.172     -52092.109      50.174399    
   5926000   223.28844      126078.25     -46666.516     -52118.285      50.143355    
   5927000   223.96488      126233.73     -46607.957     -52076.242      50.163959    
   5928000   223.81513      126361.86     -46560.912     -52025.541      50.180926    
   5929000   223.22413      126229.66     -46665.286     -52115.486      50.16342     
   5930000   224.2178       126370.11     -46550.38      -52024.84       50.182018    
   5931000   220.97135      126809.87     -46702.496     -52097.691      50.24016     
   5932000   226.05373      126648.68     -46497.569     -52016.855      50.218864    
   5933000   228.30618      126817.49     -46496.013     -52070.294      50.241168    
   5934000   223.58344      126510.36     -46490.117     -51949.089      50.200575    
   5935000   224.29681      126520.02     -46505.063     -51981.453      50.201853    
   5936000   224.87473      126676.52     -46561.178     -52051.678      50.222544    
   5937000   224.53733      126246.61     -46634.532     -52116.794      50.165665    
   5938000   227.26073      126355.35     -46380.469     -51929.225      50.180064    
   5939000   227.3338       126871.83     -46452.898     -52003.438      50.248341    
   5940000   222.87013      126249.07     -46589.885     -52031.441      50.165992    
   5941000   224.86383      126249.68     -46507.45      -51997.684      50.166072    
   5942000   222.96553      126525.99     -46619.086     -52062.972      50.202643    
   5943000   219.83762      126592.19     -46598.349     -51965.863      50.211397    
   5944000   225.18798      126719.94     -46501.862     -52000.01       50.228281    
   5945000   228.69342      126694.7      -46412.441     -51996.177      50.224947    
   5946000   224.55673      126381.96     -46605.712     -52088.447      50.183586    
   5947000   225.73779      126745.04     -46645.045     -52156.617      50.231598    
   5948000   226.122        126222.4      -46499.908     -52020.861      50.162458    
   5949000   222.76446      126406.62     -46732.361     -52171.337      50.18685     
   5950000   225.06399      126820.74     -46562.676     -52057.797      50.241596    
   5951000   224.36302      126593.39     -46549.949     -52027.955      50.211555    
   5952000   222.71285      126681.37     -46650.137     -52087.853      50.223184    
   5953000   224.45649      126312.18     -46563.615     -52043.904      50.174349    
   5954000   225.9262       126357.99     -46375.735     -51891.907      50.180414    
   5955000   223.8604       126103.6      -46565.614     -52031.349      50.146715    
   5956000   225.78527      126044.55     -46550.756     -52063.488      50.138887    
   5957000   224.64483      126198.45     -46541.594     -52026.481      50.159286    
   5958000   222.69157      126909.46     -46505.53      -51942.727      50.253309    
   5959000   225.83721      126287.41     -46582.238     -52096.238      50.171068    
   5960000   225.94942      126287.71     -46457.473     -51974.213      50.171108    
   5961000   228.66712      126332.93     -46416.185     -51999.279      50.177096    
   5962000   227.91244      126310.28     -46445.385     -52010.053      50.174097    
   5963000   221.0828       126401.73     -46632.221     -52030.138      50.186202    
   5964000   227.00596      126427.18     -46536.346     -52078.881      50.189571    
   5965000   226.21698      125974.99     -46608.375     -52131.647      50.129663    
   5966000   221.63911      126476.08     -46459.21      -51870.71       50.196041    
   5967000   225.70862      126235.08     -46559.267     -52070.127      50.164138    
   5968000   226.84957      125967.2      -46390.061     -51928.778      50.128629    
   5969000   225.0271       126092.74     -46540.171     -52034.391      50.145277    
   5970000   225.06892      126178.42     -46583.683     -52078.924      50.156631    
   5971000   225.25068      126132.58     -46523.709     -52023.388      50.150556    
   5972000   225.54062      126397.44     -46471.928     -51978.686      50.185635    
   5973000   223.4269       126410.96     -46592.763     -52047.913      50.187425    
   5974000   223.63179      125934.22     -46529.025     -51989.177      50.124254    
   5975000   226.8958       126686        -46557.997     -52097.843      50.223796    
   5976000   226.50528      126209.81     -46566.378     -52096.689      50.160791    
   5977000   225.91355      126108.5      -46533.653     -52049.517      50.147365    
   5978000   220.52536      126220.95     -46596.241     -51980.547      50.162266    
   5979000   222.58099      126316.76     -46500.908     -51935.405      50.174955    
   5980000   226.23222      126799.68     -46441.627     -51965.271      50.238815    
   5981000   223.34243      126323.69     -46561.967     -52015.054      50.175873    
   5982000   226.4304       126389.36     -46581.671     -52110.154      50.184566    
   5983000   226.1839       126559.68     -46503.614     -52026.078      50.207098    
   5984000   225.89757      126472.73     -46413.31      -51928.783      50.195598    
   5985000   228.46097      126930.36     -46305.556     -51883.617      50.256068    
   5986000   223.62362      126958.93     -46580.099     -52040.052      50.259838    
   5987000   224.08337      127091.01     -46430.581     -51901.76       50.277261    
   5988000   222.32773      126544.32     -46585.143     -52013.456      50.205068    
   5989000   226.22667      126856.99     -46384.531     -51908.039      50.246382    
   5990000   224.72514      126665.51     -46471.267     -51958.114      50.221088    
   5991000   221.97736      126484.34     -46633.942     -52053.7        50.197134    
   5992000   229.02502      127134.67     -46368.577     -51960.41       50.283018    
   5993000   224.0851       127148.91     -46450.261     -51921.481      50.284896    
   5994000   225.0835       127138.64     -46485.007     -51980.605      50.283541    
   5995000   225.12678      127292.3      -46489.217     -51985.871      50.30379     
   5996000   228.62958      126761.01     -46441.958     -52024.135      50.233708    
   5997000   225.5795       126796.78     -46528.918     -52036.625      50.238432    
   5998000   221.91505      126828.66     -46651.251     -52069.488      50.242642    
   5999000   227.56404      126815.15     -46451.255     -52007.416      50.240858    
   6000000   225.95188      126682.48     -46548.914     -52065.714      50.223331    
   6001000   222.53071      126644.36     -46643.909     -52077.177      50.218293    
   6002000   223.44924      126188.39     -46708.106     -52163.801      50.157953    
   6003000   228.85803      126548.42     -46448.811     -52036.567      50.205609    
   6004000   226.01519      126189.23     -46549.605     -52067.95       50.158063    
   6005000   221.3314       126768.42     -46545.223     -51949.21       50.234686    
   6006000   220.97642      127127.86     -46629.37      -52024.69       50.28212     
   6007000   226.91384      126495.01     -46407.777     -51948.063      50.198546    
   6008000   222.10039      126908.16     -46549.035     -51971.797      50.253137    
   6009000   226.10122      126803.74     -46540.894     -52061.34       50.239352    
   6010000   223.14337      126714.67     -46628.554     -52076.782      50.227585    
   6011000   223.26411      126592.23     -46544.003     -51995.178      50.211402    
   6012000   226.2752       126807.05     -46636.364     -52161.058      50.239788    
   6013000   225.94055      126771.32     -46563.293     -52079.816      50.235068    
   6014000   227.33962      126799.45     -46461.709     -52012.391      50.238784    
   6015000   222.62863      127057.52     -46549.968     -51985.628      50.272844    
   6016000   225.7053       126723.95     -46570.355     -52081.134      50.228812    
   6017000   223.07336      126944.43     -46538.011     -51984.529      50.257925    
   6018000   224.77347      126333.7      -46513.781     -52001.809      50.177198    
   6019000   220.68236      126549.67     -46609.537     -51997.677      50.205774    
   6020000   224.89938      126503.64     -46442.301     -51933.403      50.199687    
   6021000   223.33001      126488.05     -46612.464     -52065.248      50.197625    
   6022000   226.7178       127211.16     -46418.26      -51953.76       50.2931      
   6023000   225.73852      126066.04     -46542.997     -52054.587      50.141737    
   6024000   227.16499      126166.23     -46357.646     -51904.065      50.155016    
   6025000   225.13154      126182.11     -46535.553     -52032.323      50.15712     
   6026000   222.79564      126407.22     -46557.837     -51997.575      50.18693     
   6027000   225.70464      126513.27     -46363.774     -51874.537      50.200961    
   6028000   227.21313      126150.71     -46458.925     -52006.519      50.15296     
   6029000   222.72759      126413.25     -46710.422     -52148.497      50.187727    
   6030000   224.81425      126282.74     -46452.555     -51941.578      50.17045     
   6031000   223.03266      126423.84     -46458.663     -51904.187      50.189129    
   6032000   223.73143      126292.87     -46588.325     -52050.91       50.171791    
   6033000   224.93089      126423.98     -46475.843     -51967.714      50.189148    
   6034000   228.15701      126474.54     -46414.023     -51984.662      50.195837    
   6035000   222.48276      126462.99     -46558.106     -51990.204      50.194309    
   6036000   223.21621      125911.1      -46442.282     -51892.287      50.121186    
   6037000   223.82061      126122.83     -46662.853     -52127.616      50.149265    
   6038000   224.79434      126271.99     -46544.22      -52032.757      50.169027    
   6039000   228.25395      126508.91     -46417.974     -51990.98       50.200384    
   6040000   226.82468      126479.4      -46459.552     -51997.661      50.196481    
   6041000   228.21777      126566.06     -46373.584     -51945.707      50.207942    
   6042000   221.54912      126991.12     -46556.678     -51965.98       50.264085    
   6043000   226.36397      126678        -46489.278     -52016.139      50.222739    
   6044000   224.44932      126928.43     -46469.499     -51949.612      50.255813    
   6045000   224.06151      126372.53     -46483.157     -51953.802      50.182339    
   6046000   224.49665      126487.43     -46523.563     -52004.831      50.197543    
   6047000   229.87178      126742.98     -46337.948     -51950.455      50.231325    
   6048000   231.25243      126612.43     -46266.466     -51912.683      50.214073    
   6049000   228.25264      126345.95     -46349.986     -51922.961      50.178819    
   6050000   224.92577      126720.17     -46387.414     -51879.16       50.228312    
   6051000   227.3508       126574.76     -46320.517     -51871.472      50.209092    
   6052000   224.5792       126609.37     -46447.485     -51930.769      50.213668    
   6053000   225.81174      126590.93     -46417.525     -51930.903      50.21123     
   6054000   222.34155      126565.51     -46446.668     -51875.318      50.207869    
   6055000   226.98388      125905.43     -46471.025     -52013.021      50.120434    
   6056000   223.64742      126312.73     -46344.035     -51804.57       50.174422    
   6057000   225.08519      126457.44     -46432.271     -51927.91       50.193574    
   6058000   226.05875      126264.03     -46267.92      -51787.329      50.167972    
   6059000   226.40126      125967.65     -46302.658     -51830.43       50.128689    
   6060000   227.81274      126022.51     -46307.734     -51869.968      50.135964    
   6061000   225.04431      126319.15     -46392.445     -51887.085      50.175271    
   6062000   227.41926      126363.62     -46265.461     -51818.088      50.181159    
   6063000   226.7756       126262.21     -46195.369     -51732.28       50.167731    
   6064000   228.06725      126051.44     -46351.021     -51919.469      50.139801    
   6065000   225.27738      126867.82     -46466.122     -51966.453      50.247812    
   6066000   220.71534      126056.4      -46605.76      -51994.705      50.140458    
   6067000   226.21864      126236.27     -46423.669     -51946.982      50.164295    
   6068000   224.98142      126534.06     -46388.013     -51881.118      50.20371     
   6069000   227.88238      126988.43     -46357.576     -51921.51       50.26373     
   6070000   223.94316      127081.53     -46611.155     -52078.91       50.276012    
   6071000   225.67353      126471.16     -46315.283     -51825.286      50.19539     
   6072000   222.19071      126757.86     -46485.457     -51910.424      50.233291    
   6073000   223.88542      126762.17     -46422.915     -51889.26       50.233861    
   6074000   227.36517      126855.31     -46336.04      -51887.346      50.24616     
   6075000   226.14775      126695.91     -46451.168     -51972.749      50.225107    
   6076000   227.10507      126400.66     -46419.969     -51964.925      50.186061    
   6077000   226.52422      126599.83     -46359.928     -51890.701      50.212407    
   6078000   220.4564       126678.63     -46644.03      -52026.652      50.222823    
   6079000   227.86261      126419.76     -46435.572     -51999.023      50.188589    
   6080000   224.34514      125929.81     -46574.823     -52052.393      50.123668    
   6081000   226.41851      126300.7      -46472.476     -52000.669      50.172828    
   6082000   227.1528       126455.73     -46467.419     -52013.54       50.193349    
   6083000   224.85928      126450.9      -46498.155     -51988.278      50.192709    
   6084000   226.67785      126157.88     -46501.801     -52036.326      50.15391     
   6085000   223.455        126774.61     -46378.357     -51834.193      50.235504    
   6086000   226.13393      126479.94     -46450.789     -51972.034      50.196551    
   6087000   228.49355      126328.78     -46228.604     -51807.461      50.176546    
   6088000   225.82299      126582.61     -46413.569     -51927.221      50.21013     
   6089000   222.86462      126583.92     -46529.023     -51970.445      50.210304    
   6090000   226.35748      126693.22     -46529.28      -52055.982      50.22475     
   6091000   226.62484      126737.91     -46346.246     -51879.476      50.230656    
   6092000   223.19624      126447.07     -46415.291     -51864.809      50.192203    
   6093000   224.5941       126342.43     -46414.048     -51897.696      50.178354    
   6094000   223.23492      126142.8      -46448.929     -51899.392      50.151911    
   6095000   222.99953      125754.93     -46504.683     -51949.399      50.100455    
   6096000   223.81567      126252.6      -46396.391     -51861.033      50.166459    
   6097000   228.80798      126535.85     -46334.941     -51921.474      50.203947    
   6098000   221.16552      126137.66     -46633.466     -52033.402      50.151231    
   6099000   226.39738      125798.22     -46450.11      -51977.787      50.106204    
   6100000   225.7185       125712.39     -46410.055     -51921.157      50.094805    
   6101000   228.64992      126143.29     -46278.032     -51860.706      50.151976    
   6102000   225.52917      126433.48     -46484.459     -51990.937      50.190405    
   6103000   227.21343      126442.06     -46372.457     -51920.059      50.19154     
   6104000   226.23965      126138.04     -46397.718     -51921.543      50.15128     
   6105000   222.25435      125832.66     -46474.81      -51901.331      50.110775    
   6106000   228.10663      126470.04     -46350.596     -51920.005      50.195242    
   6107000   225.66347      126436.04     -46366.767     -51876.524      50.190744    
   6108000   228.80138      126093.12     -46330.328     -51916.7        50.145327    
   6109000   223.9766       126113.15     -46521.417     -51989.988      50.147981    
   6110000   225.73645      126386.29     -46416.692     -51928.231      50.18416     
   6111000   226.74382      126054.92     -46462.41      -51998.545      50.140262    
   6112000   223.88909      127239.67     -46397.151     -51863.586      50.296856    
   6113000   226.70377      126290.49     -46305.886     -51841.043      50.171477    
   6114000   225.12381      126522.6      -46451.667     -51948.248      50.202195    
   6115000   226.48866      126400.86     -46348.167     -51878.072      50.186088    
   6116000   227.72194      125995.78     -46541.001     -52101.018      50.132419    
   6117000   222.80657      126105.92     -46618.69      -52058.694      50.147023    
   6118000   226.42337      126392.03     -46389.918     -51918.229      50.184919    
   6119000   224.23709      126533.34     -46501.019     -51975.951      50.203616    
   6120000   225.6485       126649.42     -46341.15      -51850.542      50.218962    
   6121000   227.01834      126198.49     -46387.585     -51930.423      50.159291    
   6122000   225.02325      126777.51     -46614.41      -52108.536      50.235887    
   6123000   226.7981       126828.24     -46421.942     -51959.403      50.242587    
   6124000   226.38474      126076.42     -46518.762     -52046.13       50.143113    
   6125000   225.99376      126413.46     -46397.764     -51915.585      50.187756    
   6126000   224.84246      126645.11     -46496.922     -51986.634      50.218392    
   6127000   227.61014      126907.22     -46424.502     -51981.789      50.253013    
   6128000   225.03318      126515.95     -46512.873     -52007.241      50.201314    
   6129000   224.10219      126035.69     -46567.814     -52039.452      50.137712    
   6130000   221.74527      126631.96     -46489.035     -51903.126      50.216654    
   6131000   228.7721       126456.74     -46450.457     -52036.114      50.193483    
   6132000   221.65255      126598.18     -46619.268     -52031.095      50.212188    
   6133000   225.0703       126565.27     -46490.832     -51986.107      50.207837    
   6134000   221.57874      126230.5      -46620.036     -52030.062      50.163531    
   6135000   225.85362      126702.73     -46536.489     -52050.889      50.226007    
   6136000   227.77186      126047.03     -46472.656     -52033.892      50.139216    
   6137000   223.88441      126468.4      -46612.494     -52078.814      50.195025    
   6138000   225.96402      126399.62     -46561.994     -52079.09       50.185924    
   6139000   224.26623      126401.09     -46582.608     -52058.251      50.186119    
   6140000   226.09473      126644.42     -46271.812     -51792.099      50.218301    
   6141000   224.17619      126631.71     -46551.586     -52025.03       50.216621    
   6142000   222.52405      125907.22     -46596.566     -52029.672      50.120672    
   6143000   223.65645      125959.97     -46478.572     -51939.326      50.127669    
   6144000   223.58678      126172.34     -46556.244     -52015.298      50.155826    
   6145000   227.5443       126028.21     -46386.023     -51941.702      50.136721    
   6146000   221.07899      126152.09     -46549.426     -51947.249      50.153143    
   6147000   224.93039      126374.98     -46488.055     -51979.914      50.182662    
   6148000   225.91732      126400.44     -46420.473     -51936.428      50.186032    
   6149000   226.45798      126150.84     -46374.895     -51904.052      50.152976    
   6150000   219.84657      126229.67     -46585.387     -51953.12       50.163421    
   6151000   227.1309       125704.13     -46413.058     -51958.644      50.093708    
   6152000   224.72336      126387.42     -46438.116     -51924.92       50.184309    
   6153000   226.48945      125819.21     -46376.382     -51906.307      50.108991    
   6154000   225.28029      126143.81     -46339.104     -51839.506      50.152045    
   6155000   225.00207      126537.6      -46420.034     -51913.643      50.204179    
   6156000   223.45458      126591.31     -46484.319     -51940.145      50.211281    
   6157000   227.6506       125848.14     -46311.568     -51869.843      50.11283     
   6158000   224.71166      126046.16     -46532.535     -52019.054      50.139101    
   6159000   225.00617      126132.96     -46489.455     -51983.165      50.150608    
   6160000   228.18887      125710.71     -46413.576     -51984.993      50.094582    
   6161000   221.56188      126060.58     -46529.366     -51938.98       50.141012    
   6162000   227.45403      126311.94     -46373.484     -51926.96       50.174317    
   6163000   225.88548      125539.39     -46512.456     -52027.635      50.071815    
   6164000   226.3766       125904.27     -46414.108     -51941.277      50.12028     
   6165000   223.26613      126068.73     -46468.519     -51919.744      50.142093    
   6166000   222.92831      126195.97     -46620.138     -52063.114      50.158956    
   6167000   226.60296      126535.16     -46470.202     -52002.898      50.203855    
   6168000   222.72156      126492.42     -46643.38      -52081.308      50.198202    
   6169000   224.79277      126564.03     -46506.223     -51994.721      50.207673    
   6170000   225.16258      125975.32     -46623.391     -52120.919      50.129705    
   6171000   222.65794      126395.11     -46450.708     -51887.083      50.185327    
   6172000   226.9802       125735.71     -46498.938     -52040.845      50.097903    
   6173000   227.72487      126002.56     -46419.274     -51979.362      50.133319    
   6174000   223.20589      126126.72     -46534.423     -51984.177      50.14978     
   6175000   221.67949      126120.75     -46578.487     -51990.972      50.148989    
   6176000   226.99734      126723.19     -46392.905     -51935.23       50.228711    
   6177000   220.43177      126094.54     -46698.699     -52080.721      50.145514    
   6178000   227.75414      126415.37     -46519.428     -52080.231      50.188008    
   6179000   225.97113      126336.76     -46404.089     -51921.358      50.177603    
   6180000   224.87412      126633.03     -46524.507     -52014.992      50.216796    
   6181000   224.21006      126562.47     -46502.033     -51976.304      50.207467    
   6182000   225.05306      126935.42     -46534.213     -52029.067      50.256736    
   6183000   224.81889      126110.52     -46523.237     -52012.374      50.147633    
   6184000   223.98314      126257.85     -46526.568     -51995.299      50.167153    
   6185000   224.17813      126326.78     -46607.728     -52081.22       50.176282    
   6186000   226.31564      126357.04     -46463.052     -51988.732      50.180288    
   6187000   222.15442      126592.11     -46541.165     -51965.247      50.211387    
   6188000   225.93656      126609.53     -46534.198     -52050.623      50.21369     
   6189000   229.7641       126577.45     -46497.075     -52106.952      50.209448    
   6190000   222.12175      126321.57     -46644.487     -52067.77       50.175592    
   6191000   225.18518      126535.56     -46538.743     -52036.823      50.203908    
   6192000   226.15064      126662.42     -46443.365     -51965.017      50.22068     
   6193000   222.43311      126879.85     -46609.666     -52040.552      50.2494      
   6194000   227.61808      126796.93     -46406.712     -51964.193      50.238451    
   6195000   224.95597      126342.35     -46525.49      -52017.973      50.178344    
   6196000   225.79488      126062.46     -46501.483     -52014.449      50.141262    
   6197000   224.41679      126450.59     -46485.475     -51964.794      50.192669    
   6198000   225.30369      126380.26     -46549.947     -52050.92       50.183361    
   6199000   224.23903      126702.99     -46496.222     -51971.201      50.226042    
   6200000   226.65105      126167.48     -46454.621     -51988.491      50.155182    
   6201000   225.92602      126487.96     -46434.843     -51951.011      50.197613    
   6202000   220.6697       126376.99     -46676.701     -52064.532      50.182929    
   6203000   226.36746      126327.08     -46457.119     -51984.065      50.176322    
   6204000   227.31806      126152.94     -46398.557     -51948.713      50.153255    
   6205000   224.04126      126213.98     -46489.103     -51959.253      50.161343    
   6206000   225.87593      126064.84     -46468.997     -51983.942      50.141578    
   6207000   226.0088       126029.2      -46389.253     -51907.442      50.136852    
   6208000   225.02802      126123.76     -46330.868     -51825.111      50.149388    
   6209000   222.17681      126132.06     -46479.648     -51904.276      50.150487    
   6210000   227.3776       126336.41     -46255.516     -51807.125      50.177557    
   6211000   224.44033      126391.95     -46454.939     -51934.832      50.184909    
   6212000   224.08446      126552.7      -46468.12      -51939.324      50.206175    
   6213000   224.16126      126254.08     -46611.228     -52084.307      50.166654    
   6214000   227.45247      126801.35     -46394.298     -51947.736      50.239036    
   6215000   223.20265      126866.15     -46508.193     -51957.867      50.247592    
   6216000   223.86977      126338.78     -46581.736     -52047.699      50.17787     
   6217000   225.51604      126510.3      -46523.308     -52029.466      50.200568    
   6218000   224.50015      126867.24     -46407.318     -51888.672      50.247735    
   6219000   227.3092       126336.98     -46416.902     -51966.841      50.177632    
   6220000   223.19208      126082.83     -46538.132     -51987.548      50.143963    
   6221000   224.17865      126034.74     -46436.633     -51910.137      50.137587    
   6222000   226.46378      126313.72     -46380.531     -51909.828      50.174552    
   6223000   223.72616      126156.05     -46533.595     -51996.052      50.153667    
   6224000   223.95853      125955.15     -46499.651     -51967.781      50.12703     
   6225000   227.13892      126177.06     -46340         -51885.782      50.156451    
   6226000   223.84115      125752.71     -46465.355     -51930.619      50.10016     
   6227000   227.63954      126176.57     -46419.407     -51977.412      50.156387    
   6228000   226.90367      126688.56     -46421.128     -51961.166      50.224135    
   6229000   225.24245      126160.76     -46387.612     -51887.09       50.154292    
   6230000   230.24506      126305.68     -46354.935     -51976.556      50.173489    
   6231000   225.0364       126198.59     -46466.588     -51961.035      50.159303    
   6232000   223.97773      126453.27     -46451.981     -51920.58       50.193024    
   6233000   226.70311      126075.15     -46531.31      -52066.451      50.142944    
   6234000   225.31865      126989.31     -46360.509     -51861.847      50.263847    
   6235000   223.60448      126478.41     -46512.419     -51971.904      50.196349    
   6236000   226.01526      126264.73     -46457.168     -51975.515      50.168066    
   6237000   223.65463      126729.72     -46500.774     -51961.484      50.229573    
   6238000   225.14084      126504.78     -46458.639     -51955.636      50.199838    
   6239000   225.53865      126866.31     -46378.436     -51885.145      50.247613    
   6240000   224.79337      126563.94     -46443.164     -51931.678      50.207662    
   6241000   225.66386      126570.97     -46474.045     -51983.812      50.208591    
   6242000   227.04093      126738.76     -46325.874     -51869.263      50.230768    
   6243000   225.88311      126274.35     -46488.799     -52003.919      50.169339    
   6244000   226.16292      126420.75     -46493.306     -52015.258      50.18872     
   6245000   227.49298      126742.13     -46422.831     -51977.258      50.231213    
   6246000   224.01422      126122.13     -46635.651     -52105.141      50.149172    
   6247000   224.12305      126219.4      -46472.624     -51944.771      50.162061    
   6248000   224.60162      125928.75     -46548.943     -52032.775      50.123528    
   6249000   224.56758      126288.77     -46653.029     -52136.029      50.171248    
   6250000   222.58611      126297.62     -46642.492     -52077.114      50.172421    
   6251000   228.25802      126358.23     -46450.321     -52023.427      50.180445    
   6252000   226.6059       126577.65     -46524.262     -52057.029      50.209474    
   6253000   228.26415      126585.41     -46445.921     -52019.176      50.210501    
   6254000   227.59915      126197.81     -46366.954     -51923.972      50.159201    
   6255000   226.41403      125764.78     -46551.843     -52079.927      50.101763    
   6256000   222.92432      126047.57     -46650.671     -52093.55       50.139288    
   6257000   224.74535      126489.47     -46503.375     -51990.716      50.197812    
   6258000   226.38085      126177.92     -46475.088     -52002.361      50.156565    
   6259000   223.69991      126434.48     -46595.441     -52057.257      50.190537    
   6260000   222.74795      125934.57     -46564.469     -52003.042      50.1243      
   6261000   223.07646      126232.09     -46506.101     -51952.695      50.163742    
   6262000   225.43958      126322.79     -46640.434     -52144.725      50.175754    
   6263000   223.59808      126188.4      -46479.754     -51939.083      50.157954    
   6264000   227.01851      126240.67     -46456.544     -51999.386      50.164879    
   6265000   225.85149      126504.33     -46580.519     -52094.867      50.199778    
   6266000   227.96214      125887.59     -46383.109     -51948.991      50.118066    
   6267000   223.91638      126663.93     -46537.431     -52004.532      50.22088     
   6268000   225.84491      126572.11     -46484.961     -51999.148      50.208742    
   6269000   222.24713      126859.54     -46664.506     -52090.851      50.24672     
   6270000   224.67037      126611.28     -46479.274     -51964.784      50.213921    
   6271000   224.05161      126371.07     -46535.493     -52005.896      50.182145    
   6272000   224.63721      126668.81     -46432.367     -51917.068      50.221525    
   6273000   226.49688      126962.83     -46356.44      -51886.546      50.260353    
   6274000   222.9761       126060.37     -46517.544     -51961.687      50.140985    
   6275000   226.35594      126395.54     -46415.989     -51942.654      50.185384    
   6276000   227.07042      126629.09     -46316.454     -51860.564      50.216275    
   6277000   224.77123      126165.21     -46511.819     -51999.792      50.154882    
   6278000   225.56386      126235.34     -46564.949     -52072.274      50.164173    
   6279000   224.21014      126388.22     -46668.386     -52142.659      50.184415    
   6280000   227.00977      126089.05     -46366.981     -51909.61       50.144787    
   6281000   224.11722      126677.32     -46592.819     -52064.823      50.222649    
   6282000   226.80317      126111.32     -46502.466     -52040.05       50.147739    
   6283000   227.26672      126234.1      -46432.385     -51981.287      50.164008    
   6284000   221.95516      126356.78     -46650.004     -52069.22       50.180253    
   6285000   223.86889      126305.91     -46463.79      -51929.731      50.173519    
   6286000   226.94314      126328.32     -46531.253     -52072.255      50.176486    
   6287000   229.02667      126323.89     -46433.262     -52025.135      50.175899    
   6288000   225.04044      125824.45     -46548.628     -52043.174      50.109686    
   6289000   225.35331      126386.19     -46540.063     -52042.247      50.184146    
   6290000   225.66085      126212.56     -46432.105     -51941.798      50.161155    
   6291000   221.94316      126249.67     -46541.422     -51960.345      50.16607     
   6292000   225.57607      126395.01     -46500.267     -52007.891      50.185314    
   6293000   222.04371      126338.9      -46565.247     -51986.625      50.177887    
   6294000   225.43372      126306.59     -46528.412     -52032.56       50.173608    
   6295000   226.20735      126400.32     -46403.47      -51926.507      50.186017    
   6296000   221.70066      126728.21     -46531.792     -51944.794      50.229374    
   6297000   221.87191      126820.42     -46555.414     -51972.597      50.241554    
   6298000   229.11593      126555.92     -46340.363     -51934.416      50.206601    
   6299000   224.24064      126242.98     -46532.074     -52007.092      50.165185    
   6300000   224.24636      126310.83     -46590.895     -52066.053      50.17417     
   6301000   225.00416      126306.04     -46669.442     -52163.102      50.173536    
   6302000   226.30677      126557.03     -46471.986     -51997.45       50.206748    
   6303000   223.10492      126353.14     -46694.439     -52141.727      50.179771    
   6304000   224.53967      126668.78     -46488.218     -51970.537      50.221521    
   6305000   222.41684      127157        -46492.752     -51923.24       50.285962    
   6306000   223.53549      126859.23     -46659.42      -52117.221      50.246678    
   6307000   223.87039      126576.8      -46489.035     -51955.013      50.209363    
   6308000   223.65958      126710.91     -46594.12      -52054.951      50.227089    
   6309000   224.99138      126293.05     -46464.45      -51957.798      50.171816    
   6310000   228.8796       127005.41     -46417.911     -52006.193      50.265971    
   6311000   225.54266      126526.32     -46514.189     -52020.997      50.202687    
   6312000   226.50853      126652.21     -46654.921     -52185.311      50.219332    
   6313000   226.23869      126444.77     -46505.502     -52029.304      50.191898    
   6314000   223.64149      126471.18     -46445.749     -51906.138      50.195392    
   6315000   222.72368      126239.67     -46477.653     -51915.633      50.164746    
   6316000   223.75369      126414.39     -46530.691     -51993.82       50.187878    
   6317000   226.95329      126378.1      -46509.087     -52050.337      50.183076    
   6318000   225.2842       126110.68     -46460.302     -51960.8        50.147655    
   6319000   223.80753      126160.91     -46656.313     -52120.756      50.154311    
   6320000   228.27098      126154.94     -46548.219     -52121.641      50.15352     
   6321000   223.86985      126036.29     -46580.42      -52046.385      50.137791    
   6322000   229.58982      126710.82     -46391.967     -51997.59       50.227077    
   6323000   225.9952       126162.77     -46540.807     -52058.664      50.154558    
   6324000   224.11798      126274.05     -46477.504     -51949.527      50.1693      
   6325000   226.78587      126414.6      -46527.143     -52064.305      50.187906    
   6326000   224.564        126540.57     -46427.007     -51909.92       50.204571    
   6327000   225.00842      126719.23     -46561.647     -52055.411      50.228187    
   6328000   225.534        126195.46     -46556.25      -52062.847      50.158889    
   6329000   225.63572      126535.05     -46398.827     -51907.907      50.203842    
   6330000   222.95276      126057.75     -46578.182     -52021.755      50.140637    
   6331000   226.8701       126241.38     -46469.386     -52008.605      50.164972    
   6332000   225.87401      126034.66     -46473.308     -51988.206      50.137576    
   6333000   222.38149      125885.93     -46601.598     -52031.223      50.117847    
   6334000   222.25491      126101.01     -46497.312     -51923.847      50.146372    
   6335000   226.13215      125205.09     -46475.983     -51997.184      50.02733     
   6336000   223.08616      125735.66     -46547.977     -51994.807      50.097896    
   6337000   225.99865      126314.07     -46518.909     -52036.85       50.174599    
   6338000   225.18177      125571.56     -46541.751     -52039.747      50.076093    
   6339000   229.28512      126022.41     -46487.413     -52085.597      50.135951    
   6340000   224.76519      126045.97     -46445.442     -51933.267      50.139076    
   6341000   224.65255      125987.73     -46469.374     -51954.449      50.131352    
   6342000   228.53495      125986.99     -46414.486     -51994.353      50.131254    
   6343000   226.71228      125967.28     -46509.81      -52045.175      50.128639    
   6344000   222.38523      126103.96     -46630.024     -52059.74       50.146764    
   6345000   226.10119      126510.87     -46526.485     -52046.93       50.200644    
   6346000   224.50878      126150.77     -46370.692     -51852.257      50.152967    
   6347000   223.45754      126421.59     -46589.645     -52045.543      50.188831    
   6348000   222.70606      126561.01     -46598.133     -52035.683      50.207275    
   6349000   225.36378      126005.8      -46426.782     -51929.222      50.133748    
   6350000   223.79699      126226.42     -46477.852     -51942.038      50.162991    
   6351000   222.95504      126181.13     -46649.992     -52093.621      50.15699     
   6352000   226.20177      125811.71     -46477.324     -52000.225      50.107994    
   6353000   225.89825      126094.69     -46532.556     -52048.046      50.145534    
   6354000   224.19032      126500.83     -46592.041     -52065.83       50.199315    
   6355000   228.02334      126348.29     -46484.392     -52051.768      50.17913     
   6356000   224.04362      126641.5      -46541.602     -52011.81       50.217915    
   6357000   222.30558      126310.54     -46553.048     -51980.82       50.174131    
   6358000   229.73051      126571.96     -46361.22      -51970.277      50.208723    
   6359000   223.08199      126042.79     -46547.354     -51994.083      50.138654    
   6360000   224.01189      126267.85     -46585.076     -52054.508      50.168479    
   6361000   224.70089      126645.98     -46688.644     -52174.899      50.218507    
   6362000   225.34056      126297.07     -46580.973     -52082.847      50.172348    
   6363000   224.46642      126460.46     -46677.281     -52157.811      50.193974    
   6364000   225.07488      126751.53     -46527.053     -52022.44       50.232455    
   6365000   225.19246      126507.39     -46477.825     -51976.082      50.200183    
   6366000   226.35616      126326.9      -46541.315     -52067.985      50.176297    
   6367000   221.24819      126596.98     -46644.55      -52046.505      50.21203     
   6368000   226.24664      126322.96     -46493.335     -52017.331      50.175776    
   6369000   226.9485       126451.56     -46605.394     -52146.527      50.192797    
   6370000   224.92843      126386.38     -46519.568     -52011.379      50.184171    
   6371000   227.35964      126415.53     -46489.691     -52040.862      50.18803     
   6372000   222.23743      127073.36     -46525.297     -51951.405      50.274933    
   6373000   222.1786       126656.04     -46637.841     -52062.513      50.219838    
   6374000   223.27484      126396.84     -46615.085     -52066.522      50.185556    
   6375000   224.40895      126414.25     -46666.349     -52145.476      50.187859    
   6376000   226.57478      126176.49     -46545.041     -52077.049      50.156376    
   6377000   224.81472      126424.03     -46634.536     -52123.57       50.189154    
   6378000   222.30164      126331.46     -46730.679     -52158.355      50.176902    
   6379000   225.19697      126628.62     -46608.342     -52106.71       50.216213    
   6380000   224.72321      126299.44     -46534.551     -52021.351      50.172662    
   6381000   222.10703      126418.51     -46542.551     -51965.475      50.188423    
   6382000   224.05213      126427.55     -46638.664     -52109.079      50.18962     
   6383000   225.45941      126048.82     -46553.227     -52058.002      50.139454    
   6384000   222.74949      126662.06     -46575.061     -52013.672      50.220633    
   6385000   224.65292      126939.67     -46523.686     -52008.77       50.257297    
   6386000   224.87899      127011.25     -46593.211     -52083.815      50.266741    
   6387000   225.47541      126764.98     -46486.713     -51991.878      50.234232    
   6388000   222.98415      126833.16     -46607.715     -52052.055      50.243236    
   6389000   226.81085      126786.34     -46503.198     -52040.969      50.237054    
   6390000   227.06201      126502.26     -46518.467     -52062.371      50.199505    
   6391000   224.16426      126242.05     -46695.379     -52168.532      50.165061    
   6392000   222.09352      126326.01     -46721.143     -52143.737      50.17618     
   6393000   226.09373      126345.11     -46661.22      -52181.482      50.178709    
   6394000   224.91918      126344.77     -46687.327     -52178.912      50.178663    
   6395000   227.15724      126577.76     -46564.126     -52110.355      50.209489    
   6396000   225.0931       126794.32     -46664.044     -52159.875      50.238108    
   6397000   223.37089      126809.82     -46613.931     -52067.713      50.240154    
   6398000   222.40701      126616.61     -46693.174     -52123.423      50.214626    
   6399000   225.45221      127008.23     -46643.072     -52147.672      50.266343    
   6400000   224.00322      126411.17     -46754.211     -52223.432      50.187452    
   6401000   227.13112      126595.72     -46584.701     -52130.292      50.211864    
   6402000   226.30115      126375.15     -46651.126     -52176.453      50.182685    
   6403000   228.9272       126744.17     -46540.591     -52130.035      50.231482    
   6404000   222.44604      127025.88     -46696.039     -52127.24       50.268671    
   6405000   223.85287      126927.98     -46621.458     -52087.009      50.255753    
   6406000   223.86067      127175        -46723.932     -52189.673      50.288334    
   6407000   227.52117      127028.09     -46543.267     -52098.382      50.268963    
   6408000   223.60219      127377.74     -46715.26      -52174.69       50.315042    
   6409000   222.31417      127029.84     -46702.596     -52130.578      50.269193    
   6410000   222.62314      127270.33     -46573.032     -52008.558      50.300896    
   6411000   226.06367      127548.28     -46666.622     -52186.15       50.337487    
   6412000   227.4326       127382.29     -46630.686     -52183.638      50.315642    
   6413000   226.7393       127149.63     -46539.964     -52075.989      50.28499     
   6414000   223.32522      127386        -46686.427     -52139.094      50.316131    
   6415000   228.03764      127074.68     -46516.353     -52084.078      50.275108    
   6416000   226.44669      126890.14     -46569.431     -52098.312      50.25076     
   6417000   222.99103      127473.51     -46677.521     -52122.028      50.32765     
   6418000   222.32616      127481.31     -46611.635     -52039.909      50.328676    
   6419000   225.08761      126866        -46540.48      -52036.178      50.247572    
   6420000   227.15131      127299.21     -46603.991     -52150.075      50.3047      
   6421000   224.20665      126911.4      -46620.737     -52094.925      50.253565    
   6422000   225.87372      127337.88     -46458.734     -51973.625      50.309795    
   6423000   224.21941      127014.26     -46627         -52101.5        50.267138    
   6424000   221.03698      127289.32     -46762.272     -52159.07       50.303398    
   6425000   222.10783      127343.24     -46766.368     -52189.312      50.3105      
   6426000   224.31431      127189.12     -46664.552     -52141.368      50.290195    
   6427000   225.38957      126994.26     -46700.374     -52203.444      50.264499    
   6428000   226.63779      126849.59     -46515.928     -52049.474      50.245406    
   6429000   225.83435      127314.44     -46638.158     -52152.088      50.306707    
   6430000   224.04579      126993.94     -46597.027     -52067.288      50.264458    
   6431000   223.15282      126913.71     -46779.087     -52227.545      50.25387     
   6432000   221.12026      126894.34     -46768.167     -52166.998      50.251314    
   6433000   222.73162      127447.52     -46804.261     -52242.435      50.324228    
   6434000   224.96065      127079.17     -46663.563     -52156.16       50.2757      
   6435000   228.37609      127716.61     -46633.207     -52209.196      50.359622    
   6436000   223.23356      127419.43     -46701.031     -52151.46       50.320531    
   6437000   225.21258      127162.89     -46664.097     -52162.846      50.286738    
   6438000   227.10853      127378.91     -46612.388     -52157.428      50.315196    
   6439000   224.8445       127266.56     -46615.022     -52104.783      50.300399    
   6440000   224.07689      127308.95     -46671.11      -52142.13       50.305984    
   6441000   222.35849      127473.45     -46684.967     -52114.031      50.327641    
   6442000   226.22078      127374.5      -46563.949     -52087.314      50.314616    
   6443000   224.97273      127621.6      -46718.512     -52211.404      50.347131    
   6444000   224.99981      127640.78     -46512.368     -52005.922      50.349653    
   6445000   224.57617      127383.35     -46594.005     -52077.215      50.315781    
   6446000   225.94618      127654.59     -46555.112     -52071.772      50.351468    
   6447000   224.38417      127217.43     -46693.394     -52171.916      50.293925    
   6448000   224.72489      127478.76     -46659.085     -52145.926      50.32834     
   6449000   221.08421      127584.92     -46596.749     -51994.7        50.342307    
   6450000   225.26661      127230.33     -46677.737     -52177.804      50.295626    
   6451000   225.37567      127601.7      -46561.596     -52064.326      50.344514    
   6452000   222.91252      127450.7      -46580.699     -52023.29       50.324647    
   6453000   223.04451      127224.38     -46712.658     -52158.471      50.294842    
   6454000   225.31591      127604.86     -46663.292     -52164.564      50.34493     
   6455000   227.35314      127327.7      -46543.779     -52094.791      50.308454    
   6456000   222.49369      127571.28     -46629.682     -52062.047      50.340514    
   6457000   223.93768      127934.1      -46554.705     -52022.326      50.388192    
   6458000   223.7521       128294.21     -46659.915     -52123.005      50.435425    
   6459000   227.14199      127477.64     -46564.127     -52109.984      50.328193    
   6460000   227.06923      127297.45     -46520.054     -52064.135      50.304469    
   6461000   225.72746      126981.29     -46577.679     -52088.999      50.262788    
   6462000   226.96592      126975.21     -46636.207     -52177.765      50.261986    
   6463000   220.37062      127441.69     -46659.984     -52040.512      50.323461    
   6464000   225.60107      127123.33     -46645.034     -52153.268      50.281523    
   6465000   225.54147      127524.88     -46685.84      -52192.619      50.334409    
   6466000   226.58005      127494.95     -46658.343     -52190.48       50.330471    
   6467000   223.83384      127377.45     -46659.498     -52124.583      50.315004    
   6468000   227.6168       127192.38     -46705.513     -52262.963      50.290625    
   6469000   224.75172      127128.03     -46719.362     -52206.858      50.282142    
   6470000   221.94029      127278.27     -46749.161     -52168.014      50.301942    
   6471000   222.81974      127334.7      -46661.138     -52101.464      50.309375    
   6472000   225.92999      127247.6      -46747.383     -52263.648      50.297902    
   6473000   225.65411      127566.28     -46714.318     -52223.847      50.339856    
   6474000   228.09661      127829.94     -46635.238     -52204.403      50.374513    
   6475000   225.53646      127394.02     -46691.716     -52198.372      50.317186    
   6476000   226.24233      127239.16     -46639.373     -52163.264      50.29679     
   6477000   225.27031      127498.58     -46506.411     -52006.57       50.330948    
   6478000   221.78051      126816.67     -46732.553     -52147.505      50.241059    
   6479000   223.91291      127121.34     -46724.507     -52191.523      50.28126     
   6480000   227.07727      127034.07     -46674.744     -52219.02       50.269751    
   6481000   228.28466      127543.65     -46569.87      -52143.626      50.336878    
   6482000   224.37014      127353.71     -46686.057     -52164.237      50.311879    
   6483000   225.34515      127233.47     -46586.614     -52088.6        50.29604     
   6484000   225.12483      127318.6      -46601.555     -52098.161      50.307255    
   6485000   227.72892      126666.99     -46692.44      -52252.627      50.221285    
   6486000   222.721        127219.82     -46733.598     -52171.513      50.294241    
   6487000   227.75331      127451.31     -46470.438     -52031.22       50.324728    
   6488000   221.25569      127757.93     -46712.487     -52114.626      50.365052    
   6489000   219.94984      127210.33     -46841.485     -52211.739      50.29299     
   6490000   225.22707      127619.05     -46730.76      -52229.863      50.346796    
   6491000   224.92894      127575.74     -46650.24      -52142.064      50.3411      
   6492000   223.06809      127787.64     -46736.547     -52182.936      50.368956    
   6493000   222.60472      127749.04     -46651.991     -52087.067      50.363884    
   6494000   225.25851      128278.41     -46529.825     -52029.695      50.433355    
   6495000   227.22052      127827.78     -46621.188     -52168.962      50.374229    
   6496000   224.06324      127764.34     -46815.03      -52285.717      50.365894    
   6497000   224.66639      127671.71     -46698.411     -52183.824      50.35372     
   6498000   223.46003      127403.96     -46726.529     -52182.487      50.318495    
   6499000   224.79262      127978.36     -46608.875     -52097.37       50.394002    
   6500000   226.61255      128203.51     -46562.845     -52095.775      50.423537    
   6501000   222.38061      127660        -46718.647     -52148.251      50.352181    
   6502000   223.21247      127733.45     -46772.152     -52222.066      50.361835    
   6503000   226.26054      127684.11     -46574.021     -52098.357      50.35535     
   6504000   225.43978      128015.22     -46478.675     -51982.971      50.398839    
   6505000   223.1622       128244.11     -46644.683     -52093.371      50.42886     
   6506000   225.92091      127591.93     -46618.631     -52134.674      50.343229    
   6507000   226.54563      127590.89     -46639.345     -52170.641      50.343093    
   6508000   223.14293      127283.26     -46731.059     -52179.276      50.302599    
   6509000   220.77835      127768.53     -46756.769     -52147.252      50.366445    
   6510000   224.4296       127949.6      -46639.762     -52119.394      50.390227    
   6511000   224.68597      127952        -46664.622     -52150.513      50.390541    
   6512000   224.76943      127609.66     -46675.627     -52163.555      50.345561    
   6513000   225.5019       127890.99     -46541.663     -52047.476      50.382531    
   6514000   222.1129       127530.42     -46756.067     -52179.134      50.335138    
   6515000   224.49325      127700.87     -46671.308     -52152.494      50.357553    
   6516000   226.70265      128066.47     -46685.825     -52220.955      50.405565    
   6517000   225.42108      127809.92     -46638.006     -52141.845      50.371884    
   6518000   224.7505       127445.92     -46680.977     -52168.443      50.324018    
   6519000   227.48685      127596.42     -46614.106     -52168.383      50.34382     
   6520000   227.63467      127631.39     -46662.445     -52220.331      50.348418    
   6521000   226.12549      127684.64     -46628.306     -52149.344      50.35542     
   6522000   225.41783      127619.24     -46694.633     -52198.393      50.34682     
   6523000   222.98644      127121.88     -46657.969     -52102.365      50.281331    
   6524000   225.64321      127463.15     -46578.917     -52088.18       50.326286    
   6525000   231.31057      127609.94     -46493.43      -52141.066      50.345597    
   6526000   226.42368      127370.83     -46537.087     -52065.405      50.314133    
   6527000   223.84543      127077.16     -46595.159     -52060.527      50.275434    
   6528000   226.79761      127112.13     -46537.934     -52075.383      50.280046    
   6529000   222.71518      127106.52     -46735.382     -52173.154      50.279306    
   6530000   224.19018      126839.89     -46616.819     -52090.605      50.244125    
   6531000   226.7172       127661.57     -46614.783     -52150.268      50.352387    
   6532000   220.48836      127177.11     -46703.367     -52086.77       50.288612    
   6533000   226.69547      127825.75     -46607.502     -52142.457      50.373963    
   6534000   224.25671      127281.04     -46662.868     -52138.279      50.302308    
   6535000   220.26582      126789.78     -46785.665     -52163.635      50.237507    
   6536000   224.36298      127153.35     -46667.359     -52145.364      50.285481    
   6537000   224.50011      127211.59     -46632.788     -52114.141      50.293156    
   6538000   226.31478      127122.19     -46639.997     -52165.657      50.281372    
   6539000   224.9193       127148.54     -46585.413     -52077.001      50.284846    
   6540000   226.11681      127160.24     -46633.764     -52154.59       50.286389    
   6541000   228.97108      127724.65     -46563.31      -52153.826      50.360679    
   6542000   226.30932      127400.35     -46663.273     -52188.8        50.31802     
   6543000   226.89871      127969.11     -46587.086     -52127.003      50.392788    
   6544000   225.10607      128041.84     -46653.597     -52149.745      50.402332    
   6545000   226.16093      127374.99     -46686.11      -52208.014      50.314681    
   6546000   223.41311      127620.2      -46763.182     -52217.995      50.346946    
   6547000   225.75908      127704.13     -46717.489     -52229.581      50.357981    
   6548000   225.40479      127761.6      -46668.585     -52172.027      50.365535    
   6549000   227.3558       127632.78     -46762.18      -52313.257      50.348601    
   6550000   225.57516      127798.44     -46718.358     -52225.96       50.370375    
   6551000   225.91167      127127.09     -46651.338     -52167.156      50.282019    
   6552000   227.52671      127609.24     -46554.487     -52109.737      50.345506    
   6553000   224.59247      127370.18     -46671.703     -52155.311      50.314047    
   6554000   226.61102      127297.16     -46590.167     -52123.06       50.304431    
   6555000   222.7431       127551.54     -46754.706     -52193.16       50.337916    
   6556000   225.63968      126987.23     -46654.389     -52163.566      50.263572    
   6557000   222.6057       127536.25     -46695.185     -52130.285      50.335906    
   6558000   226.27922      127369.84     -46570.569     -52095.361      50.314003    
   6559000   223.00883      127430.3      -46772.168     -52217.11       50.321962    
   6560000   226.77478      127475.17     -46626.463     -52163.355      50.327869    
   6561000   224.71654      127230.83     -46755.229     -52241.866      50.295691    
   6562000   226.91871      127443.58     -46655.088     -52195.493      50.32371     
   6563000   224.91159      127532.85     -46744.625     -52236.024      50.335458    
   6564000   226.20224      127279.11     -46682.992     -52205.904      50.302053    
   6565000   225.07622      127834.61     -46643.568     -52138.987      50.375127    
   6566000   228.59344      127450.69     -46638.071     -52219.367      50.324646    
   6567000   223.81771      127033.46     -46759.952     -52224.643      50.26967     
   6568000   229.02124      127458.75     -46518.048     -52109.788      50.325706    
   6569000   225.55988      127056.06     -46742.469     -52249.697      50.272652    
   6570000   226.31234      127403.25     -46656.014     -52181.614      50.318402    
   6571000   225.53444      127110.02     -46595.492     -52102.099      50.279767    
   6572000   227.40201      127349.43     -46526.485     -52078.69       50.311315    
   6573000   228.82105      127389.66     -46515.689     -52102.542      50.316612    
   6574000   227.64086      127408.48     -46620.236     -52178.273      50.31909     
   6575000   227.24878      127263.71     -46691.744     -52240.208      50.300025    
   6576000   222.95846      127462.63     -46705.796     -52149.508      50.326217    
   6577000   226.30713      127109.93     -46642.575     -52168.048      50.279756    
   6578000   224.47008      127626.03     -46628.011     -52108.631      50.347713    
   6579000   224.17713      127633.91     -46769.067     -52242.535      50.348749    
   6580000   224.43239      127778.94     -46681.668     -52161.368      50.367813    
   6581000   224.32867      127707.36     -46675.988     -52153.155      50.358406    
   6582000   225.20303      127752.22     -46655.278     -52153.793      50.364301    
   6583000   225.1445       127196.99     -46733.11      -52230.196      50.291232    
   6584000   227.58107      127434.22     -46604.083     -52160.661      50.322478    
   6585000   225.02743      126931.99     -46849.297     -52343.525      50.256283    
   6586000   226.57672      126777.26     -46727.995     -52260.05       50.235853    
   6587000   225.41727      126792.1      -46654.893     -52158.639      50.237814    
   6588000   224.75564      127173.36     -46574.228     -52061.82       50.288118    
   6589000   229.54148      127176.33     -46579.44      -52183.883      50.288509    
   6590000   221.2378       127183.01     -46791.849     -52193.55       50.28939     
   6591000   225.31746      127316.17     -46699.795     -52201.104      50.306935    
   6592000   226.20983      127042.78     -46646.688     -52169.786      50.270901    
   6593000   221.68813      126869.36     -46844.289     -52256.985      50.248015    
   6594000   224.86604      127281.84     -46767.828     -52258.116      50.302412    
   6595000   224.01599      127085.56     -46697.045     -52166.578      50.276542    
   6596000   226.46977      127406.22     -46660.079     -52189.523      50.318793    
   6597000   223.48736      127332.56     -46790.791     -52247.417      50.309093    
   6598000   224.33995      127658.66     -46705.91      -52183.353      50.352004    
   6599000   223.52613      126956.83     -46681.66      -52139.232      50.259561    
   6600000   226.76358      127377.84     -46613.35      -52149.968      50.315056    
   6601000   225.95815      127220.47     -46708.308     -52225.261      50.294327    
   6602000   224.37076      127103.09     -46763.837     -52242.031      50.278854    
   6603000   226.69511      127263.36     -46645.012     -52179.958      50.299979    
   6604000   224.9845       127404.59     -46734.31      -52227.489      50.318578    
   6605000   222.18264      126991.44     -46645.839     -52070.609      50.264128    
   6606000   223.53747      127549.45     -46697.792     -52155.642      50.337641    
   6607000   222.32464      127522.8      -46743.198     -52171.435      50.334135    
   6608000   222.89767      127786.3      -46596.54      -52038.769      50.36878     
   6609000   225.28141      127541.33     -46684.558     -52184.987      50.336573    
   6610000   227.15167      127932.71     -46623.514     -52169.607      50.388009    
   6611000   221.08299      127578        -46749.428     -52147.349      50.341398    
   6612000   224.74615      127572.06     -46701.402     -52188.763      50.340615    
   6613000   227.15091      127694.25     -46512.363     -52058.438      50.356683    
   6614000   223.68799      127682.56     -46745.491     -52207.015      50.355146    
   6615000   226.72004      127405.87     -46645.68      -52181.235      50.318747    
   6616000   222.73379      127784.75     -46676.409     -52114.637      50.368577    
   6617000   225.55703      127321.59     -46655.839     -52162.997      50.307648    
   6618000   226.02487      127408.47     -46651.372     -52169.954      50.319089    
   6619000   227.13745      128112.46     -46503.742     -52049.488      50.411597    
   6620000   225.11908      127698.74     -46690.75      -52187.215      50.357273    
   6621000   226.87704      127515.8      -46458.201     -51997.589      50.333215    
   6622000   226.62384      127670.74     -46673.286     -52206.491      50.353592    
   6623000   225.59332      127781.5      -46610.594     -52118.639      50.368149    
   6624000   226.00921      127887.44     -46712.664     -52230.863      50.382066    
   6625000   225.94651      127764.42     -46606.334     -52123.002      50.365905    
   6626000   225.42805      127723.44     -46616.193     -52120.202      50.36052     
   6627000   221.60733      127529.82     -46780.586     -52191.309      50.335059    
   6628000   223.03089      127919.1      -46608.688     -52054.169      50.386223    
   6629000   225.373        127262.41     -46552.878     -52055.544      50.299853    
   6630000   225.76842      127550.84     -46610.871     -52123.192      50.337824    
   6631000   221.8371       127955.07     -46782.769     -52199.102      50.390945    
   6632000   219.51924      127226.9      -46789.104     -52148.845      50.295174    
   6633000   225.59958      127621.88     -46647.195     -52155.393      50.347168    
   6634000   226.38574      127706.14     -46543.543     -52070.935      50.358246    
   6635000   224.35886      127419.02     -46727.87      -52205.775      50.320478    
   6636000   228.50061      127437        -46613.787     -52192.815      50.322844    
   6637000   222.21908      127322.13     -46807.003     -52232.663      50.30772     
   6638000   222.68498      127616.03     -46664.788     -52101.823      50.346399    
   6639000   226.56214      127195.62     -46568.453     -52100.152      50.291052    
   6640000   224.97765      127341.49     -46668.638     -52161.651      50.31027     
   6641000   228.59067      127198.21     -46577.097     -52158.325      50.291393    
   6642000   230.29057      127150.91     -46582.468     -52205.2        50.285159    
   6643000   226.97984      127358.33     -46581.397     -52123.295      50.312487    
   6644000   224.48347      127243.86     -46650.911     -52131.858      50.297409    
   6645000   224.44386      128039.1      -46564.552     -52044.532      50.401973    
   6646000   228.05234      127290.57     -46538.476     -52106.56       50.303563    
   6647000   224.4064       127321.7      -46774.427     -52253.492      50.307663    
   6648000   226.98266      127610.3      -46552.282     -52094.249      50.345645    
   6649000   227.54075      127162.37     -46530.478     -52086.071      50.286669    
   6650000   224.31022      127611.8      -46564.847     -52041.564      50.345843    
   6651000   221.72765      127094.51     -46589.285     -52002.946      50.277722    
   6652000   221.68257      127547.39     -46709.144     -52121.704      50.33737     
   6653000   223.66054      127079.64     -46536.889     -51997.743      50.275761    
   6654000   223.95614      127313.88     -46686.134     -52154.205      50.306634    
   6655000   224.14575      127018.42     -46611.235     -52083.936      50.267686    
   6656000   223.24565      127238.01     -46563.89      -52014.615      50.296638    
   6657000   223.38606      127248.1      -46705.516     -52159.668      50.297967    
   6658000   225.48924      126674        -46587.578     -52093.082      50.222211    
   6659000   222.52457      126935.8      -46651.388     -52084.507      50.256786    
   6660000   224.26831      126971.33     -46604.79      -52080.484      50.261474    
   6661000   226.37816      126464.29     -46542.642     -52069.85       50.194481    
   6662000   226.29009      127120.05     -46570.144     -52095.201      50.281091    
   6663000   226.64459      126953.34     -46591.235     -52124.947      50.259101    
   6664000   226.89463      126979.99     -46438.974     -51978.792      50.262617    
   6665000   225.44984      126558.55     -46604.187     -52108.729      50.206949    
   6666000   224.83562      126919.04     -46484.992     -51974.537      50.254574    
   6667000   226.95864      126851.74     -46425.547     -51966.927      50.24569     
   6668000   222.49528      127205.85     -46599.429     -52031.832      50.2924      
   6669000   227.94876      126843.57     -46352.946     -51918.5        50.24461     
   6670000   223.47055      127096.54     -46505.678     -51961.894      50.27799     
   6671000   226.44223      126996.18     -46406.836     -51935.608      50.264753    
   6672000   226.15139      127041.65     -46567.932     -52089.602      50.270752    
   6673000   224.75281      126970.8      -46529.681     -52017.204      50.261404    
   6674000   226.23018      126541.62     -46446.313     -51969.908      50.204711    
   6675000   223.93101      126896.92     -46493.97      -51961.428      50.251655    
   6676000   224.3992       126718.86     -46525.664     -52004.554      50.228139    
   6677000   227.05735      126795.89     -46536.986     -52080.777      50.238314    
   6678000   225.84172      127466.38     -46375.537     -51889.647      50.326711    
   6679000   225.9594       126583.41     -46540.998     -52057.981      50.210236    
   6680000   226.14744      126539.85     -46498.884     -52020.458      50.204477    
   6681000   225.77533      126651.68     -46379.69      -51892.179      50.219262    
   6682000   223.58518      127175.8      -46599.133     -52058.147      50.28844     
   6683000   224.48042      126951.44     -46539.722     -52020.594      50.258849    
   6684000   221.71328      126962.64     -46640.834     -52054.145      50.260327    
   6685000   226.19513      126714.04     -46424.671     -51947.409      50.227502    
   6686000   225.03598      126878.78     -46535.844     -52030.28       50.24926     
   6687000   225.90429      126898.58     -46552.532     -52068.169      50.251873    
   6688000   227.05714      127599.21     -46405.945     -51949.731      50.344187    
   6689000   222.76544      127536.25     -46492.786     -51931.786      50.335905    
   6690000   222.94179      126888.34     -46440.663     -51883.968      50.250522    
   6691000   223.09429      127067.49     -46524.446     -51971.475      50.274159    
   6692000   227.43573      127476.98     -46336.08      -51889.109      50.328106    
   6693000   227.18739      126968.87     -46303.598     -51850.563      50.26115     
   6694000   222.4817       127073.36     -46485.489     -51917.561      50.274934    
   6695000   222.8097       126097.6      -46566.534     -52006.615      50.145921    
   6696000   224.51788      126910.6      -46426.615     -51908.402      50.25346     
   6697000   226.16293      126762.66     -46341.274     -51863.226      50.233926    
   6698000   226.15014      126735.92     -46497.703     -52019.343      50.230393    
   6699000   226.16825      126631.76     -46466.624     -51988.706      50.216628    
   6700000   223.54991      126259.74     -46516.494     -51974.647      50.167404    
   6701000   227.59202      126393.79     -46384.469     -51941.314      50.185153    
   6702000   227.28479      126402.06     -46500.277     -52049.62       50.186246    
   6703000   222.61774      126382.93     -46671.858     -52107.252      50.183715    
   6704000   225.84753      126798.03     -46518.446     -52032.698      50.238597    
   6705000   225.47202      126222.01     -46435.902     -51940.985      50.162407    
   6706000   227.88277      126413.53     -46494.816     -52058.759      50.187765    
   6707000   224.8199       126646.14     -46595.932     -52085.093      50.218529    
   6708000   227.02769      126732.48     -46499.05      -52042.116      50.229939    
   6709000   225.45515      126273.6      -46525.396     -52030.068      50.169239    
   6710000   228.94544      126715.55     -46383.029     -51972.918      50.227701    
   6711000   228.24353      127206.2      -46486.862     -52059.614      50.292446    
   6712000   225.55016      126669.5      -46516.766     -52023.757      50.221616    
   6713000   225.32091      126192.62     -46536.165     -52037.558      50.158512    
   6714000   227.91648      126600.63     -46433.959     -51998.725      50.212513    
   6715000   223.86094      126789.72     -46590.021     -52055.769      50.2375      
   6716000   225.55338      126748.51     -46539.073     -52046.143      50.232057    
   6717000   225.95885      127282.53     -46364.859     -51881.828      50.302503    
   6718000   225.04516      126360.88     -46437.788     -51932.449      50.180796    
   6719000   227.43327      126417.38     -46503.464     -52056.433      50.188274    
   6720000   226.32642      126403.58     -46467.156     -51993.1        50.186448    
   6721000   225.72814      126719.19     -46388.415     -51899.752      50.228182    
   6722000   225.20667      126366.38     -46468.236     -51966.84       50.181524    
   6723000   228.26624      126351.99     -46472.791     -52046.097      50.179619    
   6724000   227.17215      126389.87     -46462.902     -52009.495      50.184633    
   6725000   222.59452      126889.94     -46493.658     -51928.484      50.250733    
   6726000   225.63467      125911.7      -46533.165     -52042.219      50.121266    
   6727000   224.08312      126918.17     -46407.856     -51879.027      50.254459    
   6728000   224.09535      126715.38     -46453.841     -51925.312      50.227679    
   6729000   225.5778       126689.83     -46623.537     -52131.203      50.224303    
   6730000   221.94221      126745.89     -46553.005     -51971.905      50.231711    
   6731000   226.65309      126695.32     -46521.103     -52055.023      50.225029    
   6732000   225.34095      126014.32     -46612.839     -52114.722      50.134879    
   6733000   223.43818      126471.57     -46519.963     -51975.388      50.195445    
   6734000   224.07378      126347.51     -46555.283     -52026.227      50.179026    
   6735000   224.82232      126012.72     -46547.364     -52036.584      50.134666    
   6736000   220.93534      126129.34     -46796.545     -52190.861      50.150128    
   6737000   224.68664      126359.97     -46502.372     -51988.279      50.180676    
   6738000   226.36762      126605.58     -46556.788     -52083.738      50.213167    
   6739000   222.54986      125810.13     -46589.775     -52023.512      50.107784    
   6740000   220.23406      126212.37     -46507.678     -51884.872      50.16113     
   6741000   222.98174      126587.96     -46559.039     -52003.32       50.210838    
   6742000   226.09961      126293.12     -46504.254     -52024.66       50.171825    
   6743000   219.70825      126274.25     -46728.527     -52092.883      50.169325    
   6744000   226.08966      126538.42     -46355.085     -51875.248      50.204287    
   6745000   228.32456      125598.85     -46521.212     -52095.943      50.07972     
   6746000   227.26528      126567.63     -46631.89      -52180.757      50.20815     
   6747000   223.51608      126397.67     -46566.508     -52023.835      50.185666    
   6748000   223.00911      126422.5      -46560.097     -52005.046      50.188952    
   6749000   222.99069      126537.37     -46611.885     -52056.384      50.204148    
   6750000   229.39887      126293.87     -46411.931     -52012.892      50.171925    
   6751000   220.51497      126233.04     -46642.12      -52026.173      50.163868    
   6752000   224.98374      126336.27     -46504.345     -51997.506      50.177538    
   6753000   221.49557      126362.42     -46619.254     -52027.249      50.181       
   6754000   227.84372      126438.31     -46452.601     -52015.591      50.191044    
   6755000   223.77174      126164.48     -46533.467     -51997.036      50.154785    
   6756000   224.82769      125975.8      -46414.446     -51903.797      50.129769    
   6757000   226.27049      126704.31     -46452.473     -51977.052      50.226216    
   6758000   224.8591       126589.91     -46569.618     -52059.737      50.211096    
   6759000   226.6425       126046.77     -46539.224     -52072.886      50.139181    
   6760000   226.00074      126514.14     -46443.841     -51961.833      50.201075    
   6761000   223.33701      126310.53     -46580.394     -52033.349      50.17413     
   6762000   221.09412      126183.15     -46639.598     -52037.791      50.157258    
   6763000   221.57135      125910.55     -46595.14      -52004.985      50.121113    
   6764000   231.68386      126222.81     -46402.699     -52059.449      50.162513    
   6765000   223.97198      126265.94     -46420.932     -51889.39       50.168226    
   6766000   225.01334      126580.68     -46416.099     -51909.983      50.209875    
   6767000   225.25809      126819.5      -46489.243     -51989.103      50.241432    
   6768000   223.04745      126398.74     -46497.967     -51943.852      50.185807    
   6769000   228.41661      126224.91     -46546.904     -52123.882      50.16279     
   6770000   225.79221      126531.16     -46568.267     -52081.168      50.203327    
   6771000   228.25823      126657.99     -46409.478     -51982.589      50.220095    
   6772000   219.83135      126725.41     -46630.784     -51998.146      50.229005    
   6773000   228.26211      126681.57     -46429.878     -52003.083      50.223212    
   6774000   224.07614      126690.02     -46607.475     -52078.476      50.224329    
   6775000   224.95835      126824.83     -46460.468     -51953.01       50.242136    
   6776000   226.2208       126915.01     -46431.897     -51955.263      50.254042    
   6777000   225.52822      126650.45     -46506.486     -52012.941      50.219098    
   6778000   221.47393      126615.96     -46463.719     -51871.185      50.214539    
   6779000   222.22535      126712.48     -46605.459     -52031.272      50.227296    
   6780000   224.09891      126598.38     -46544.096     -52015.654      50.212216    
   6781000   224.36208      126406.82     -46468.432     -51946.415      50.186877    
   6782000   225.28952      126675.56     -46422.335     -51922.962      50.222417    
   6783000   227.61006      126606.63     -46469.77      -52027.055      50.213306    
   6784000   225.10482      126670.76     -46368.445     -51864.563      50.221783    
   6785000   226.2854       126898.25     -46367.601     -51892.543      50.25183     
   6786000   227.22119      126696.82     -46443.986     -51991.777      50.225227    
   6787000   221.906        126915.97     -46480.843     -51898.859      50.254169    
   6788000   225.23463      126379.65     -46577.972     -52077.259      50.183281    
   6789000   226.64296      126973.65     -46383.422     -51917.095      50.26178     
   6790000   223.31207      126675.24     -46493.792     -51946.138      50.222375    
   6791000   223.58863      126755.01     -46422.25      -51881.349      50.232914    
   6792000   228.71261      126119.93     -46213.456     -51797.661      50.14888     
   6793000   224.17064      126574.54     -46546.104     -52019.413      50.209063    
   6794000   224.26246      126615.3      -46565.964     -52041.515      50.214453    
   6795000   223.38582      127070.12     -46434.729     -51888.876      50.274506    
   6796000   226.71521      126582.85     -46433.979     -51969.416      50.210162    
   6797000   225.59953      126923.76     -46587.244     -52095.44       50.255197    
   6798000   220.9267       126866.5      -46500.275     -51894.38       50.247638    
   6799000   224.92966      126516.9      -46547.609     -52039.45       50.201441    
   6800000   226.23586      126881.66     -46349.185     -51872.918      50.24964     
   6801000   221.92506      126764.35     -46519.135     -51937.616      50.234149    
   6802000   222.17502      126460.87     -46480.073     -51904.657      50.194029    
   6803000   220.834        126874.75     -46529.494     -51921.337      50.248728    
   6804000   226.97483      126823.5      -46384.221     -51925.996      50.24196     
   6805000   229.51267      127185.99     -46303.105     -51906.844      50.289783    
   6806000   224.38673      126816.19     -46416.387     -51894.972      50.240995    
   6807000   228.50345      126572.88     -46394.958     -51974.056      50.208844    
   6808000   225.74397      127052.31     -46370.988     -51882.711      50.272158    
   6809000   225.45388      127255.59     -46469.329     -51973.969      50.298955    
   6810000   225.20866      127189.49     -46463.385     -51962.038      50.290244    
   6811000   223.58665      127589.29     -46547.262     -52006.312      50.342882    
   6812000   224.51751      127149.57     -46481.862     -51963.64       50.284982    
   6813000   224.09789      126979.75     -46444.324     -51915.857      50.262585    
   6814000   229.14675      127035.15     -46345.147     -51939.952      50.269893    
   6815000   224.2146       126880.08     -46613.828     -52088.21       50.249432    
   6816000   223.89708      127104.4      -46484.049     -51950.679      50.279027    
   6817000   226.81953      126840.32     -46503.362     -52041.346      50.244181    
   6818000   225.01226      126707.71     -46424.472     -51918.33       50.226666    
   6819000   224.64134      126752.92     -46428.351     -51913.152      50.232638    
   6820000   225.21508      127620.06     -46512.386     -52011.196      50.346928    
   6821000   224.24977      126804.7      -46554.387     -52029.628      50.239477    
   6822000   226.19964      127052.77     -46411.19      -51934.038      50.272218    
   6823000   227.16183      127031.51     -46442.986     -51989.327      50.269414    
   6824000   226.15085      126982.29     -46504.335     -52025.992      50.262921    
   6825000   226.79651      127312.25     -46434.163     -51971.585      50.306419    
   6826000   228.81277      127461.44     -46393.836     -51980.487      50.326062    
   6827000   224.97356      127482.01     -46440.973     -51933.886      50.328768    
   6828000   226.19246      126925.25     -46431.259     -51953.932      50.255393    
   6829000   228.69278      127279        -46346.241     -51929.962      50.302039    
   6830000   224.05381      127099.74     -46422.398     -51892.855      50.278412    
   6831000   224.22108      126724.5      -46449.539     -51924.079      50.228883    
   6832000   224.1111       127045.72     -46594.231     -52066.086      50.271288    
   6833000   224.11315      127447.22     -46409.761     -51881.666      50.324189    
   6834000   224.84366      127062.36     -46503.768     -51993.51       50.273482    
   6835000   226.03588      126837.73     -46328.846     -51847.697      50.24384     
   6836000   224.04934      126991.15     -46394.503     -51864.85       50.264089    
   6837000   226.83697      126632.1      -46460.976     -51999.386      50.216673    
   6838000   227.51607      126963.63     -46384.909     -51939.899      50.260459    
   6839000   223.10659      127090.93     -46484.064     -51931.394      50.27725     
   6840000   227.84435      126590.99     -46307.43      -51870.435      50.211238    
   6841000   224.81961      126390.73     -46476.968     -51966.122      50.184748    
   6842000   227.39172      127184.98     -46381.863     -51933.817      50.289649    
   6843000   220.28471      126883.12     -46462.72      -51841.151      50.249832    
   6844000   224.93199      127403.53     -46421.745     -51913.643      50.318439    
   6845000   222.4152       126917.53     -46560.925     -51991.373      50.254375    
   6846000   226.26468      126690.49     -46471.483     -51995.919      50.224391    
   6847000   221.59397      127138.9      -46462.315     -51872.713      50.283575    
   6848000   222.55982      126214.12     -46359.299     -51793.278      50.161361    
   6849000   223.96681      126953.96     -46509.027     -51977.359      50.259182    
   6850000   229.12         127340.36     -46338.03      -51932.181      50.310121    
   6851000   226.81909      126949.35     -46406.059     -51944.031      50.258574    
   6852000   223.40924      126879.92     -46556.1       -52010.819      50.24941     
   6853000   228.10957      126621.58     -46315.744     -51885.225      50.215283    
   6854000   221.34861      126830.66     -46523.663     -51928.07       50.242906    
   6855000   221.60763      126495.62     -46548.589     -51959.32       50.198627    
   6856000   223.13281      126443.79     -46525.3       -51973.27       50.191768    
   6857000   225.58489      126864.79     -46459.869     -51967.708      50.247412    
   6858000   224.69186      126809.95     -46389.531     -51875.566      50.240171    
   6859000   224.26766      126665.17     -46541.094     -52016.772      50.221044    
   6860000   223.20978      126675.57     -46556.595     -52006.444      50.222419    
   6861000   225.80679      126053.36     -46532.319     -52045.576      50.140056    
   6862000   226.98209      126232.12     -46454.937     -51996.89       50.163746    
   6863000   227.80244      126042.03     -46433.282     -51995.264      50.138553    
   6864000   222.95697      126194.68     -46600.602     -52044.278      50.158786    
   6865000   224.3611       126464.57     -46617.747     -52095.706      50.194518    
   6866000   224.31241      126465.79     -46501.756     -51978.526      50.194679    
   6867000   227.08931      126895.17     -46479.682     -52024.252      50.251422    
   6868000   222.95607      126460.45     -46479.184     -51922.839      50.193973    
   6869000   224.53809      126450.04     -46554.034     -52036.315      50.192596    
   6870000   226.0458       126473.16     -46422.757     -51941.849      50.195655    
   6871000   223.43079      126506.89     -46584.615     -52039.86       50.200117    
   6872000   228.40793      126073.51     -46565.137     -52141.903      50.142726    
   6873000   224.29051      126542.87     -46542.201     -52018.436      50.204875    
   6874000   222.22457      126346.05     -46709.565     -52135.359      50.178833    
   6875000   227.70714      127169.06     -46414.449     -51974.104      50.287551    
   6876000   227.3146       126661.24     -46357.449     -51907.521      50.220525    
   6877000   223.76662      126847        -46444.169     -51907.613      50.245064    
   6878000   222.81176      126720.47     -46527.951     -51968.082      50.228352    
   6879000   227.0437       126133.41     -46461.194     -52004.651      50.150667    
   6880000   226.14472      126738.99     -46360.471     -51881.979      50.230798    
   6881000   223.84384      126867.3      -46506.816     -51972.146      50.247744    
   6882000   224.24301      127019.48     -46460.576     -51935.652      50.267827    
   6883000   225.95706      126502.51     -46326.091     -51843.016      50.199537    
   6884000   223.12581      126429.59     -46535.023     -51982.822      50.18989     
   6885000   224.60249      126564.96     -46429.976     -51913.829      50.207796    
   6886000   229.79499      126596.22     -46397.43      -52008.062      50.21193     
   6887000   229.43961      126842.23     -46385.361     -51987.316      50.244434    
   6888000   227.75355      126445.13     -46415.919     -51976.708      50.191946    
   6889000   227.84761      126581.22     -46411.319     -51974.405      50.209947    
   6890000   226.46563      127170.42     -46334.215     -51863.558      50.28773     
   6891000   222.56002      127078.1      -46470.107     -51904.091      50.275559    
   6892000   222.88268      127040.93     -46500.897     -51942.76       50.270656    
   6893000   227.32204      126584.56     -46361.618     -51911.871      50.210388    
   6894000   223.59016      126492.53     -46355.285     -51814.421      50.198217    
   6895000   222.38094      126810.77     -46579.381     -52008.993      50.240279    
   6896000   224.97726      127000.64     -46411.951     -51904.954      50.265342    
   6897000   226.31806      126566.41     -46334.8       -51860.54       50.207988    
   6898000   225.34167      126730.18     -46525.282     -52027.183      50.229635    
   6899000   225.73638      126983.83     -46467.608     -51979.146      50.263123    
   6900000   226.89308      127137.37     -46416.302     -51956.081      50.283374    
   6901000   224.53742      126975.63     -46445.321     -51927.585      50.262041    
   6902000   222.55589      126946.21     -46486.561     -51920.445      50.25816     
   6903000   224.68649      126926.2      -46533.701     -52019.605      50.255519    
   6904000   226.66432      126868.12     -46502.125     -52036.319      50.247852    
   6905000   228.83555      126937.91     -46250.279     -51837.486      50.257064    
   6906000   227.47164      127414.16     -46273.295     -51827.201      50.319838    
   6907000   225.93231      126698.97     -46540.288     -52056.609      50.225511    
   6908000   228.31327      126675.26     -46370.158     -51944.612      50.222377    
   6909000   221.90571      126066.81     -46569.921     -51987.93       50.141839    
   6910000   224.90715      126766.7      -46538.361     -52029.652      50.234459    
   6911000   222.18408      126799.96     -46598.927     -52023.732      50.238852    
   6912000   226.05358      126964.16     -46341.562     -51860.844      50.260528    
   6913000   226.10898      127129.4      -46458.683     -51979.318      50.282323    
   6914000   224.38723      126980.01     -46495.888     -51974.485      50.26262     
   6915000   227.34052      126727.96     -46437.033     -51987.737      50.229341    
   6916000   220.93578      127035.68     -46612.586     -52006.913      50.269964    
   6917000   224.09526      127438.88     -46553.083     -52024.552      50.323092    
   6918000   222.39022      127051.97     -46680.225     -52110.063      50.272113    
   6919000   225.52025      126872.67     -46490.995     -51997.256      50.248453    
   6920000   228.55821      126705.39     -46440.967     -52021.402      50.226359    
   6921000   224.00151      126913.72     -46552.392     -52021.572      50.253872    
   6922000   227.82492      127134.23     -46415.433     -51977.964      50.28296     
   6923000   227.24549      126634.12     -46474.772     -52023.155      50.216941    
   6924000   222.74184      126902.7      -46530.694     -51969.117      50.252417    
   6925000   227.4206       126894.9      -46482.429     -52035.088      50.251387    
   6926000   221.48838      126308.07     -46564.157     -51971.976      50.173804    
   6927000   225.60907      126259.93     -46322.241     -51830.67       50.16743     
   6928000   227.1133       126804.12     -46369.511     -51914.667      50.239401    
   6929000   226.85747      126530.72     -46420.718     -51959.628      50.203269    
   6930000   222.45071      126246.13     -46586.756     -52018.072      50.165602    
   6931000   224.18761      126667.92     -46643.848     -52117.571      50.221408    
   6932000   225.27075      126504.53     -46475.364     -51975.533      50.199804    
   6933000   225.07188      126269.9      -46456.255     -51951.568      50.16875     
   6934000   223.82602      126413.24     -46560.424     -52025.319      50.187727    
   6935000   227.63111      126758.27     -46364.229     -51922.028      50.233346    
   6936000   223.92161      126464.11     -46512.138     -51979.367      50.194457    
   6937000   226.38576      126592.56     -46552.225     -52079.617      50.211446    
   6938000   227.2758       126771.39     -46454.571     -52003.695      50.235079    
   6939000   224.75645      126866.37     -46523.247     -52010.859      50.247621    
   6940000   224.96402      126803.45     -46525.653     -52018.333      50.239313    
   6941000   226.13828      126547.49     -46560.952     -52082.302      50.205486    
   6942000   223.55778      126847.32     -46560.967     -52019.312      50.245105    
   6943000   222.0234       126817.48     -46624.234     -52045.116      50.241166    
   6944000   223.34316      126921.87     -46513.215     -51966.321      50.254947    
   6945000   221.73492      126736.71     -46540.643     -51954.482      50.230497    
   6946000   227.72923      126824.59     -46432.054     -51992.249      50.242104    
   6947000   225.77092      126702.19     -46524.233     -52036.614      50.225936    
   6948000   226.36015      126874.07     -46448.457     -51975.224      50.248638    
   6949000   225.021        127197.59     -46582.018     -52076.089      50.291311    
   6950000   224.76521      126967.81     -46509.801     -51997.627      50.26101     
   6951000   226.07825      126944.53     -46551.823     -52071.708      50.257938    
   6952000   223.51904      127191.73     -46516.108     -51973.508      50.29054     
   6953000   223.59717      126864.07     -46582.415     -52041.722      50.247317    
   6954000   224.60163      126526.25     -46500.015     -51983.847      50.202677    
   6955000   219.60915      127097.24     -46607.864     -51969.8        50.278083    
   6956000   221.34697      126627.74     -46509.891     -51914.258      50.216096    
   6957000   225.23482      126286.14     -46545.901     -52045.193      50.1709      
   6958000   226.60445      126464.91     -46582.138     -52114.87       50.194563    
   6959000   223.7786       126997.89     -46506.302     -51970.039      50.264979    
   6960000   226.96122      127039.21     -46436.802     -51978.245      50.270429    
   6961000   227.29661      126448.22     -46591.197     -52140.829      50.192355    
   6962000   225.94039      126643        -46549.018     -52065.537      50.218114    
   6963000   221.2656       126800.73     -46548.902     -51951.282      50.238954    
   6964000   224.12539      126192.32     -46646.86      -52119.064      50.158474    
   6965000   224.89826      125752.8      -46473.425     -51964.499      50.100173    
   6966000   225.89007      126309.04     -46493.892     -52009.182      50.173933    
   6967000   229.41587      126064.73     -46462.251     -52063.626      50.141563    
   6968000   225.29292      126571.3      -46542.702     -52043.412      50.208635    
   6969000   222.62212      126495.77     -46430.773     -51866.273      50.198646    
   6970000   226.46388      126562.61     -46456.384     -51985.685      50.207485    
   6971000   227.41607      126397.59     -46486.807     -52039.356      50.185655    
   6972000   224.84119      126909.88     -46597.273     -52086.954      50.253364    
   6973000   227.20287      126476.88     -46472.959     -52020.302      50.196147    
   6974000   221.52738      126675.19     -46589.11      -51997.882      50.222368    
   6975000   223.33918      126754.57     -46564.51      -52017.518      50.232857    
   6976000   227.00557      126921.39     -46477.419     -52019.945      50.254883    
   6977000   226.37637      126794.55     -46435.969     -51963.133      50.238137    
   6978000   222.14488      127057.15     -46466.485     -51890.333      50.272796    
   6979000   229.39263      126883.97     -46219.889     -51820.697      50.249944    
   6980000   225.13939      126615.98     -46375.49      -51872.452      50.214542    
   6981000   224.05894      126225.14     -46578.502     -52049.083      50.162821    
   6982000   222.87904      126775.79     -46441.71      -51883.483      50.23566     
   6983000   220.5191       126326.09     -46574.456     -51958.609      50.17619     
   6984000   224.69178      126487.72     -46395.402     -51881.435      50.19758     
   6985000   225.51457      126584.12     -46458.505     -51964.627      50.21033     
   6986000   226.21714      126601.76     -46487.634     -52010.91       50.212662    
   6987000   229.23923      126746.68     -46459.485     -52056.547      50.231814    
   6988000   223.77063      126392.84     -46495.692     -51959.234      50.185026    
   6989000   224.12972      126518.49     -46514.608     -51986.918      50.201651    
   6990000   225.2267       126468.1      -46417.19      -51916.283      50.194985    
   6991000   225.71987      126406.75     -46426.412     -51937.547      50.186867    
   6992000   225.4292       126168.8      -46514.429     -52018.466      50.155356    
   6993000   225.31404      126101.58     -46384.01      -51885.236      50.146447    
   6994000   228.45928      126179.27     -46264.891     -51842.911      50.156744    
   6995000   224.65494      126436.95     -46364.57      -51849.703      50.190864    
   6996000   224.73101      126105.52     -46508.55      -51995.541      50.14697     
   6997000   223.10488      126158.6      -46579.545     -52026.833      50.154005    
   6998000   223.77391      126421.73     -46428.297     -51891.92       50.18885     
   6999000   226.09091      126561.64     -46453.898     -51974.092      50.207358    
   7000000   224.5128       126388.46     -46400.476     -51882.139      50.184446    
Loop time of 34917.8 on 56 procs for 7000000 steps with 12288 atoms

Performance: 17.321 ns/day, 1.386 hours/ns, 200.471 timesteps/s, 2.463 Matom-step/s
99.8% CPU use with 56 MPI tasks x no OpenMP threads

MPI task timing breakdown:
Section |  min time  |  avg time  |  max time  |%varavg| %total
---------------------------------------------------------------
Pair    | 18239      | 18665      | 20102      | 223.8 | 53.45
Bond    | 1.2797     | 2.0612     | 3.2013     |  22.6 |  0.01
Kspace  | 7794       | 9232.7     | 9657.9     | 319.9 | 26.44
Neigh   | 1199.5     | 1200       | 1200.5     |   0.7 |  3.44
Comm    | 1014.9     | 1033.4     | 1051.6     |  27.0 |  2.96
Output  | 0.24526    | 0.26061    | 0.68932    |  11.4 |  0.00
Modify  | 3581.6     | 3908.6     | 4639.8     | 389.0 | 11.19
Other   |            | 875.8      |            |       |  2.51

Nlocal:        219.429 ave         238 max         197 min
Histogram: 1 4 0 8 10 11 8 6 6 2
Nghost:        6743.71 ave        6805 max        6697 min
Histogram: 2 7 7 9 12 6 5 6 1 1
Neighs:        93859.7 ave      103180 max       83834 min
Histogram: 3 1 3 6 12 14 7 5 3 2

Total # of neighbors = 5256142
Ave neighs/atom = 427.74593
Ave special neighs/atom = 2
Neighbor list builds = 98555
Dangerous builds = 0
print "NPT run completed"
NPT run completed
unfix fnpt

fix fnpt all npt temp 225.0 225.0 100.0 iso 0.9869 0.9869 1000.0
dump dH2O gH2O custom 200 dump_H2O_225_short.lammpstrj id type xu yu zu # 0.2ps
dump_modify dH2O sort id
run 1000000 # 1ns
PPPM initialization ...
  extracting TIP4P info from pair style
  using 12-bit tables for long-range coulomb
  G vector (1/distance) = 0.32756109
  grid = 50 50 50
  stencil order = 5
  estimated absolute RMS force accuracy = 0.0036651818
  estimated relative force accuracy = 1.1037586e-05
  using double precision KISS FFT
  3d grid and FFT values/proc = 11424 2800
Generated 0 of 1 mixed pair_coeff terms from geometric mixing rule
Per MPI rank memory allocation (min/avg/max) = 9.558 | 9.628 | 9.696 Mbytes
   Step          Temp          Volume         TotEng         PotEng           Lx      
   7000000   224.5128       126388.46     -46400.477     -51882.139      50.184446    
   7001000   222.57805      126627.14     -46420.323     -51854.747      50.216017    
   7002000   226.89667      126793.65     -46421.018     -51960.885      50.238018    
   7003000   223.0973       126865.77     -46388.572     -51835.675      50.247541    
   7004000   223.89289      126336.35     -46504.385     -51970.912      50.177548    
   7005000   225.15528      126674.07     -46328.528     -51825.878      50.22222     
   7006000   222.63679      126825.76     -46407.902     -51843.761      50.242259    
   7007000   223.08336      126564.34     -46498.092     -51944.854      50.207715    
   7008000   228.30061      126783.91     -46302.603     -51876.748      50.236732    
   7009000   231.32664      126395.85     -46106.865     -51754.893      50.185425    
   7010000   225.5586       126538.53     -46338.304     -51845.501      50.204302    
   7011000   226.61283      126621.99     -46476.475     -52009.411      50.215337    
   7012000   225.5182       126477.38     -46311.952     -51818.162      50.196212    
   7013000   225.09655      127088.9      -46283.562     -51779.478      50.276983    
   7014000   225.80213      126448.26     -46219.495     -51732.638      50.192361    
   7015000   226.45391      126346.17     -46351.364     -51880.421      50.178848    
   7016000   227.1734       126818.02     -46260.574     -51807.197      50.241237    
   7017000   224.03289      126802.82     -46509.828     -51979.774      50.239229    
   7018000   220.14654      126549.8      -46518.753     -51893.81       50.205791    
   7019000   226.04324      126771.24     -46471.464     -51990.494      50.235058    
   7020000   225.47178      126752.4      -46296.398     -51801.475      50.232569    
   7021000   225.33258      126817.59     -46449.043     -51950.722      50.241181    
   7022000   223.50939      126677.74     -46436.7       -51893.864      50.222705    
   7023000   223.20791      126488.54     -46504.482     -51954.285      50.19769     
   7024000   222.99783      126718.51     -46406.458     -51851.132      50.228093    
   7025000   223.79658      127270.63     -46511.762     -51975.938      50.300935    
   7026000   226.54156      126943.93     -46377.364     -51908.561      50.257859    
   7027000   222.88367      126466.01     -46567.156     -52009.043      50.194709    
   7028000   224.48219      127488.92     -46406.322     -51887.238      50.329677    
   7029000   221.94437      126410.5      -46659.419     -52078.372      50.187364    
   7030000   226.48184      126797.63     -46514.355     -52044.094      50.238545    
   7031000   224.05527      127114.49     -46510.581     -51981.073      50.280357    
   7032000   222.13809      127148.61     -46542.415     -51966.098      50.284856    
   7033000   226.28882      126984.09     -46342.028     -51867.054      50.263158    
   7034000   222.98643      126604.04     -46434.705     -51879.1        50.212964    
   7035000   222.78928      126417.55     -46593.634     -52033.216      50.188297    
   7036000   228.30312      126563.31     -46439.49      -52013.697      50.207579    
   7037000   221.27061      126939.52     -46662.373     -52064.876      50.257277    
   7038000   225.0103       127369.64     -46468.912     -51962.721      50.313977    
   7039000   226.87718      126923.65     -46393.209     -51932.6        50.255182    
   7040000   223.80586      126839.49     -46473.258     -51937.66       50.244072    
   7041000   223.48538      126560.09     -46535.804     -51992.382      50.207153    
   7042000   224.12726      126390.17     -46571.18      -52043.43       50.184673    
   7043000   225.72772      126326.26     -46438.924     -51950.25       50.176214    
   7044000   224.27095      126256.48     -46565.492     -52041.25       50.166973    
   7045000   226.73416      126315.93     -46511.794     -52047.693      50.174845    
   7046000   220.35787      126544.94     -46569.002     -51949.219      50.205149    
   7047000   226.87745      126324.42     -46454.511     -51993.909      50.17597     
   7048000   225.92646      125845.2      -46629.348     -52145.527      50.11244     
   7049000   224.98337      126920.34     -46462.686     -51955.838      50.254745    
   7050000   225.83627      126157.57     -46630.275     -52144.252      50.153868    
   7051000   224.97673      126366.59     -46503.521     -51996.512      50.181552    
   7052000   222.41168      126286.17     -46490.599     -51920.961      50.170904    
   7053000   224.18643      126449.95     -46539.465     -52013.159      50.192584    
   7054000   219.71454      126599.03     -46569.387     -51933.897      50.212301    
   7055000   223.19524      125930.23     -46523.57      -51973.064      50.123724    
   7056000   225.25514      126133.01     -46530.297     -52030.085      50.150614    
   7057000   221.12245      126339.64     -46625.661     -52024.546      50.177985    
   7058000   226.93473      126055.38     -46418.677     -51959.474      50.140324    
   7059000   221.21766      126072.14     -46486.022     -51887.231      50.142545    
   7060000   228.88094      125636.36     -46314.439     -51902.754      50.084704    
   7061000   222.81053      126268.07     -46524.03      -51964.13       50.168507    
   7062000   224.7054       125857.89     -46479.447     -51965.813      50.114125    
   7063000   223.76719      125168.32     -46437.617     -51901.076      50.022432    
   7064000   221.67618      125439.87     -46589.764     -52002.169      50.058581    
   7065000   223.06258      125573.78     -46490.163     -51936.417      50.076387    
   7066000   225.71117      125838.06     -46424.211     -51935.133      50.111492    
   7067000   224.96184      125424.78     -46407.611     -51900.238      50.056574    
   7068000   221.59525      125721.16     -46505.081     -51915.51       50.09597     
   7069000   224.03847      125432.57     -46418.67      -51888.752      50.057609    
   7070000   223.97326      125631.19     -46453.043     -51921.533      50.084017    
   7071000   223.35304      125782.75     -46512.407     -51965.753      50.10415     
   7072000   222.48374      125560.32     -46557.123     -51989.244      50.074599    
   7073000   228.32721      125002.88     -46410.605     -51985.4        50.000383    
   7074000   226.09906      125567.46     -46340.226     -51860.619      50.075547    
   7075000   225.59887      125786.2      -46488.952     -51997.132      50.104608    
   7076000   225.23185      126162.76     -46312.786     -51812.005      50.154556    
   7077000   219.0464       125878.48     -46519.152     -51867.348      50.116857    
   7078000   224.63606      125614.04     -46384.197     -51868.87       50.081738    
   7079000   225.6606       125674.38     -46298.214     -51807.902      50.089756    
   7080000   223.86983      126249.77     -46331.455     -51797.419      50.166084    
   7081000   223.47733      125650.28     -46504.778     -51961.159      50.086555    
   7082000   228.22175      125636        -46305.489     -51877.709      50.084656    
   7083000   223.94728      125481.16     -46465.594     -51933.449      50.064073    
   7084000   224.4577       125770.97     -46392.546     -51872.864      50.102586    
   7085000   226.05128      126008.06     -46403.267     -51922.494      50.134048    
   7086000   222.72553      125941.16     -46505.967     -51943.992      50.125174    
   7087000   226.26047      125880.08     -46444.947     -51969.281      50.11707     
   7088000   223.46204      126176.5      -46505.731     -51961.739      50.156377    
   7089000   223.70276      126113.6      -46568.201     -52030.086      50.148042    
   7090000   227.3202       126114.45     -46350.204     -51900.412      50.148154    
   7091000   224.72692      126250.93     -46450.138     -51937.03       50.166237    
   7092000   228.51568      125583.93     -46467.21      -52046.607      50.077737    
   7093000   224.22311      126303.75     -46423.794     -51898.384      50.173232    
   7094000   225.08639      126202.5      -46564.18      -52059.848      50.159822    
   7095000   223.02082      126080.06     -46451.453     -51896.688      50.143595    
   7096000   227.76369      125909.52     -46533.334     -52094.37       50.120977    
   7097000   223.35699      125690.71     -46542.837     -51996.28       50.091925    
   7098000   226.40376      126254.47     -46396.684     -51924.516      50.166706    
   7099000   225.58583      126041.39     -46335.349     -51843.211      50.138468    
   7100000   225.4707       126235.89     -46390.803     -51895.854      50.164246    
   7101000   221.90105      126316.22     -46443.447     -51861.342      50.174883    
   7102000   229.51295      126320.59     -46340.906     -51944.652      50.175462    
   7103000   226.313        126198.5      -46427.562     -51953.178      50.159292    
   7104000   228.36309      126421.72     -46311.203     -51886.874      50.188849    
   7105000   226.58882      126364.54     -46335.809     -51868.16       50.18128     
   7106000   226.72211      126271.33     -46468.446     -52004.051      50.168939    
   7107000   227.63072      126548.27     -46349.722     -51907.512      50.20559     
   7108000   226.50308      126610.9      -46392.691     -51922.948      50.213871    
   7109000   225.06731      126513.27     -46480.4       -51975.602      50.200961    
   7110000   227.90106      126333.07     -46320.857     -51885.248      50.177115    
   7111000   223.16516      125795.5      -46583.267     -52032.026      50.105842    
   7112000   224.45821      126222.9      -46457.177     -51937.507      50.162524    
   7113000   224.51677      126274.32     -46385.413     -51867.173      50.169335    
   7114000   218.92523      125650.83     -46622.631     -51967.869      50.086628    
   7115000   223.14742      126334.99     -46538.788     -51987.115      50.177368    
   7116000   222.28975      126171.09     -46532.938     -51960.324      50.15566     
   7117000   224.21812      126207.92     -46462.108     -51936.576      50.16054     
   7118000   221.23162      126346.11     -46616.216     -52017.767      50.178841    
   7119000   226.19153      126330.31     -46561.706     -52084.357      50.176749    
   7120000   223.33355      126301.52     -46632.598     -52085.469      50.172937    
   7121000   229.58932      126627.83     -46432.463     -52038.073      50.216109    
   7122000   228.44841      126043.32     -46435.665     -52013.419      50.138724    
   7123000   224.67628      126562.76     -46627.824     -52113.478      50.207505    
   7124000   225.78588      126652.31     -46449.745     -51962.491      50.219344    
   7125000   224.36815      126695.97     -46641.807     -52119.938      50.225114    
   7126000   224.26269      126927.33     -46510.8       -51986.357      50.255667    
   7127000   224.25661      126121.56     -46549.155     -52024.563      50.149096    
   7128000   224.60555      126372.58     -46503.024     -51986.951      50.182344    
   7129000   220.6498       126501.52     -46678.157     -52065.502      50.199407    
   7130000   226.20028      126823.13     -46524.177     -52047.041      50.241911    
   7131000   223.97533      126402.89     -46661.937     -52130.478      50.186357    
   7132000   226.99349      126862.5      -46559.473     -52101.704      50.247111    
   7133000   225.68002      126788.73     -46491.269     -52001.431      50.237368    
   7134000   224.9139       126929.27     -46567.573     -52059.03       50.255924    
   7135000   227.61275      127091.17     -46399.419     -51956.77       50.277283    
   7136000   225.4823       126613.47     -46557.706     -52063.04       50.21421     
   7137000   224.10974      126756.01     -46685.375     -52157.197      50.233047    
   7138000   225.90218      126804.51     -46579.548     -52095.134      50.239453    
   7139000   226.45836      126754.61     -46607.089     -52136.255      50.232861    
   7140000   227.14071      126587.59     -46464.46      -52010.286      50.210789    
   7141000   226.7246       126369.3      -46574.386     -52110.052      50.18191     
   7142000   223.40606      126661.16     -46566.337     -52020.978      50.220515    
   7143000   225.54509      126505.59     -46553.748     -52060.615      50.199945    
   7144000   226.32199      126304.74     -46362.363     -51888.199      50.173364    
   7145000   224.50459      126285.85     -46642.263     -52123.725      50.170862    
   7146000   225.85129      126165.42     -46482.961     -51997.304      50.154909    
   7147000   227.67575      126325.41     -46370.857     -51929.746      50.1761      
   7148000   227.67205      126142.72     -46386.596     -51945.395      50.151901    
   7149000   225.89374      126050.13     -46548.26      -52063.639      50.139627    
   7150000   224.44893      126251.2      -46589.677     -52069.781      50.166273    
   7151000   225.65825      126510.36     -46529.38      -52039.01       50.200576    
   7152000   226.98801      126761.72     -46484.347     -52026.445      50.233801    
   7153000   222.1325       126314.67     -46635.46      -52059.006      50.174678    
   7154000   226.88208      126596.93     -46442.982     -51982.493      50.212023    
   7155000   225.12742      125907.06     -46535.89      -52032.559      50.12065     
   7156000   222.49138      126571.02     -46672.122     -52104.431      50.208598    
   7157000   227.31311      126668.28     -46556.529     -52106.564      50.221455    
   7158000   227.41197      125964.94     -46480.827     -52033.276      50.128329    
   7159000   223.94902      126154.95     -46603.756     -52071.654      50.153522    
   7160000   229.57728      126592.87     -46430.756     -52036.073      50.211487    
   7161000   228.46406      126062.54     -46546.114     -52124.251      50.141273    
   7162000   225.70452      125956.09     -46630.156     -52140.916      50.127155    
   7163000   226.40926      126012.79     -46504.317     -52032.284      50.134676    
   7164000   225.22008      126502.73     -46584.739     -52083.671      50.199567    
   7165000   225.49698      126430.37     -46496.921     -52002.613      50.189993    
   7166000   225.09333      126172.75     -46500.415     -51996.252      50.15588     
   7167000   223.76893      126095.46     -46568.371     -52031.872      50.145637    
   7168000   225.47609      126373.33     -46607.952     -52113.134      50.182444    
   7169000   225.78556      126027.92     -46538.728     -52051.466      50.136682    
   7170000   224.66857      126496.24     -46453.435     -51938.902      50.198708    
   7171000   224.88486      125849.94     -46511.553     -52002.3        50.113069    
   7172000   229.14385      126590.12     -46402.805     -51997.539      50.211123    
   7173000   225.50468      126666.34     -46546.401     -52052.281      50.221198    
   7174000   226.59233      126374.5      -46466.782     -51999.218      50.182599    
   7175000   224.1722       126721.22     -46613.093     -52086.44       50.22845     
   7176000   224.3332       126099.72     -46471.318     -51948.596      50.146201    
   7177000   225.79012      126142.94     -46473.708     -51986.558      50.151929    
   7178000   227.39705      126527.19     -46415.358     -51967.442      50.202801    
   7179000   226.19045      126228.4      -46507.496     -52030.12       50.163253    
   7180000   221.16816      126535.54     -46731.458     -52131.459      50.203906    
   7181000   225.38338      126565.07     -46587.029     -52089.948      50.207811    
   7182000   224.60668      126484.79     -46636.444     -52120.399      50.197194    
   7183000   222.52418      126971.6      -46541.84      -51974.949      50.26151     
   7184000   222.73333      126845.6      -46603.013     -52041.229      50.244878    
   7185000   224.1523       126781.45     -46493.743     -51966.605      50.236408    
   7186000   226.15442      126497.8      -46528.92      -52050.665      50.198915    
   7187000   226.25562      126171.95     -46464.006     -51988.222      50.155774    
   7188000   227.25258      126466.45     -46463.971     -52012.528      50.194767    
   7189000   223.14981      126713.43     -46574.386     -52022.771      50.227422    
   7190000   221.25048      126411.36     -46687.074     -52089.085      50.187477    
   7191000   229.63793      126438.32     -46485.311     -52092.109      50.191045    
   7192000   229.77792      126083.01     -46265.395     -51875.61       50.143986    
   7193000   223.18683      126919.57     -46495.667     -51944.955      50.254644    
   7194000   224.43345      125951.76     -46482.615     -51962.341      50.126581    
   7195000   223.08006      125674.3      -46653.855     -52100.537      50.089746    
   7196000   225.38844      125890.52     -46519.077     -52022.12       50.118455    
   7197000   224.42415      126098.12     -46398.175     -51877.674      50.145989    
   7198000   225.72326      126125.92     -46406.612     -51917.829      50.149675    
   7199000   224.49729      126212.63     -46491.375     -51972.659      50.161165    
   7200000   223.78114      126008.11     -46433.123     -51896.921      50.134055    
   7201000   225.5938       126311.86     -46555.844     -52063.901      50.174306    
   7202000   223.527        126776.22     -46438.1       -51895.693      50.235716    
   7203000   224.66858      126318.64     -46499.018     -51984.485      50.175204    
   7204000   228.06349      126043.42     -46250.479     -51818.835      50.138737    
   7205000   226.74274      125932.75     -46402.467     -51938.576      50.124059    
   7206000   222.83688      125692.33     -46607.719     -52048.463      50.092141    
   7207000   225.49785      126122.89     -46440.829     -51946.543      50.149273    
   7208000   225.28155      126008.12     -46593.503     -52093.936      50.134057    
   7209000   227.16481      125612.32     -46459.021     -52005.435      50.081509    
   7210000   225.36801      126142.08     -46487.174     -51989.717      50.151816    
   7211000   224.05951      125722.91     -46639.12      -52109.716      50.096203    
   7212000   228.26422      126030.39     -46488.272     -52061.529      50.13701     
   7213000   227.38174      126494.45     -46560.401     -52112.111      50.198472    
   7214000   226.1493       126436.19     -46539.495     -52061.114      50.190763    
   7215000   224.80801      126176.29     -46350.316     -51839.187      50.156349    
   7216000   225.22752      126008.5      -46492.861     -51991.974      50.134107    
   7217000   226.4539       126511.65     -46421.065     -51950.122      50.200747    
   7218000   223.84323      126363.4      -46589.397     -52054.712      50.18113     
   7219000   230.69287      126104.01     -46301.087     -51933.642      50.146769    
   7220000   224.92517      126165.95     -46483.657     -51975.388      50.154979    
   7221000   224.01638      126287.09     -46455.452     -51924.995      50.171027    
   7222000   225.33602      125989.5      -46407.247     -51909.009      50.131586    
   7223000   224.92256      125797.3      -46608.857     -52100.524      50.106081    
   7224000   226.4368       125520.75     -46468.618     -51997.257      50.069337    
   7225000   231.42716      125564.68     -46290.734     -51941.217      50.075177    
   7226000   223.73389      125986.48     -46451.989     -51914.634      50.131186    
   7227000   222.7867       125795.93     -46566.137     -52005.656      50.105899    
   7228000   225.83051      126336.15     -46466.262     -51980.098      50.177522    
   7229000   227.25694      125921.41     -46298.97      -51847.633      50.122554    
   7230000   225.6229       125993.42     -46397.992     -51906.759      50.132107    
   7231000   225.51975      126332.94     -46429.312     -51935.561      50.177097    
   7232000   226.44323      126596.19     -46357.666     -51886.462      50.211926    
   7233000   226.07274      126246.88     -46503.765     -52023.515      50.1657      
   7234000   228.34903      126094.41     -46210.961     -51786.289      50.145498    
   7235000   224.59176      126375.86     -46475.185     -51958.776      50.182779    
   7236000   226.76277      125884.65     -46372.915     -51909.513      50.117676    
   7237000   223.01465      126015.82     -46464.863     -51909.948      50.135077    
   7238000   222.2688       126646.7      -46524.555     -51951.429      50.218603    
   7239000   224.22105      125977.9      -46429.924     -51904.464      50.130048    
   7240000   225.96546      126156.3      -46500.221     -52017.352      50.1537      
   7241000   224.36786      125922.32     -46482.017     -51960.141      50.122675    
   7242000   229.36837      126218.98     -46314.522     -51914.737      50.162006    
   7243000   222.96082      126102.82     -46564.262     -52008.032      50.146612    
   7244000   227.5825       126133.76     -46446.398     -52003.01       50.150713    
   7245000   224.53692      126411.06     -46386.065     -51868.317      50.187438    
   7246000   224.68894      126001.62     -46488.235     -51974.199      50.133194    
   7247000   226.32114      125958.36     -46414.058     -51939.873      50.127457    
   7248000   227.61452      126027.67     -46454.957     -52012.351      50.136648    
   7249000   229.65603      126303.8      -46439.762     -52047.001      50.17324     
   7250000   225.66288      125862.02     -46461.324     -51971.067      50.114673    
   7251000   227.67175      126257.98     -46318.757     -51877.549      50.167171    
   7252000   228.68543      126342.26     -46411.722     -51995.263      50.178332    
   7253000   227.88547      126219.22     -46514.728     -52078.738      50.162037    
   7254000   226.82903      126258.81     -46370.134     -51908.35       50.167281    
   7255000   225.91436      126304.52     -46500.849     -52016.732      50.173334    
   7256000   225.59923      126429.61     -46378.098     -51886.288      50.189893    
   7257000   224.03511      126346.54     -46494.515     -51964.515      50.178898    
   7258000   228.40756      125954.61     -46415.967     -51992.724      50.126959    
   7259000   225.64106      126103.37     -46496.565     -52005.775      50.146686    
   7260000   222.21018      126575.82     -46583.273     -52008.716      50.209233    
   7261000   223.67247      125990.33     -46542.359     -52003.505      50.131697    
   7262000   224.17566      126611.59     -46510.522     -51983.953      50.213962    
   7263000   220.41863      126696.6      -46660.567     -52042.267      50.225198    
   7264000   224.72315      126449.97     -46501.688     -51988.487      50.192586    
   7265000   226.12059      126662.6      -46384.842     -51905.761      50.220704    
   7266000   223.18216      126722.71     -46534.798     -51983.972      50.228647    
   7267000   227.1822       126410.08     -46411.553     -51958.392      50.187308    
   7268000   222.77836      126444.13     -46430.736     -51870.051      50.191814    
   7269000   226.1935       126903.28     -46419.367     -51942.066      50.252494    
   7270000   225.85692      126506.02     -46521.562     -52036.043      50.200002    
   7271000   224.97564      126679.29     -46544.516     -52037.479      50.22291     
   7272000   227.12367      126716.48     -46456.045     -52001.455      50.227824    
   7273000   224.67972      126547.91     -46568.59      -52054.329      50.205542    
   7274000   227.22156      126833.19     -46481.582     -52029.382      50.24324     
   7275000   228.78975      126927.01     -46449.448     -52035.536      50.255626    
   7276000   226.86207      126525.28     -46537.017     -52076.039      50.202549    
   7277000   224.57195      126421.22     -46613.331     -52096.438      50.188783    
   7278000   223.11055      126452.17     -46700.75      -52148.176      50.192877    
   7279000   226.12043      126652.87     -46515.345     -52036.259      50.219418    
   7280000   226.43285      126652.24     -46436.448     -51964.99       50.219335    
   7281000   229.19948      126693.77     -46401.558     -51997.651      50.224823    
   7282000   225.44862      126629.12     -46615.665     -52120.177      50.21628     
   7283000   224.7682       126715.22     -46598.534     -52086.433      50.227657    
   7284000   223.35911      126893.24     -46549.086     -52002.58       50.251168    
   7285000   223.09166      126366.88     -46600.373     -52047.337      50.181591    
   7286000   224.27508      126717.67     -46505.492     -51981.351      50.227982    
   7287000   227.46241      126637.03     -46461.56      -52015.24       50.217324    
   7288000   225.08081      126995.74     -46526.293     -52021.824      50.264696    
   7289000   227.51147      126710.58     -46407.734     -51962.612      50.227045    
   7290000   224.09685      126651.23     -46546.97      -52018.478      50.219202    
   7291000   223.07636      126652.24     -46492.004     -51938.595      50.219335    
   7292000   223.54646      126202.69     -46488.479     -51946.548      50.159848    
   7293000   226.31817      126667.22     -46399.333     -51925.075      50.221315    
   7294000   226.08154      126499.18     -46397.915     -51917.88       50.199097    
   7295000   223.73285      126954.05     -46552.438     -52015.058      50.259194    
   7296000   225.83787      126490.91     -46454.515     -51968.531      50.198003    
   7297000   225.91292      126672.63     -46567.334     -52083.182      50.22203     
   7298000   222.63857      126495.87     -46641.228     -52077.13       50.198658    
   7299000   224.23631      126720.53     -46555.287     -52030.199      50.228359    
   7300000   227.34156      126712.93     -46459.96      -52010.689      50.227355    
   7301000   226.33969      126516.88     -46591.18      -52117.448      50.201438    
   7302000   223.53603      126751.99     -46572.088     -52029.902      50.232516    
   7303000   227.06402      126350.27     -46515.252     -52059.205      50.179392    
   7304000   225.57933      126762.41     -46532.052     -52039.756      50.233893    
   7305000   225.44465      126291.36     -46458.087     -51962.501      50.171591    
   7306000   223.80778      126534.53     -46567.503     -52031.952      50.203772    
   7307000   224.76938      126410.18     -46578.8       -52066.727      50.187322    
   7308000   222.67454      126834.01     -46671.15      -52107.93       50.243349    
   7309000   226.66572      127033        -46449.476     -51983.704      50.269611    
   7310000   223.85591      126341.94     -46599.064     -52064.688      50.178289    
   7311000   223.01531      125859.1      -46640.926     -52086.027      50.114285    
   7312000   224.36228      125992.41     -46533.091     -52011.079      50.131973    
   7313000   225.27804      126229.34     -46470.961     -51971.307      50.163378    
   7314000   224.34653      125836.28     -46459.536     -51937.14       50.111257    
   7315000   222.45868      126496.06     -46393.014     -51824.524      50.198684    
   7316000   224.31613      125762.72     -46434.327     -51911.188      50.101489    
   7317000   223.64976      126124.62     -46534.57      -51995.161      50.149502    
   7318000   223.06392      126010.26     -46508.955     -51955.242      50.134341    
   7319000   223.48573      126512.74     -46526.085     -51982.671      50.20089     
   7320000   224.75978      126444.5      -46423.338     -51911.031      50.191863    
   7321000   223.8935       125893.03     -46432.143     -51898.686      50.118788    
   7322000   222.22323      126630.15     -46425.965     -51851.726      50.216415    
   7323000   224.25222      125882.96     -46664.221     -52139.521      50.117452    
   7324000   225.13769      126657.1      -46470.055     -51966.975      50.219977    
   7325000   223.07514      126552.84     -46631.465     -52078.026      50.206194    
   7326000   226.92847      126780.17     -46350.482     -51891.125      50.236238    
   7327000   222.84902      126879.59     -46503.108     -51944.148      50.249366    
   7328000   223.29523      126607.28     -46520.553     -51972.488      50.213392    
   7329000   227.38788      126728.68     -46392.054     -51943.915      50.229436    
   7330000   226.47417      126348.38     -46402.686     -51932.237      50.179141    
   7331000   225.25584      126595.8      -46646.373     -52146.178      50.211874    
   7332000   227.50509      126177.84     -46568.616     -52123.338      50.156555    
   7333000   222.89562      125983.99     -46514.253     -51956.431      50.130856    
   7334000   229.1367       126366.42     -46360.673     -51955.233      50.18153     
   7335000   226.99198      125835.14     -46557.103     -52099.297      50.111105    
   7336000   221.9816       126302.57     -46490.957     -51910.818      50.173076    
   7337000   226.55612      126274.91     -46514.369     -52045.922      50.169413    
   7338000   225.82165      126497.82     -46462.573     -51976.192      50.198916    
   7339000   226.60042      126147.15     -46407.452     -51940.086      50.152488    
   7340000   229.9036       126100.43     -46439.43      -52052.714      50.146295    
   7341000   225.35927      125933.98     -46637.417     -52139.748      50.124222    
   7342000   227.86203      126291.35     -46446.237     -52009.675      50.17159     
   7343000   224.01368      126141.6      -46521.356     -51990.833      50.151752    
   7344000   227.37634      126063.96     -46365.535     -51917.114      50.141461    
   7345000   225.91495      126397.41     -46491.494     -52007.392      50.185631    
   7346000   226.19166      126522.68     -46558.986     -52081.64       50.202205    
   7347000   227.37932      126521.25     -46431.223     -51982.874      50.202015    
   7348000   224.56781      126641.85     -46589.218     -52072.224      50.217962    
   7349000   222.6098       126814.53     -46623.75      -52058.949      50.240776    
   7350000   223.23094      126759.61     -46597.706     -52048.072      50.233522    
   7351000   222.6425       127102.8      -46530.541     -51966.54       50.278815    
   7352000   224.83925      126832.14     -46561.11      -52050.744      50.243101    
   7353000   223.43303      126633.8      -46756.819     -52212.118      50.216898    
   7354000   224.09742      126986.9      -46551.274     -52022.795      50.263529    
   7355000   223.26056      126546.92     -46695.575     -52146.664      50.205411    
   7356000   226.01968      127010.07     -46516.349     -52034.803      50.266586    
   7357000   230.066        126860.18     -46435.378     -52052.627      50.246804    
   7358000   224.64534      126854.04     -46531.55      -52016.449      50.245993    
   7359000   223.50308      126698.7      -46590.795     -52047.805      50.225474    
   7360000   224.53129      126371.48     -46581.194     -52063.309      50.182199    
   7361000   221.83878      126400.21     -46712.2       -52128.575      50.186002    
   7362000   227.13274      126354.03     -46571.74      -52117.371      50.17989     
   7363000   223.5258       126396.5      -46586.227     -52043.791      50.18551     
   7364000   225.77992      126444.36     -46626.853     -52139.454      50.191844    
   7365000   225.26082      126154.51     -46536.83      -52036.757      50.153463    
   7366000   226.37479      126348.28     -46397.169     -51924.294      50.179128    
   7367000   227.68496      126390.15     -46436.602     -51995.715      50.18467     
   7368000   223.30948      126471.03     -46543.998     -51996.281      50.195373    
   7369000   221.84991      126328.57     -46550.019     -51966.665      50.176519    
   7370000   226.41066      126223.57     -46420.989     -51948.99       50.162613    
   7371000   224.5972       126424.76     -46485.658     -51969.382      50.189251    
   7372000   224.65077      126535.78     -46513.856     -51998.887      50.203938    
   7373000   227.9946       126586.46     -46343.933     -51910.607      50.21064     
   7374000   223.99324      126208.08     -46545.937     -52014.915      50.160562    
   7375000   226.54491      126300.15     -46396.229     -51927.507      50.172756    
   7376000   223.95187      126520.46     -46591.671     -52059.639      50.201912    
   7377000   223.62548      126750.57     -46519.519     -51979.517      50.232328    
   7378000   224.72124      126401.23     -46587.867     -52074.619      50.186137    
   7379000   227.81726      126217.62     -46513.719     -52076.064      50.161826    
   7380000   223.05986      126556.77     -46687.103     -52133.291      50.206714    
   7381000   222.28992      126566.85     -46543.509     -51970.898      50.208046    
   7382000   226.80236      126502.88     -46465.198     -52002.762      50.199586    
   7383000   225.43548      126395.22     -46472.747     -51976.938      50.185342    
   7384000   221.81108      126479.71     -46577.834     -51993.532      50.196521    
   7385000   229.12857      126252.35     -46290.513     -51884.873      50.166425    
   7386000   223.88238      126390.82     -46620.438     -52086.709      50.184759    
   7387000   225.33306      126580.78     -46452.602     -51954.292      50.209889    
   7388000   225.83564      126755.47     -46452.798     -51966.759      50.232975    
   7389000   227.50004      126152.27     -46383.954     -51938.552      50.153166    
   7390000   228.0324       126708.85     -46434.919     -52002.516      50.226816    
   7391000   223.34558      126567.14     -46604.589     -52057.753      50.208085    
   7392000   223.28599      126790.36     -46554.34      -52006.049      50.237583    
   7393000   225.23769      126468.87     -46520.261     -52019.623      50.195087    
   7394000   223.47284      126504.03     -46474.663     -51930.934      50.199738    
   7395000   225.31947      126510.78     -46557.297     -52058.656      50.200631    
   7396000   229.14849      126524.33     -46379.607     -51974.454      50.202424    
   7397000   222.52759      126650.87     -46547.606     -51980.799      50.219154    
   7398000   224.45339      126430.84     -46529.458     -52009.67       50.190056    
   7399000   225.43074      126979.66     -46490.737     -51994.812      50.262574    
   7400000   228.00471      126531        -46373.488     -51940.409      50.203305    
   7401000   227.75545      126670.49     -46476.72      -52037.554      50.221748    
   7402000   223.89546      126468.78     -46501.64      -51968.23       50.195075    
   7403000   225.85439      126478.94     -46562.327     -52076.747      50.196419    
   7404000   225.80976      126068.49     -46557.632     -52070.961      50.142061    
   7405000   227.04645      126435.34     -46509.419     -52052.943      50.190651    
   7406000   222.63526      126077.44     -46629.606     -52065.427      50.143248    
   7407000   223.64923      126322.39     -46539.074     -51999.652      50.1757      
   7408000   227.10854      126341.38     -46486.832     -52031.872      50.178215    
   7409000   225.02914      126205.67     -46490.647     -51984.916      50.160242    
   7410000   222.96315      125851.22     -46620.215     -52064.042      50.113239    
   7411000   224.09709      126151.33     -46502.504     -51974.017      50.153041    
   7412000   226.84009      126142.45     -46480.575     -52019.06       50.151864    
   7413000   228.38714      126279.79     -46353.348     -51929.606      50.17006     
   7414000   227.28972      125918.38     -46385.351     -51934.815      50.122152    
   7415000   223.38831      126084.98     -46468.556     -51922.764      50.144247    
   7416000   221.13798      126327.38     -46566.294     -51965.558      50.176361    
   7417000   224.99091      126007.08     -46429.71      -51923.047      50.133918    
   7418000   227.91475      125468.39     -46465.125     -52029.849      50.062375    
   7419000   226.77359      125650.06     -46427.749     -51964.611      50.086526    
   7420000   222.21551      125073.11     -46527.281     -51952.853      50.009746    
   7421000   226.58618      125663.27     -46401.852     -51934.138      50.08828     
   7422000   224.35888      125943.87     -46509.04      -51986.945      50.125534    
   7423000   227.49267      126440.63     -46334.007     -51888.426      50.191351    
   7424000   222.7086       126154.76     -46566.584     -52004.196      50.153496    
   7425000   224.17424      125575.03     -46451.576     -51924.973      50.076553    
   7426000   225.4529       125924.7      -46464.554     -51969.17       50.122991    
   7427000   224.56067      126245.44     -46293.52      -51776.352      50.16551     
   7428000   223.86418      126261.84     -46582.713     -52048.539      50.167682    
   7429000   224.68863      126384.93     -46422.981     -51908.937      50.183979    
   7430000   223.63658      126041.86     -46561.302     -52021.571      50.138531    
   7431000   225.92725      126051.63     -46501.97      -52018.168      50.139826    
   7432000   223.82383      126157.47     -46650.588     -52115.429      50.153855    
   7433000   225.47347      126446.64     -46490.238     -51995.357      50.192146    
   7434000   219.29999      126385.6      -46537.728     -51892.116      50.184068    
   7435000   226.82014      126263.2      -46436.831     -51974.829      50.167863    
   7436000   225.12885      126249.07     -46429.059     -51925.764      50.165991    
   7437000   228.0305       126623.23     -46410.12      -51977.671      50.2155      
   7438000   223.57821      126595.67     -46559.508     -52018.352      50.211857    
   7439000   224.62127      126551.81     -46504.664     -51988.975      50.206057    
   7440000   222.95055      126409.31     -46649.557     -52093.077      50.187206    
   7441000   225.57515      126444.04     -46479.612     -51987.213      50.191802    
   7442000   222.06537      126078.5      -46564.701     -51986.608      50.143389    
   7443000   221.5373       126639.87     -46525.272     -51934.286      50.2177      
   7444000   226.66366      126678.35     -46462.704     -51996.882      50.222786    
   7445000   224.32272      126236.63     -46527.951     -52004.973      50.164343    
   7446000   223.63151      126336.05     -46482.658     -51942.804      50.177509    
   7447000   223.40946      126203        -46561.392     -52016.116      50.159888    
   7448000   223.48634      126124.83     -46473.786     -51930.387      50.14953     
   7449000   221.93993      126579.58     -46548.828     -51967.672      50.20973     
   7450000   225.38338      126312.07     -46439.814     -51942.733      50.174334    
   7451000   224.32913      126038.89     -46541.713     -52018.891      50.138137    
   7452000   225.62867      125994.25     -46481.202     -51990.109      50.132217    
   7453000   224.92521      126074.79     -46523.684     -52015.417      50.142897    
   7454000   226.7562       126006.89     -46413.036     -51949.474      50.133893    
   7455000   221.22623      126141.78     -46603.826     -52005.245      50.151777    
   7456000   224.47043      126139.38     -46384.471     -51865.099      50.151458    
   7457000   224.9906       125967.56     -46519.69      -52013.019      50.128676    
   7458000   227.30207      126367.62     -46365.506     -51915.271      50.181689    
   7459000   223.83972      126049.69     -46492.38      -51957.609      50.139568    
   7460000   227.38198      126137.41     -46586.934     -52138.65       50.151197    
   7461000   226.14516      125867.25     -46472.045     -51993.563      50.115367    
   7462000   227.2439       125905.71     -46488.507     -52036.852      50.120471    
   7463000   228.49048      126459.65     -46443.208     -52021.989      50.193867    
   7464000   226.84572      126132.21     -46555.382     -52094.006      50.150508    
   7465000   223.38647      126253.84     -46445.041     -51899.203      50.166623    
   7466000   223.12742      126456.02     -46531.713     -51979.551      50.193387    
   7467000   227.24483      126128.02     -46186.596     -51734.964      50.149953    
   7468000   226.74202      126080.57     -46437.797     -51973.888      50.143662    
   7469000   223.39164      126483.65     -46538.096     -51992.385      50.197042    
   7470000   226.43216      126310.12     -46437.955     -51966.48       50.174076    
   7471000   222.34698      126743.83     -46529.49      -51958.273      50.231437    
   7472000   224.78311      126395.06     -46419.555     -51907.817      50.185321    
   7473000   224.06996      126710.03     -46658.376     -52129.227      50.226972    
   7474000   222.63876      126696.95     -46469.35      -51905.257      50.225244    
   7475000   223.01697      126319.16     -46596.002     -52041.144      50.175273    
   7476000   228.55987      126528.83     -46380.403     -51960.878      50.203019    
   7477000   225.79535      126466.17     -46486.608     -51999.586      50.194729    
   7478000   225.4462       126329.54     -46469.205     -51973.658      50.176647    
   7479000   222.90693      126106.52     -46568.679     -52011.133      50.147103    
   7480000   225.48381      126207.16     -46590.677     -52096.048      50.160439    
   7481000   228.53733      126664.85     -46384.018     -51963.943      50.221001    
   7482000   224.43584      126516.82     -46548.586     -52028.37       50.201431    
   7483000   228.30353      126697.02     -46442.916     -52017.132      50.225253    
   7484000   227.95019      126340.5      -46532.626     -52098.216      50.178099    
   7485000   227.16592      126093.49     -46457.618     -52004.059      50.145376    
   7486000   228.43811      126365.04     -46478.905     -52056.407      50.181347    
   7487000   225.99844      126258.19     -46569.592     -52087.528      50.167199    
   7488000   225.66735      126383.06     -46541.182     -52051.034      50.183732    
   7489000   226.33967      126727.62     -46481.845     -52008.113      50.229297    
   7490000   225.11917      126131.66     -46605.362     -52101.83       50.150435    
   7491000   224.58098      126286.63     -46546.884     -52030.211      50.170966    
   7492000   227.89736      126301.6      -46424.565     -51988.865      50.172948    
   7493000   225.63451      126623.9      -46379.776     -51888.826      50.215589    
   7494000   223.51068      126624.94     -46556.624     -52013.819      50.215726    
   7495000   230.04878      126372.4      -46367.954     -51984.782      50.182321    
   7496000   221.6021       126694.61     -46539.824     -51950.419      50.224935    
   7497000   227.87828      126624.34     -46374.277     -51938.111      50.215647    
   7498000   225.64352      126987.56     -46277.531     -51786.801      50.263616    
   7499000   222.19371      126546.58     -46564.676     -51989.717      50.205365    
   7500000   225.21629      126433.49     -46473.42      -51972.259      50.190406    
   7501000   224.79903      126968.99     -46512.088     -52000.74       50.261165    
   7502000   224.96929      126752.53     -46538.852     -52031.66       50.232587    
   7503000   226.05294      126761.13     -46405.017     -51924.284      50.233723    
   7504000   223.51787      126506.96     -46419.977     -51877.348      50.200126    
   7505000   219.23278      126670.62     -46626.887     -51979.634      50.221765    
   7506000   225.3488       126373.07     -46407.424     -51909.498      50.18241     
   7507000   227.41091      126737.17     -46479.127     -52031.549      50.230558    
   7508000   224.66369      126416.82     -46492.404     -51977.751      50.188201    
   7509000   225.63486      126684.27     -46571.458     -52080.517      50.223568    
   7510000   225.68488      126923.53     -46404.147     -51914.427      50.255166    
   7511000   224.20931      126725.9      -46572.316     -52046.569      50.229069    
   7512000   224.27621      126660.31     -46520.286     -51996.172      50.220402    
   7513000   223.6118       127036.66     -46527.427     -51987.092      50.270093    
   7514000   228.33097      126797.02     -46449.008     -52023.895      50.238464    
   7515000   225.96855      126143.14     -46621.527     -52138.733      50.151957    
   7516000   224.34947      126583.13     -46559.33      -52037.005      50.210198    
   7517000   223.17101      126776.65     -46596.821     -52045.723      50.235773    
   7518000   223.10868      126382.71     -46568.191     -52015.571      50.183685    
   7519000   226.46841      126474.32     -46438.446     -51967.857      50.195808    
   7520000   226.0563       126704.97     -46501.683     -52021.032      50.226303    
   7521000   224.31629      127103.92     -46415.036     -51891.901      50.278963    
   7522000   221.77428      126338.46     -46581.036     -51995.836      50.177829    
   7523000   227.11134      126402.71     -46414.712     -51959.82       50.186332    
   7524000   223.629        126311.89     -46547.884     -52007.969      50.17431     
   7525000   222.55175      126707.68     -46520.388     -51954.17       50.226662    
   7526000   222.87927      126020.95     -46630.908     -52072.687      50.135757    
   7527000   228.28258      126067.94     -46498.008     -52071.713      50.141988    
   7528000   227.67625      126861.79     -46392.95      -51951.852      50.247017    
   7529000   221.85459      126703.62     -46516.752     -51933.513      50.226124    
   7530000   226.4583       126293.67     -46534.078     -52063.242      50.171898    
   7531000   227.11815      126331.57     -46509.289     -52054.564      50.176916    
   7532000   223.99442      125995.52     -46532.525     -52001.532      50.132385    
   7533000   223.27903      125791.21     -46560.34      -52011.88       50.105272    
   7534000   226.49045      125907.71     -46350.348     -51880.297      50.120736    
   7535000   225.46277      126161.34     -46416.543     -51921.4        50.154369    
   7536000   226.14958      126302.45     -46485.128     -52006.755      50.17306     
   7537000   223.91032      126101.71     -46437.131     -51904.084      50.146465    
   7538000   226.8903       126102.58     -46434.069     -51973.781      50.146581    
   7539000   221.11295      126240.35     -46583.441     -51982.094      50.164836    
   7540000   225.20275      125463.55     -46525.04      -52023.549      50.061731    
   7541000   224.35051      125940        -46615.246     -52092.946      50.12502     
   7542000   226.74654      126245.08     -46480.611     -52016.813      50.165463    
   7543000   224.00642      126319.95     -46443.05      -51912.349      50.175378    
   7544000   227.06311      126335.32     -46324.941     -51868.872      50.177412    
   7545000   227.75389      126497.08     -46394.363     -51955.16       50.198819    
   7546000   226.12379      126593.54     -46461.569     -51982.565      50.211575    
   7547000   226.91862      126243.88     -46388.792     -51929.195      50.165303    
   7548000   226.97805      126566.65     -46513.573     -52055.427      50.208019    
   7549000   222.55458      126774.92     -46698.396     -52132.248      50.235545    
   7550000   225.80444      126593.43     -46491.324     -52004.523      50.21156     
   7551000   221.24419      126731.06     -46507.99      -51909.847      50.229751    
   7552000   224.27196      127294.47     -46511.227     -51987.01       50.304077    
   7553000   225.78153      126873.94     -46517.276     -52029.917      50.24862     
   7554000   228.59153      126895.46     -46444.035     -52025.284      50.251461    
   7555000   224.71067      126867.03     -46584.655     -52071.149      50.247709    
   7556000   224.04169      127085.3      -46524.918     -51995.078      50.276508    
   7557000   223.2048       127047.2      -46568.134     -52017.861      50.271484    
   7558000   227.50845      127260.36     -46454.83      -52009.634      50.299582    
   7559000   221.6294       127443.84     -46537.535     -51948.797      50.323744    
   7560000   224.37017      126779.39     -46466.753     -51944.933      50.236136    
   7561000   225.40194      126662.07     -46495.809     -51999.181      50.220634    
   7562000   228.27562      126886        -46394.524     -51968.06       50.250213    
   7563000   219.5695       126798.25     -46699.485     -52060.453      50.238626    
   7564000   223.1563       126584.08     -46480.209     -51928.752      50.210324    
   7565000   229.93989      126929.56     -46385.887     -52000.056      50.255963    
   7566000   225.07476      126931.54     -46502.94      -51998.324      50.256223    
   7567000   227.17437      126696.91     -46489.755     -52036.403      50.225239    
   7568000   224.43752      127267.46     -46546.332     -52026.157      50.300518    
   7569000   224.5023       127197.35     -46455.802     -51937.209      50.291279    
   7570000   222.95648      126993.02     -46648.392     -52092.056      50.264336    
   7571000   224.23086      126969.06     -46542.491     -52017.27       50.261175    
   7572000   226.28124      127308.32     -46425.034     -51949.875      50.305901    
   7573000   224.72248      126757.24     -46539.639     -52026.422      50.23321     
   7574000   223.11719      127350.28     -46604.388     -52051.976      50.311427    
   7575000   222.20524      126567.95     -46622.603     -52047.926      50.208192    
   7576000   228.21563      126898.23     -46403.599     -51975.669      50.251827    
   7577000   224.57889      127232.8      -46596.727     -52080.004      50.295952    
   7578000   225.66643      126723.2      -46570.574     -52080.404      50.228712    
   7579000   225.22797      127244.35     -46465.174     -51964.299      50.297474    
   7580000   226.50475      127649.02     -46483.466     -52013.764      50.350737    
   7581000   227.09126      127543.7      -46462.672     -52007.29       50.336885    
   7582000   227.592        127346.27     -46438.176     -51995.02       50.310899    
   7583000   228.07867      126967.51     -46426.497     -51995.224      50.26097     
   7584000   226.528        127135.69     -46490.899     -52021.765      50.283152    
   7585000   227.23704      127276.88     -46416.831     -51965.009      50.301759    
   7586000   224.17284      127212.14     -46517.293     -51990.656      50.293229    
   7587000   223.82532      126943.66     -46459.132     -51924.01       50.257823    
   7588000   221.43073      126537.09     -46530.746     -51937.158      50.204111    
   7589000   224.373        127221.97     -46583.547     -52061.796      50.294524    
   7590000   226.56465      126550.58     -46511.32      -52043.08       50.205895    
   7591000   224.50917      126607.39     -46518.241     -51999.815      50.213407    
   7592000   223.19239      126876.01     -46554.04      -52003.464      50.248894    
   7593000   224.85229      127088.07     -46611.73      -52101.682      50.276874    
   7594000   223.33004      127044.93     -46487.622     -51940.407      50.271184    
   7595000   226.77465      127208.62     -46493.497     -52030.385      50.292766    
   7596000   225.61578      127007.55     -46491.678     -52000.272      50.266253    
   7597000   226.71649      126506.92     -46432.27      -51967.737      50.20012     
   7598000   225.02362      126552.19     -46507.633     -52001.768      50.206107    
   7599000   226.34094      127200.75     -46416.842     -51943.14       50.291727    
   7600000   225.00907      126960.42     -46603.465     -52097.245      50.260035    
   7601000   224.25365      126647.17     -46412.987     -51888.322      50.218665    
   7602000   226.46402      126783.95     -46477.774     -52007.078      50.236737    
   7603000   224.21477      126817.1      -46446.959     -51921.345      50.241116    
   7604000   222.31099      126829.34     -46561.088     -51988.992      50.242731    
   7605000   225.74732      126882.3      -46686.314     -52198.118      50.249724    
   7606000   227.81599      126634.67     -46430.804     -51993.117      50.217013    
   7607000   226.74436      126387.22     -46533.76      -52069.908      50.184283    
   7608000   221.36819      126734.63     -46618.922     -52023.806      50.230222    
   7609000   226.6078       126543.49     -46425.271     -51958.085      50.204958    
   7610000   225.06911      127147        -46624.862     -52120.108      50.284643    
   7611000   223.50994      126293.64     -46539.049     -51996.226      50.171894    
   7612000   227.14296      126501.75     -46511.542     -52057.423      50.199437    
   7613000   224.15057      127053.92     -46576.853     -52049.672      50.27237     
   7614000   228.27154      127042.42     -46332.072     -51905.508      50.270853    
   7615000   222.63798      126611.86     -46661.273     -52097.161      50.213998    
   7616000   224.10808      126591.16     -46591.591     -52063.372      50.211261    
   7617000   226.69502      126564.99     -46454.067     -51989.011      50.2078      
   7618000   226.80684      126977.11     -46527.068     -52064.742      50.262236    
   7619000   223.34143      126562.54     -46638.619     -52091.683      50.207477    
   7620000   225.01696      126529.06     -46551.352     -52045.324      50.203049    
   7621000   224.75199      127004.62     -46591.394     -52078.897      50.265867    
   7622000   223.43669      127155.09     -46684.303     -52139.692      50.285709    
   7623000   228.31007      127257.59     -46448.17      -52022.546      50.299218    
   7624000   224.67755      126527.85     -46666.465     -52152.15       50.202889    
   7625000   226.36717      126931.48     -46489.865     -52016.804      50.256216    
   7626000   223.79534      126835.6      -46540.266     -52004.412      50.243558    
   7627000   223.83831      126639.04     -46560.383     -52025.578      50.21759     
   7628000   222.95295      126952.64     -46673.469     -52117.047      50.259009    
   7629000   224.36074      127260.4      -46541.302     -52019.253      50.299588    
   7630000   227.38815      127012.32     -46459.287     -52011.154      50.266882    
   7631000   224.09913      126734.81     -46623.428     -52094.991      50.230246    
   7632000   224.55344      126382.22     -46603.715     -52086.371      50.183621    
   7633000   229.45873      126978.13     -46476.698     -52079.12       50.262371    
   7634000   225.93285      126757.83     -46580.291     -52096.626      50.233287    
   7635000   227.46071      126730.02     -46502.03      -52055.669      50.229613    
   7636000   222.76255      126596.35     -46714.204     -52153.133      50.211947    
   7637000   223.34224      127059.17     -46741.739     -52194.822      50.273063    
   7638000   226.55238      127146.95     -46552.365     -52083.826      50.284636    
   7639000   225.65789      127041.77     -46594.14      -52103.762      50.270767    
   7640000   224.94065      126509.12     -46607.9       -52100.01       50.200411    
   7641000   227.20589      127100.5      -46473.807     -52021.224      50.278512    
   7642000   223.3966       127109.61     -46620.277     -52074.687      50.279714    
   7643000   227.17728      127290.29     -46490.627     -52037.346      50.303526    
   7644000   225.14679      127579.4      -46588.001     -52085.143      50.341581    
   7645000   224.68744      127078.07     -46600.43      -52086.357      50.275554    
   7646000   224.96596      127182.19     -46570.064     -52062.791      50.289282    
   7647000   223.42579      127175.94     -46644.265     -52099.388      50.288457    
   7648000   223.37215      127309.44     -46612.468     -52066.281      50.306048    
   7649000   227.74482      127423.4      -46464.607     -52025.183      50.321054    
   7650000   229.5997       127268.13     -46459.776     -52065.64       50.300607    
   7651000   222.59652      127266.96     -46649.535     -52084.411      50.300452    
   7652000   222.64093      127590.6      -46590.812     -52026.772      50.343054    
   7653000   225.11951      127810.01     -46574.928     -52071.404      50.371896    
   7654000   227.08804      127776.65     -46550.205     -52094.745      50.367512    
   7655000   222.56491      127413.01     -46789.552     -52223.656      50.319686    
   7656000   223.3059       127683.35     -46577.447     -52029.643      50.35525     
   7657000   224.93392      127516.92     -46563.564     -52055.509      50.333362    
   7658000   226.10571      126800.73     -46560.851     -52081.406      50.238954    
   7659000   224.87621      127969.6      -46573.028     -52063.564      50.392852    
   7660000   223.57054      127189.75     -46447.797     -51906.454      50.290278    
   7661000   221.4053       127395.51     -46561.11      -51966.901      50.317382    
   7662000   226.69505      127545.23     -46504.574     -52039.518      50.337086    
   7663000   222.53137      126694.51     -46606.453     -52039.738      50.224921    
   7664000   227.56156      127139.61     -46427.704     -51983.805      50.283669    
   7665000   227.78194      127273.29     -46542.412     -52103.894      50.301286    
   7666000   226.99252      127674.96     -46445.305     -51987.512      50.354147    
   7667000   223.87552      127841.03     -46625.482     -52091.585      50.375969    
   7668000   226.2957       127915.33     -46518.266     -52043.46       50.385727    
   7669000   224.34075      127534.97     -46702.42      -52179.882      50.335736    
   7670000   227.11002      127286.06     -46516.197     -52061.273      50.302968    
   7671000   222.21292      127354.31     -46668.136     -52093.645      50.311958    
   7672000   223.5681       127969.06     -46744.859     -52203.457      50.39278     
   7673000   225.30976      127454.17     -46580.804     -52081.925      50.325104    
   7674000   226.86879      127376.48     -46636.486     -52175.672      50.314877    
   7675000   224.02544      127865.24     -46657.331     -52127.095      50.37915     
   7676000   223.35859      127768.01     -46638.714     -52092.196      50.366377    
   7677000   224.77923      127878.46     -46576.083     -52064.251      50.380885    
   7678000   223.99763      127849.37     -46750.567     -52219.652      50.377065    
   7679000   224.21046      127886.16     -46717.019     -52191.3        50.381896    
   7680000   223.67298      127992.4      -46571.588     -52032.746      50.395845    
   7681000   221.74528      127451.89     -46736.624     -52150.716      50.324804    
   7682000   226.59129      127610.16     -46729.286     -52261.697      50.345627    
   7683000   227.93451      127532.9      -46682.911     -52248.118      50.335464    
   7684000   226.71517      127968.85     -46545.632     -52081.068      50.392753    
   7685000   226.81895      127451.75     -46620.63      -52158.6        50.324785    
   7686000   223.21181      127756.09     -46566.245     -52016.144      50.364811    
   7687000   225.79419      127287.73     -46631.818     -52144.767      50.303188    
   7688000   219.40542      127412.6      -46719.565     -52076.527      50.319633    
   7689000   225.70651      127834.01     -46571.092     -52081.901      50.375048    
   7690000   225.27362      127556.73     -46705.281     -52205.52       50.338599    
   7691000   227.28396      127291.55     -46499.738     -52049.061      50.303691    
   7692000   224.13201      127508.69     -46657.152     -52129.517      50.332279    
   7693000   225.65372      127164.29     -46566.032     -52075.552      50.286922    
   7694000   224.00234      127215.7      -46606.726     -52075.926      50.293699    
   7695000   225.52368      127261.94     -46693.173     -52199.518      50.299791    
   7696000   223.27235      126995.72     -46672.917     -52124.294      50.264693    
   7697000   224.84376      127170.24     -46640.527     -52130.27       50.287707    
   7698000   225.73126      127318.04     -46701.839     -52213.252      50.307181    
   7699000   225.54413      127653.93     -46579.099     -52085.942      50.351382    
   7700000   225.74315      127276.35     -46725.703     -52237.406      50.30169     
   7701000   225.3904       126977.28     -46551.536     -52054.626      50.262259    
   7702000   224.47828      127348.55     -46669.271     -52150.091      50.311199    
   7703000   226.37231      127048.28     -46460.335     -51987.4        50.271625    
   7704000   222.11621      127253        -46689.434     -52112.583      50.298613    
   7705000   222.01197      127137.72     -46715.083     -52135.687      50.28342     
   7706000   224.99319      127729.08     -46570.627     -52064.019      50.361261    
   7707000   225.87776      127634.81     -46655.458     -52170.447      50.348868    
   7708000   223.76169      126998.44     -46685.323     -52148.647      50.265052    
   7709000   222.10185      127027.37     -46672.043     -52094.841      50.268868    
   7710000   225.88786      127499.15     -46456.74      -51971.976      50.331023    
   7711000   222.17241      127616.87     -46654.552     -52079.073      50.346509    
   7712000   224.44847      127387.46     -46502.986     -51983.078      50.316323    
   7713000   224.87967      127005.77     -46588.718     -52079.338      50.266018    
   7714000   227.52186      127449.21     -46494.555     -52049.686      50.324451    
   7715000   224.44615      127116.98     -46716.983     -52197.019      50.280685    
   7716000   229.46987      127485.48     -46463.911     -52066.605      50.329224    
   7717000   223.24667      127067.57     -46705.675     -52156.424      50.27417     
   7718000   224.51296      127386.69     -46520.796     -52002.463      50.316221    
   7719000   224.04948      127356.92     -46675.18      -52145.531      50.312301    
   7720000   228.7624       127213.85     -46478.098     -52063.519      50.293455    
   7721000   230.75179      127627.04     -46508.346     -52142.339      50.347847    
   7722000   227.03052      127421.73     -46623.696     -52166.831      50.320835    
   7723000   227.78572      127488.52     -46487.734     -52049.308      50.329625    
   7724000   221.79358      127503.18     -46713.318     -52128.589      50.331553    
   7725000   226.30159      127254.91     -46596.893     -52122.23       50.298864    
   7726000   225.31291      127224.19     -46692.037     -52193.235      50.294817    
   7727000   221.9246       126933.94     -46773.489     -52191.959      50.25654     
   7728000   223.98517      127330.12     -46644.635     -52113.415      50.308773    
   7729000   224.1482       127175.88     -46756.796     -52229.557      50.288451    
   7730000   227.4888       127470.62     -46601.9       -52156.225      50.32727     
   7731000   224.32292      127387.33     -46512.942     -51989.969      50.316305    
   7732000   224.99559      127202.83     -46588.521     -52081.972      50.292002    
   7733000   226.63027      127477.15     -46458.76      -51992.123      50.328129    
   7734000   229.32344      127100.54     -46451.608     -52050.726      50.278518    
   7735000   223.95587      127510.46     -46683.809     -52151.874      50.332512    
   7736000   222.74816      127344.75     -46631.579     -52070.157      50.310698    
   7737000   226.42083      127284.37     -46486.291     -52014.54       50.302746    
   7738000   226.3123       127160.54     -46628.766     -52154.365      50.286429    
   7739000   226.09109      127306.81     -46484.571     -52004.769      50.305701    
   7740000   221.70066      127032.62     -46697.951     -52110.953      50.26956     
   7741000   225.50366      127168.4      -46604.926     -52110.781      50.287465    
   7742000   227.27102      127551.68     -46486.189     -52035.196      50.337935    
   7743000   227.19339      127511.07     -46569.523     -52116.635      50.332593    
   7744000   226.3152       126955.35     -46512.258     -52037.928      50.259366    
   7745000   224.25825      127030.91     -46582.917     -52058.365      50.269334    
   7746000   224.24666      127140.84     -46572.953     -52048.118      50.283831    
   7747000   226.53401      127673.76     -46546.397     -52077.409      50.353989    
   7748000   229.92414      127482.92     -46452.754     -52066.539      50.328888    
   7749000   224.36004      127217.61     -46688.132     -52166.065      50.29395     
   7750000   224.39248      126921.28     -46594.313     -52073.038      50.254869    
   7751000   222.38405      127412.47     -46657.275     -52086.963      50.319615    
   7752000   224.33991      126937.51     -46550.677     -52028.119      50.257012    
   7753000   226.76154      127393.18     -46549.038     -52085.606      50.317076    
   7754000   224.90101      127286.1      -46593.652     -52084.794      50.302974    
   7755000   226.38743      127651.84     -46508.589     -52036.022      50.351108    
   7756000   227.87344      127365.73     -46432.104     -51995.82       50.313461    
   7757000   225.98952      127813.8      -46442.042     -51959.761      50.372392    
   7758000   225.98231      127138.24     -46480.486     -51998.029      50.283488    
   7759000   225.09813      127329.16     -46608.955     -52104.909      50.308646    
   7760000   226.36742      127641.29     -46501.233     -52028.178      50.349721    
   7761000   225.4544       127704.01     -46510.45      -52015.103      50.357966    
   7762000   223.38256      127405.81     -46585.011     -52039.078      50.318739    
   7763000   228.62071      127464.47     -46377.986     -51959.947      50.32646     
   7764000   224.2908       127292.37     -46645.917     -52122.159      50.3038      
   7765000   225.3268       127414.71     -46585.917     -52087.454      50.31991     
   7766000   225.01288      127688.28     -46617.54      -52111.412      50.355898    
   7767000   224.42679      127297.66     -46536.626     -52016.189      50.304497    
   7768000   225.45542      127031.75     -46345.549     -51850.227      50.269445    
   7769000   222.08537      127104.6      -46598.626     -52021.021      50.279053    
   7770000   228.26526      127226.47     -46452.842     -52026.124      50.295117    
   7771000   227.10738      127151.6      -46372.37      -51917.381      50.28525     
   7772000   224.10354      127026.8      -46567.136     -52038.807      50.268792    
   7773000   223.81759      126847.41     -46676.44      -52141.129      50.245117    
   7774000   227.80126      126840.01     -46444.051     -52006.004      50.24414     
   7775000   222.07208      127199.09     -46506.503     -51928.574      50.29151     
   7776000   224.57447      127481.91     -46441.398     -51924.567      50.328754    
   7777000   224.17237      127205.75     -46639.791     -52113.142      50.292387    
   7778000   226.89064      127380.22     -46483.006     -52022.726      50.31537     
   7779000   226.07602      127339.55     -46514.107     -52033.937      50.310014    
   7780000   225.5429       126908.99     -46424.426     -51931.239      50.253247    
   7781000   224.80533      127152.56     -46584.856     -52073.662      50.285376    
   7782000   226.76875      127159.52     -46516.626     -52053.37       50.286294    
   7783000   226.40787      127095.75     -46437.589     -51965.522      50.277886    
   7784000   224.75145      126663.64     -46607.661     -52095.15       50.220842    
   7785000   225.4523       126768.14     -46474.176     -51978.778      50.23465     
   7786000   225.45261      126860.12     -46601.645     -52106.254      50.246796    
   7787000   223.74731      126904.78     -46590.002     -52052.975      50.252692    
   7788000   224.36644      127079.58     -46514.451     -51992.541      50.275753    
   7789000   225.68243      126944.19     -46492.51      -52002.73       50.257893    
   7790000   223.71525      127077.94     -46487.094     -51949.284      50.275538    
   7791000   224.35329      126714.64     -46381.364     -51859.133      50.227581    
   7792000   224.098        126889.2      -46520.93      -51992.466      50.250634    
   7793000   221.75908      126800.65     -46603.257     -52017.686      50.238943    
   7794000   225.06785      126886.09     -46571.476     -52066.691      50.250224    
   7795000   229.20094      127300.01     -46337.928     -51934.055      50.304806    
   7796000   226.00491      127506.18     -46460.251     -51978.345      50.331949    
   7797000   224.02839      127484.84     -46462.699     -51932.535      50.32914     
   7798000   227.3179       126929.85     -46433.339     -51983.491      50.256001    
   7799000   222.47184      127228        -46527.766     -51959.598      50.295319    
   7800000   225.11866      127222.62     -46552.232     -52048.688      50.29461     
   7801000   223.57991      127183.57     -46432.733     -51891.619      50.289463    
   7802000   225.55819      126994.11     -46493.358     -52000.545      50.26448     
   7803000   224.61017      127004.25     -46540.915     -52024.955      50.265818    
   7804000   225.20903      127302.37     -46370.955     -51869.617      50.305117    
   7805000   222.30959      126737.42     -46537.545     -51965.415      50.230591    
   7806000   225.97536      127135.19     -46463.799     -51981.171      50.283086    
   7807000   223.98701      126496.77     -46443.403     -51912.229      50.198778    
   7808000   221.93986      126507.74     -46639.906     -52058.748      50.200229    
   7809000   227.89986      126824.1      -46451.738     -52016.099      50.24204     
   7810000   227.27412      127169.01     -46469.551     -52018.634      50.287544    
   7811000   228.22034      127067.63     -46388.447     -51960.633      50.274178    
   7812000   226.71421      126841.35     -46511.312     -52046.724      50.244318    
   7813000   224.7079       127526.8      -46507.84      -51994.266      50.334662    
   7814000   227.53741      127558.72     -46448.611     -52004.122      50.33886     
   7815000   227.89201      127574.86     -46421.235     -51985.404      50.340984    
   7816000   223.63718      127427.19     -46591.461     -52051.745      50.321553    
   7817000   225.18896      127558.09     -46517.153     -52015.325      50.338778    
   7818000   225.12387      127474.93     -46592.122     -52088.705      50.327837    
   7819000   223.5326       127693.97     -46483.003     -51940.734      50.356646    
   7820000   225.96601      127543.18     -46513.4       -52030.544      50.336817    
   7821000   229.72925      127585.82     -46376.993     -51986.02       50.342426    
   7822000   224.42483      127587.6      -46524.744     -52004.259      50.342659    
   7823000   225.26107      127429.45     -46481.272     -51981.204      50.321851    
   7824000   223.24577      127036.05     -46533.665     -51984.392      50.270012    
   7825000   227.02509      127342.15     -46437.641     -51980.643      50.310356    
   7826000   223.92731      127431.69     -46577.464     -52044.832      50.322146    
   7827000   228.7636       127404.97     -46368.235     -51953.685      50.318628    
   7828000   224.86788      127296.54     -46444.925     -51935.257      50.304349    
   7829000   222.92967      127114.86     -46538.788     -51981.797      50.280406    
   7830000   226.0841       127338.77     -46627.529     -52147.557      50.309911    
   7831000   229.1572       126830.89     -46417.568     -52012.628      50.242936    
   7832000   225.15426      127325.85     -46603.213     -52100.538      50.308209    
   7833000   223.36387      127251.34     -46622.823     -52076.434      50.298394    
   7834000   224.83602      127140.96     -46445.592     -51935.147      50.283846    
   7835000   225.91266      126821.36     -46544.269     -52060.11       50.241678    
   7836000   227.55854      127173.62     -46524.78      -52080.807      50.288152    
   7837000   228.10907      126624.22     -46535.58      -52105.049      50.215632    
   7838000   226.37909      127096.3      -46598.595     -52125.826      50.277958    
   7839000   229.18562      127419.94     -46466.664     -52062.418      50.320598    
   7840000   222.18497      126920.21     -46630.539     -52055.366      50.254728    
   7841000   222.36364      126772.84     -46594.834     -52024.023      50.23527     
   7842000   225.64861      126809.08     -46413.735     -51923.13       50.240056    
   7843000   223.92049      126933.21     -46548.097     -52015.298      50.256444    
   7844000   228.97059      127043.9      -46321.106     -51911.609      50.271048    
   7845000   224.34844      126776.81     -46571.032     -52048.682      50.235794    
   7846000   227.59924      126881.07     -46515.219     -52072.24       50.249562    
   7847000   228.33537      127228.74     -46384.946     -51959.94       50.295417    
   7848000   227.21635      127252.62     -46490.429     -52038.102      50.298563    
   7849000   224.52806      127095.63     -46540.713     -52022.748      50.277871    
   7850000   224.9525       127011.51     -46579.852     -52072.251      50.266775    
   7851000   222.03769      126748.8      -46605.196     -52026.427      50.232095    
   7852000   223.56727      127137.52     -46483.947     -51942.524      50.283394    
   7853000   223.46703      126923.11     -46621.809     -52077.939      50.255111    
   7854000   227.61628      127216.38     -46440.488     -51997.925      50.293788    
   7855000   225.10076      126270.51     -46481.193     -51977.211      50.168831    
   7856000   223.40729      126879.42     -46464.112     -51918.783      50.249344    
   7857000   225.89024      126898.97     -46464.079     -51979.373      50.251925    
   7858000   228.68288      126843.9      -46331.753     -51915.232      50.244654    
   7859000   220.81495      127146.56     -46588.211     -51979.588      50.284585    
   7860000   225.51438      126756.1      -46556.332     -52062.449      50.233058    
   7861000   223.72717      126911.57     -46463.257     -51925.738      50.253587    
   7862000   225.64601      126758.37     -46419.633     -51928.965      50.233358    
   7863000   228.01098      126897.91     -46355.859     -51922.932      50.251784    
   7864000   221.38481      126743.4      -46700.659     -52105.949      50.231381    
   7865000   225.95053      126902.89     -46572.731     -52089.497      50.252442    
   7866000   227.34097      126534.18     -46584.933     -52135.648      50.203726    
   7867000   226.04976      127344.83     -46373.535     -51892.724      50.310709    
   7868000   224.79986      126863.33     -46532.526     -52021.198      50.247219    
   7869000   223.59295      127108.29     -46614.652     -52073.856      50.279539    
   7870000   225.43252      126969.51     -46513.841     -52017.96       50.261234    
   7871000   226.79107      126628.56     -46450.486     -51987.775      50.216205    
   7872000   224.64807      126593.03     -46602.7       -52087.666      50.211509    
   7873000   227.64741      126821.57     -46474.209     -52032.406      50.241706    
   7874000   226.14176      126248.9      -46484.151     -52005.587      50.165968    
   7875000   224.05515      127399.16     -46424.4       -51894.889      50.317864    
   7876000   226.79932      126523.15     -46500.609     -52038.099      50.202267    
   7877000   223.20885      126389.09     -46611.144     -52060.97       50.184531    
   7878000   223.35115      126464.02     -46473.603     -51926.903      50.194445    
   7879000   221.6589       126211.1      -46672.525     -52084.507      50.160961    
   7880000   226.44321      126071.95     -46492.824     -52021.619      50.14252     
   7881000   225.81641      126074.05     -46492.614     -52006.106      50.142798    
   7882000   225.12586      125965.06     -46557.557     -52054.189      50.128345    
   7883000   225.95307      126358.52     -46458.467     -51975.296      50.180484    
   7884000   224.13394      126554.77     -46571.801     -52044.214      50.20645     
   7885000   224.99658      126330.67     -46519.412     -52012.887      50.176796    
   7886000   224.78212      126126.39     -46529.863     -52018.102      50.149736    
   7887000   219.93198      126249.52     -46697.056     -52066.874      50.166051    
   7888000   223.08506      126147.33     -46584.182     -52030.985      50.152511    
   7889000   224.62493      126872.61     -46370.815     -51855.216      50.248445    
   7890000   225.17615      126669        -46562.399     -52060.259      50.221551    
   7891000   223.33008      126779.57     -46556.425     -52009.211      50.236159    
   7892000   222.55082      126936.23     -46545.889     -51979.648      50.256842    
   7893000   224.28238      126885.49     -46586.134     -52062.171      50.250145    
   7894000   224.13706      127102.86     -46518.062     -51990.551      50.278823    
   7895000   224.54357      127192.01     -46625.041     -52107.456      50.290577    
   7896000   224.40703      126653.2      -46497.56      -51976.64       50.219462    
   7897000   224.12742      127079.05     -46626.118     -52098.371      50.275684    
   7898000   224.42413      126806.12     -46496.835     -51976.333      50.239666    
   7899000   226.79885      126911.31     -46527.565     -52065.043      50.253553    
   7900000   225.9303       127243.14     -46590.395     -52106.668      50.297314    
   7901000   224.06335      127350.97     -46596.534     -52067.224      50.311518    
   7902000   222.82971      126986.67     -46659.658     -52100.227      50.263498    
   7903000   223.40506      126959.19     -46527.864     -51982.481      50.259873    
   7904000   219.56631      127013.97     -46667.461     -52028.351      50.2671      
   7905000   224.61877      127197.35     -46436.401     -51920.652      50.291279    
   7906000   225.96594      127160.44     -46462.748     -51979.89       50.286415    
   7907000   224.58972      127112.74     -46477.184     -51960.725      50.280126    
   7908000   222.92794      126557.13     -46671.112     -52114.08       50.206761    
   7909000   224.68395      126934.11     -46471.243     -51957.085      50.256563    
   7910000   228.81457      126846.67     -46346.528     -51933.222      50.245021    
   7911000   230.65519      126876.3      -46331.818     -51963.452      50.248932    
   7912000   223.32572      126619        -46526.384     -51979.063      50.214941    
   7913000   227.79656      127183.35     -46451.23      -52013.068      50.289435    
   7914000   227.62258      126232.26     -46449.083     -52006.673      50.163764    
   7915000   226.33151      126653        -46506.54      -52032.608      50.219436    
   7916000   224.27143      126742.69     -46524.138     -51999.908      50.231287    
   7917000   224.66845      126902.83     -46568.83      -52054.293      50.252434    
   7918000   227.95839      126668.44     -46498.287     -52064.077      50.221476    
   7919000   223.22122      126833.08     -46642.813     -52092.941      50.243226    
   7920000   227.35946      127138.54     -46523.259     -52074.425      50.283527    
   7921000   224.42145      127195.62     -46522.191     -52001.623      50.291052    
   7922000   223.61355      127072.41     -46692.626     -52152.334      50.274808    
   7923000   223.14419      126722.41     -46623.037     -52071.284      50.228608    
   7924000   222.94392      126519.15     -46528.706     -51972.063      50.201738    
   7925000   223.90454      126281.38     -46546.645     -52013.457      50.170271    
   7926000   225.57113      127026.79     -46554.794     -52062.297      50.268791    
   7927000   225.95749      126845.76     -46561.093     -52078.03       50.2449      
   7928000   227.93898      126718.84     -46554.542     -52119.858      50.228136    
   7929000   228.27922      126779.34     -46447.015     -52020.638      50.236128    
   7930000   226.76008      126634.78     -46564.462     -52100.994      50.217027    
   7931000   224.65021      126694.06     -46631.555     -52116.573      50.224862    
   7932000   226.04505      126775.5      -46537.857     -52056.931      50.235621    
   7933000   219.3826       126557.98     -46762.635     -52119.04       50.206874    
   7934000   226.0418       126412.06     -46582.739     -52101.734      50.18757     
   7935000   225.1444       126574.93     -46538.679     -52035.763      50.209115    
   7936000   224.79521      126905.39     -46555.542     -52044.1        50.252772    
   7937000   223.73619      126676.48     -46637.739     -52100.441      50.222538    
   7938000   225.65767      126354.82     -46647.497     -52157.113      50.179993    
   7939000   225.70237      127050.92     -46569.336     -52080.043      50.271974    
   7940000   223.40565      126512.3      -46654.641     -52109.272      50.200833    
   7941000   224.87791      126648.07     -46648.344     -52138.921      50.218784    
   7942000   222.74715      126505.68     -46672.306     -52110.859      50.199957    
   7943000   226.70445      127055.57     -46666.325     -52201.499      50.272588    
   7944000   227.8727       126416.95     -46554.713     -52118.411      50.188217    
   7945000   222.11585      126461.82     -46799.289     -52222.429      50.194154    
   7946000   229.91518      126437.64     -46537.339     -52150.906      50.190955    
   7947000   225.40999      126771.93     -46634.074     -52137.643      50.23515     
   7948000   222.96464      126805.7      -46713.248     -52157.111      50.23961     
   7949000   223.48224      126634.18     -46692.487     -52148.988      50.216949    
   7950000   224.63756      126472.26     -46614.705     -52099.414      50.195536    
   7951000   222.45312      127151.8      -46677.122     -52108.497      50.285276    
   7952000   222.71903      126367.03     -46671.553     -52109.42       50.18161     
   7953000   223.99631      126234.83     -46697.425     -52166.477      50.164105    
   7954000   226.04458      126760.77     -46553.813     -52072.875      50.233675    
   7955000   225.86978      126767.38     -46521.418     -52036.213      50.234549    
   7956000   228.36288      126650.5      -46528.553     -52104.219      50.219105    
   7957000   223.60394      126689.93     -46604.254     -52063.726      50.224316    
   7958000   225.14963      127234.41     -46585.162     -52082.374      50.296164    
   7959000   226.46845      126739.74     -46546.049     -52075.46       50.230897    
   7960000   222.62391      127039.29     -46644.726     -52080.27       50.27044     
   7961000   226.62795      126758.76     -46512.445     -52045.752      50.23341     
   7962000   228.6          126902.28     -46496.527     -52077.982      50.252361    
   7963000   227.18364      126962.6      -46597.073     -52143.947      50.260323    
   7964000   224.19629      126578.9      -46666.456     -52140.391      50.20964     
   7965000   223.13969      126498.24     -46578.534     -52026.672      50.198972    
   7966000   222.53932      126891.26     -46661.679     -52095.158      50.250906    
   7967000   225.19439      126952.88     -46557.069     -52055.373      50.259039    
   7968000   225.60849      127246.05     -46539.288     -52047.704      50.297697    
   7969000   224.67893      126764.5      -46513.267     -51998.986      50.234168    
   7970000   224.96163      126960.51     -46483.766     -51976.388      50.260046    
   7971000   226.03838      126442.48     -46584.331     -52103.243      50.191596    
   7972000   225.38645      126735.03     -46570.981     -52073.975      50.230276    
   7973000   225.9656       126689.78     -46573.878     -52091.012      50.224296    
   7974000   225.1127       126362.99     -46599.971     -52096.281      50.181075    
   7975000   225.19665      126502.73     -46590.277     -52088.637      50.199567    
   7976000   223.55672      126743.53     -46612.379     -52070.698      50.231399    
   7977000   226.08176      127015.61     -46506.193     -52026.163      50.267316    
   7978000   222.09525      126816.24     -46621.633     -52044.27       50.241001    
   7979000   226.20952      126461.27     -46444.933     -51968.023      50.194081    
   7980000   226.41432      127309.66     -46516.844     -52044.934      50.306077    
   7981000   226.5463       126873.73     -46387.833     -51919.145      50.248592    
   7982000   227.0183       126967.03     -46575.972     -52118.809      50.260907    
   7983000   225.85597      126751.92     -46505.628     -52020.085      50.232507    
   7984000   224.19049      126985.1      -46546.25      -52020.043      50.263291    
   7985000   224.60439      126597.53     -46442.095     -51925.994      50.212103    
   7986000   225.65704      126724.54     -46623.214     -52132.815      50.22889     
   7987000   225.87969      126875.33     -46518.159     -52033.196      50.248803    
   7988000   225.70699      127111.61     -46598.66      -52109.48       50.279978    
   7989000   224.85545      126530.1      -46595.275     -52085.304      50.203187    
   7990000   225.9779       126250.99     -46507.009     -52024.444      50.166245    
   7991000   227.29946      126798.34     -46600.469     -52150.17       50.238638    
   7992000   222.50292      126590.67     -46584.206     -52016.797      50.211197    
   7993000   223.67288      126585.5      -46541.188     -52002.343      50.210512    
   7994000   225.40083      126674.87     -46549.818     -52053.163      50.222326    
   7995000   225.40891      126659.93     -46453.978     -51957.52       50.220351    
   7996000   224.61557      126599.98     -46647.155     -52131.327      50.212427    
   7997000   225.48441      126341.26     -46549.121     -52054.507      50.178199    
   7998000   226.40158      126354.38     -46486.496     -52014.275      50.179936    
   7999000   225.58881      126826.89     -46548.883     -52056.818      50.242409    
   8000000   224.53207      126841.51     -46568.354     -52050.487      50.244338    
Loop time of 5000.76 on 56 procs for 1000000 steps with 12288 atoms

Performance: 17.277 ns/day, 1.389 hours/ns, 199.970 timesteps/s, 2.457 Matom-step/s
99.8% CPU use with 56 MPI tasks x no OpenMP threads

MPI task timing breakdown:
Section |  min time  |  avg time  |  max time  |%varavg| %total
---------------------------------------------------------------
Pair    | 2518       | 2658.5     | 2876.1     | 124.4 | 53.16
Bond    | 0.18756    | 0.29158    | 0.44494    |   9.1 |  0.01
Kspace  | 1112.3     | 1330       | 1470.7     | 175.9 | 26.60
Neigh   | 171.95     | 172.02     | 172.08     |   0.3 |  3.44
Comm    | 144.25     | 147.15     | 149.75     |  11.3 |  2.94
Output  | 3.4255     | 6.3709     | 8.8691     |  57.2 |  0.13
Modify  | 511.95     | 560.67     | 665.99     | 145.6 | 11.21
Other   |            | 125.8      |            |       |  2.51

Nlocal:        219.429 ave         232 max         206 min
Histogram: 2 6 2 8 9 7 10 3 6 3
Nghost:        6704.88 ave        6746 max        6669 min
Histogram: 2 4 6 12 8 10 6 4 3 1
Neighs:        93498.2 ave       99981 max       86029 min
Histogram: 1 2 6 7 8 9 7 12 1 3

Total # of neighbors = 5235901
Ave neighs/atom = 426.09871
Ave special neighs/atom = 2
Neighbor list builds = 14132
Dangerous builds = 0
undump dH2O
Total wall time: 11:05:18
