LAMMPS (22 Jul 2025 - Update 1)
units real
atom_style full
boundary p p p

# package intel 1 omp 2

pair_style lj/cut/tip4p/long 1 2 1 1 0.1546 9.5

bond_style zero
angle_style zero
pair_modify tail yes

read_data equilibration_NVT_${T}.data
read_data equilibration_NVT_246.data
Reading data file ...
  orthogonal box = (0 0 0) to (24.89526 24.89526 24.89526)
  2 by 4 by 7 MPI processor grid
  reading atoms ...
  1536 atoms
  reading velocities ...
  1536 velocities
  scanning bonds ...
  2 = max bonds/atom
  scanning angles ...
  1 = max angles/atom
  orthogonal box = (0 0 0) to (24.89526 24.89526 24.89526)
  2 by 4 by 7 MPI processor grid
  reading bonds ...
  1024 bonds
  reading angles ...
  512 angles
Finding 1-2 1-3 1-4 neighbors ...
  special bond factors lj:    0        0        0       
  special bond factors coul:  0        0        0       
     2 = max # of 1-2 neighbors
     1 = max # of 1-3 neighbors
     1 = max # of 1-4 neighbors
     2 = max # of special neighbors
  special bonds CPU = 0.003 seconds
  read_data CPU = 0.044 seconds
replicate 2 2 2
Replication is creating a 2x2x2 = 8 times larger system...
  orthogonal box = (0 0 0) to (49.79052 49.79052 49.79052)
  2 by 4 by 7 MPI processor grid
  12288 atoms
  8192 bonds
  4096 angles
Finding 1-2 1-3 1-4 neighbors ...
  special bond factors lj:    0        0        0       
  special bond factors coul:  0        0        0       
     2 = max # of 1-2 neighbors
     1 = max # of 1-3 neighbors
     1 = max # of 1-4 neighbors
     2 = max # of special neighbors
  special bonds CPU = 0.004 seconds
  replicate CPU = 0.010 seconds

print "Initial configuration loaded."
Initial configuration loaded.
reset_timestep 0
print "Applying shear rate: ${gamma}"
Applying shear rate: 2.5e-5
change_box all triclinic
Changing box ...
  triclinic box = (0 0 0) to (49.79052 49.79052 49.79052) with tilt (0 0 0)
kspace_style pppm/tip4p 1.0e-5

pair_coeff 1 1 0.18521 3.1589 #O-O
pair_coeff * 2 0.0 0.0

bond_coeff 1 0.9572 #O-H
angle_coeff 1 104.52 #H-O-H

group gH2O type 1 2
12288 atoms in group gH2O
group gO type 1
4096 atoms in group gO

neighbor 3.0 bin
neigh_modify delay 0 every 1 check yes

timestep 1.0
fix 1 gH2O shake 1.0e-4 100 0 b 1 a 1
Finding SHAKE clusters ...
       0 = # of size 2 clusters
       0 = # of size 3 clusters
       0 = # of size 4 clusters
    4096 = # of frozen angles
  find clusters CPU = 0.003 seconds

# 系统弛豫到平衡态
fix fnvt_equil all nvt temp ${T} ${T} 100.0
fix fnvt_equil all nvt temp 246 ${T} 100.0
fix fnvt_equil all nvt temp 246 246 100.0
thermo 1000
thermo_style custom step temp etotal pe
thermo_modify flush yes
run 500000 # 500 ps
PPPM initialization ...
  extracting TIP4P info from pair style
  using 12-bit tables for long-range coulomb
  G vector (1/distance) = 0.32815664
  grid = 50 50 50
  stencil order = 5
  estimated absolute RMS force accuracy = 0.0035802102
  estimated relative force accuracy = 1.0781697e-05
  using double precision KISS FFT
  3d grid and FFT values/proc = 11424 2800
WARNING: Communication cutoff 0 is shorter than a bond length based estimate of 4.4358. This may lead to errors. (../comm.cpp:743)
WARNING: Increasing communication cutoff to 13.6118 for TIP4P pair style (../pair_lj_cut_tip4p_long.cpp:497)
Generated 0 of 1 mixed pair_coeff terms from geometric mixing rule
Neighbor list info ...
  update: every = 1 steps, delay = 0 steps, check = yes
  max neighbors/atom: 2000, page size: 100000
  master list distance cutoff = 12.8092
  ghost atom cutoff = 13.6118
  binsize = 6.4046, bins = 8 8 8
  1 neighbor lists, perpetual/occasional/extra = 1 0 0
  (1) pair lj/cut/tip4p/long, perpetual
      attributes: half, newton on
      pair build: half/bin/newton/tri
      stencil: half/bin/3d/tri
      bin: standard
Per MPI rank memory allocation (min/avg/max) = 9.169 | 9.314 | 9.649 Mbytes
   Step          Temp          TotEng         PotEng    
         0   249.85227     -43968.916     -50069.263    
      1000   252.26714     -44345.086     -50504.394    
      2000   246.73242     -44266.113     -50290.286    
      3000   243.01648     -44479.776     -50413.221    
      4000   245.56819     -44313.14      -50308.887    
      5000   245.61507     -44359.134     -50356.026    
      6000   247.64856     -44350.257     -50396.799    
      7000   242.46879     -44317.446     -50237.519    
      8000   249.15194     -44135.963     -50219.211    
      9000   247.8432      -44149.122     -50200.416    
     10000   245.12637     -44245.775     -50230.735    
     11000   249.97106     -44221.24      -50324.488    
     12000   244.57291     -44309.512     -50280.959    
     13000   246.42474     -44466.803     -50483.464    
     14000   242.343       -44447.182     -50364.183    
     15000   247.34518     -44245.714     -50284.848    
     16000   245.66333     -44285.286     -50283.356    
     17000   244.13725     -44146.044     -50106.854    
     18000   246.69913     -44330.318     -50353.678    
     19000   246.96348     -44278.196     -50308.011    
     20000   244.63527     -44289.074     -50262.044    
     21000   245.42247     -44230.312     -50222.501    
     22000   243.16223     -44240.219     -50177.223    
     23000   245.63694     -44431.705     -50429.131    
     24000   247.53924     -44335.239     -50379.111    
     25000   243.89819     -44389.933     -50344.906    
     26000   242.66802     -44375.96      -50300.898    
     27000   246.25134     -44359.262     -50371.689    
     28000   246.19141     -44370.715     -50381.679    
     29000   243.66321     -44396.292     -50345.528    
     30000   248.12913     -44251.316     -50309.591    
     31000   245.26595     -44290.706     -50279.074    
     32000   244.67131     -44336.828     -50310.677    
     33000   247.71871     -44256.434     -50304.689    
     34000   246.05886     -44313.658     -50321.386    
     35000   244.9362      -44369.646     -50349.963    
     36000   244.70824     -44353.063     -50327.814    
     37000   253.14953     -44095.39      -50276.242    
     38000   246.82357     -44164.028     -50190.427    
     39000   244.08146     -44334.851     -50294.299    
     40000   243.69517     -44421.192     -50371.208    
     41000   246.6648      -44170.89      -50193.412    
     42000   243.97154     -44391.338     -50348.102    
     43000   240.7079      -44591.32      -50468.4      
     44000   248.22224     -44285.384     -50345.932    
     45000   246.80029     -44119.41      -50145.24     
     46000   247.62253     -44158.318     -50204.224    
     47000   243.78848     -44322.354     -50274.648    
     48000   246.16326     -44298.708     -50308.985    
     49000   244.42989     -44271.535     -50239.49     
     50000   245.45973     -44347.381     -50340.48     
     51000   243.7659      -44227.606     -50179.349    
     52000   246.02039     -44260.298     -50267.087    
     53000   248.60653     -44183.72      -50253.651    
     54000   244.93826     -44206.333     -50186.7      
     55000   246.95283     -44251.994     -50281.549    
     56000   245.61659     -44450.566     -50447.496    
     57000   247.37286     -44229.42      -50269.23     
     58000   247.83213     -44222.188     -50273.212    
     59000   242.96213     -44394.745     -50326.863    
     60000   251.62787     -44183.589     -50327.288    
     61000   248.2886      -44331.195     -50393.364    
     62000   246.41433     -44389.34      -50405.747    
     63000   245.48175     -44319.835     -50313.472    
     64000   247.88317     -44329.103     -50381.372    
     65000   244.52775     -44226.137     -50196.481    
     66000   244.34664     -44334.559     -50300.481    
     67000   244.91061     -44264.546     -50244.239    
     68000   250.46766     -44098.944     -50214.316    
     69000   245.70684     -44302.389     -50301.522    
     70000   244.98028     -44229.487     -50210.88     
     71000   243.8161      -44330.192     -50283.161    
     72000   242.91118     -44245.733     -50176.607    
     73000   246.54677     -44289.043     -50308.683    
     74000   245.7772      -44274.95      -50275.8      
     75000   243.16751     -44279.245     -50216.378    
     76000   243.87503     -44234.832     -50189.24     
     77000   247.14329     -44089.201     -50123.406    
     78000   242.65948     -44292.453     -50217.182    
     79000   247.47098     -44158.918     -50201.124    
     80000   243.72261     -44233.609     -50184.295    
     81000   248.98849     -44201.878     -50281.135    
     82000   243.34143     -44220.752     -50162.132    
     83000   246.95794     -44223.208     -50252.887    
     84000   246.69907     -44243.8       -50267.159    
     85000   240.35452     -44570.289     -50438.741    
     86000   247.16119     -44178.893     -50213.534    
     87000   246.47716     -44222.487     -50240.428    
     88000   247.30248     -44201.455     -50239.547    
     89000   247.79818     -44173.968     -50224.162    
     90000   247.58502     -44165.4       -50210.39     
     91000   246.94811     -44220.835     -50250.274    
     92000   244.15164     -44328.314     -50289.475    
     93000   246.14365     -44311.7       -50321.498    
     94000   245.07981     -44330.829     -50314.653    
     95000   248.21715     -44215.281     -50275.705    
     96000   246.07298     -44327.097     -50335.17     
     97000   244.92256     -44224.942     -50204.926    
     98000   244.45625     -44362.334     -50330.932    
     99000   245.22086     -44254.455     -50241.722    
    100000   246.6795      -44308.138     -50331.019    
    101000   249.10697     -44246.022     -50328.172    
    102000   246.34367     -44291.167     -50305.849    
    103000   249.03911     -44244.105     -50324.598    
    104000   245.51032     -44317.977     -50312.312    
    105000   244.89512     -44266.396     -50245.71     
    106000   245.4241      -44301.601     -50293.83     
    107000   245.86978     -44411.269     -50414.38     
    108000   240.81142     -44499.357     -50378.964    
    109000   244.52745     -44318.311     -50288.648    
    110000   248.23723     -44287.955     -50348.869    
    111000   243.59712     -44227.926     -50175.548    
    112000   246.80932     -44234.252     -50260.303    
    113000   244.69247     -44292.851     -50267.217    
    114000   248.48792     -44120.253     -50187.288    
    115000   245.59911     -44243.439     -50239.942    
    116000   243.69663     -44314.325     -50264.377    
    117000   246.83794     -44220.287     -50247.037    
    118000   245.53708     -44272.681     -50267.669    
    119000   249.03669     -44149.355     -50229.789    
    120000   246.83375     -44148.589     -50175.236    
    121000   246.90661     -44093.801     -50122.227    
    122000   248.12711     -43954.181     -50012.407    
    123000   245.03413     -44187.566     -50170.274    
    124000   246.76366     -44108.443     -50133.379    
    125000   247.45958     -44156.567     -50198.494    
    126000   246.01731     -44351.904     -50358.617    
    127000   247.68374     -44277.855     -50325.255    
    128000   245.22689     -44305.351     -50292.766    
    129000   244.05781     -44241.833     -50200.704    
    130000   249.06809     -44152.02      -50233.221    
    131000   248.32194     -44222.996     -50285.979    
    132000   246.85583     -44286.666     -50313.852    
    133000   245.41877     -44180.576     -50172.675    
    134000   243.78792     -44255.336     -50207.617    
    135000   245.88847     -44152.601     -50156.169    
    136000   244.20659     -44329.17      -50291.673    
    137000   248.7462      -44112.278     -50185.619    
    138000   244.56731     -44251.655     -50222.965    
    139000   246.26        -44061.29      -50073.929    
    140000   246.97056     -44248.242     -50278.23     
    141000   246.17258     -44034.074     -50044.578    
    142000   246.0348      -44190.278     -50197.418    
    143000   247.36996     -44170.57      -50210.309    
    144000   247.40497     -44287.122     -50327.715    
    145000   246.44095     -44137.59      -50154.647    
    146000   242.34686     -44338.855     -50255.951    
    147000   247.90178     -44191.659     -50244.383    
    148000   243.67191     -44148.724     -50098.172    
    149000   244.10543     -44328.609     -50288.642    
    150000   246.56962     -44255.839     -50276.037    
    151000   245.95641     -44230.244     -50235.47     
    152000   250.20971     -44216.218     -50325.293    
    153000   241.51616     -44415.96      -50312.774    
    154000   244.23197     -44442.187     -50405.309    
    155000   246.23573     -44164.795     -50176.841    
    156000   252.32078     -44153.384     -50314.002    
    157000   242.85731     -44263.833     -50193.392    
    158000   244.14539     -44308.661     -50269.67     
    159000   244.78607     -44329.393     -50306.045    
    160000   247.62979     -44336.33      -50382.413    
    161000   247.89327     -44321.591     -50374.107    
    162000   244.94771     -44295.209     -50275.807    
    163000   249.23049     -44301.8       -50386.965    
    164000   246.86639     -44276.521     -50303.966    
    165000   251.76613     -44089.152     -50236.228    
    166000   243.16777     -44352.765     -50289.904    
    167000   245.53486     -44182.688     -50177.622    
    168000   247.0079      -44255.715     -50286.615    
    169000   248.14036     -44188.25      -50246.799    
    170000   242.5788      -44427.459     -50350.218    
    171000   244.92626     -44197.89      -50177.964    
    172000   246.66656     -44266.507     -50289.072    
    173000   249.03722     -44054.715     -50135.162    
    174000   244.41551     -44306.858     -50274.462    
    175000   249.23326     -44184.913     -50270.146    
    176000   245.95345     -44341.562     -50346.716    
    177000   244.93761     -44327.446     -50307.798    
    178000   247.198       -44350.625     -50386.165    
    179000   243.55267     -44328.393     -50274.93     
    180000   245.00219     -44323.703     -50305.631    
    181000   245.65952     -44167.809     -50165.787    
    182000   243.05322     -44328.393     -50262.736    
    183000   248.15648     -44176.337     -50235.28     
    184000   248.03364     -44105.696     -50161.639    
    185000   244.68249     -44288.952     -50263.075    
    186000   246.93895     -44251.599     -50280.815    
    187000   249.2191      -44157.605     -50242.492    
    188000   243.48736     -44386.571     -50331.514    
    189000   244.08779     -44317.899     -50277.501    
    190000   244.39624     -44449.989     -50417.123    
    191000   247.97987     -44365.73      -50420.36     
    192000   246.45039     -44330.362     -50347.649    
    193000   244.72358     -44361.381     -50336.507    
    194000   249.04696     -44294.603     -50375.288    
    195000   250.2843      -44116.343     -50227.238    
    196000   242.79815     -44399.163     -50327.278    
    197000   247.24312     -44230.723     -50267.365    
    198000   244.46272     -44287.154     -50255.911    
    199000   246.28115     -44378.189     -50391.344    
    200000   244.88966     -44401.774     -50380.954    
    201000   241.14354     -44505.701     -50393.417    
    202000   245.44332     -44245.838     -50238.537    
    203000   243.01913     -44186.23      -50119.741    
    204000   245.77259     -44256.173     -50256.911    
    205000   245.50441     -44214.163     -50208.354    
    206000   246.03299     -44283.572     -50290.668    
    207000   248.81543     -44079.345     -50154.376    
    208000   247.02832     -44254.515     -50285.913    
    209000   245.08467     -44068.9       -50052.842    
    210000   245.65397     -44250.61      -50248.451    
    211000   246.12536     -44132.667     -50142.018    
    212000   244.95671     -44259.014     -50239.832    
    213000   247.22189     -44128.142     -50164.266    
    214000   245.66028     -44244.835     -50242.831    
    215000   244.58192     -44304.345     -50276.012    
    216000   247.07028     -44321.711     -50354.134    
    217000   250.66427     -44147.721     -50267.893    
    218000   245.7374      -44339.196     -50339.075    
    219000   250.13439     -44246.66      -50353.895    
    220000   242.58605     -44402.405     -50325.341    
    221000   245.45757     -44254.806     -50247.853    
    222000   245.48067     -44287.079     -50280.69     
    223000   245.77474     -44313.151     -50313.941    
    224000   245.63913     -44193.962     -50191.442    
    225000   245.97102     -44390.521     -50396.104    
    226000   242.24225     -44382.606     -50297.148    
    227000   242.96393     -44306.379     -50238.541    
    228000   244.82718     -44298.691     -50276.346    
    229000   244.09823     -44320.961     -50280.818    
    230000   247.77107     -44153.014     -50202.547    
    231000   245.46314     -44175.567     -50168.75     
    232000   245.49193     -44152.419     -50146.304    
    233000   246.78718     -44267.259     -50292.769    
    234000   244.68036     -44206.231     -50180.302    
    235000   245.25829     -44306.292     -50294.473    
    236000   244.19001     -44098.409     -50060.508    
    237000   246.38999     -44278.01      -50293.823    
    238000   246.4536      -44177.415     -50194.78     
    239000   242.2427      -44276.54      -50191.093    
    240000   245.35347     -44170.66      -50161.165    
    241000   244.52111     -44208.611     -50178.793    
    242000   243.92693     -44339.319     -50294.994    
    243000   250.73601     -44159.398     -50281.322    
    244000   247.30493     -44219.646     -50257.798    
    245000   242.75525     -44443.704     -50370.771    
    246000   246.90481     -44300.296     -50328.679    
    247000   245.63739     -44279.806     -50277.243    
    248000   244.22261     -44438.764     -50401.658    
    249000   245.68215     -44354.689     -50353.219    
    250000   242.57559     -44513.066     -50435.747    
    251000   246.79584     -44272.707     -50298.429    
    252000   241.33026     -44479.075     -50371.35     
    253000   247.02123     -44193.804     -50225.028    
    254000   244.33566     -44258.809     -50224.464    
    255000   246.37173     -44191.626     -50206.993    
    256000   247.24815     -44295.506     -50332.271    
    257000   242.84654     -44304.044     -50233.341    
    258000   243.09321     -44288.491     -50223.81     
    259000   245.20705     -44210.99      -50197.92     
    260000   247.02359     -44128.173     -50159.455    
    261000   245.47042     -44325.862     -50319.223    
    262000   245.61525     -44428.237     -50425.134    
    263000   244.26665     -44303.827     -50267.796    
    264000   244.14704     -44219.854     -50180.902    
    265000   244.81752     -44243.063     -50220.482    
    266000   244.55377     -44301.667     -50272.647    
    267000   243.26993     -44438.562     -50378.195    
    268000   243.21588     -44459.717     -50398.031    
    269000   247.53963     -44204.116     -50247.998    
    270000   243.60142     -44339.322     -50287.049    
    271000   247.77529     -44180.071     -50229.707    
    272000   246.91702     -44276.349     -50305.029    
    273000   243.9862      -44331.076     -50288.198    
    274000   247.34611     -44281.294     -50320.451    
    275000   248.27523     -44362.286     -50424.128    
    276000   246.9962      -44290.33      -50320.943    
    277000   244.56077     -44379.102     -50350.253    
    278000   246.60564     -44202.277     -50223.355    
    279000   250.86099     -44272.938     -50397.913    
    280000   244.14598     -44429.457     -50390.48     
    281000   246.43036     -44352.046     -50368.844    
    282000   246.35867     -44253.66      -50268.708    
    283000   249.24509     -44292.055     -50377.577    
    284000   244.44325     -44328.813     -50297.094    
    285000   244.56292     -44373.37      -50344.573    
    286000   249.77446     -44228.119     -50326.565    
    287000   244.66844     -44371.006     -50344.785    
    288000   249.8197      -44127.221     -50226.772    
    289000   248.66314     -44213.916     -50285.229    
    290000   246.38499     -44367.027     -50382.717    
    291000   245.38611     -44453.554     -50444.855    
    292000   251.05099     -44208.135     -50337.749    
    293000   248.16166     -44345.137     -50404.206    
    294000   248.56279     -44203.245     -50272.108    
    295000   246.25506     -44201.154     -50213.672    
    296000   246.39382     -44291.761     -50307.667    
    297000   250.51426     -44127.104     -50243.614    
    298000   245.40876     -44415.69      -50407.545    
    299000   247.14487     -44294.854     -50329.098    
    300000   247.00404     -44315.853     -50346.659    
    301000   244.44563     -44327.883     -50296.222    
    302000   244.86999     -44397.545     -50376.245    
    303000   245.07938     -44432.362     -50416.175    
    304000   248.60668     -44341.092     -50411.027    
    305000   245.01874     -44398.694     -50381.026    
    306000   245.79847     -44354.255     -50355.625    
    307000   245.65454     -44394.263     -50392.119    
    308000   238.05134     -44542.381     -50354.598    
    309000   246.77097     -44386.363     -50411.478    
    310000   244.31637     -44535.508     -50500.692    
    311000   247.12847     -44383.432     -50417.275    
    312000   247.19876     -44292.206     -50327.765    
    313000   249.07785     -44113.694     -50195.133    
    314000   244.47748     -44279.461     -50248.578    
    315000   244.97869     -44332.027     -50313.381    
    316000   245.84344     -44346.429     -50348.897    
    317000   247.46845     -44304.913     -50347.057    
    318000   249.03976     -44228.679     -50309.188    
    319000   245.78135     -44330.165     -50331.117    
    320000   244.85106     -44355.201     -50333.439    
    321000   248.24791     -44097.636     -50158.811    
    322000   248.05025     -44371.582     -50427.931    
    323000   246.34994     -44326.801     -50341.636    
    324000   248.51665     -44284.839     -50352.576    
    325000   245.03395     -44344.917     -50327.621    
    326000   246.20623     -44371.091     -50382.417    
    327000   244.7273      -44296.633     -50271.85     
    328000   240.24039     -44491.877     -50357.542    
    329000   246.58274     -44327.007     -50347.526    
    330000   241.69279     -44366.234     -50267.36     
    331000   248.17353     -44171.339     -50230.698    
    332000   246.79879     -44317.687     -50343.481    
    333000   244.99872     -44382.871     -50364.715    
    334000   246.50045     -44368.295     -50386.804    
    335000   246.72959     -44337.659     -50361.763    
    336000   248.20151     -44234.569     -50294.611    
    337000   247.6249      -44316.304     -50362.267    
    338000   245.76772     -44429.602     -50430.221    
    339000   246.15406     -44473.33      -50483.382    
    340000   246.23685     -44370.634     -50382.708    
    341000   243.88047     -44482.34      -50436.881    
    342000   245.41685     -44354.441     -50346.493    
    343000   241.77432     -44357.6       -50260.717    
    344000   247.92923     -44252.945     -50306.339    
    345000   244.89684     -44385.604     -50364.96     
    346000   247.0568      -44340.544     -50372.637    
    347000   244.60798     -44366.963     -50339.266    
    348000   248.46064     -44148.519     -50214.888    
    349000   243.57803     -44394.9       -50342.057    
    350000   248.7271      -44272.516     -50345.391    
    351000   244.58953     -44249.013     -50220.866    
    352000   245.92838     -44281.044     -50285.585    
    353000   246.20837     -44096.335     -50107.713    
    354000   251.76928     -44056.855     -50204.007    
    355000   242.26497     -44306.881     -50221.977    
    356000   245.69793     -44265.776     -50264.692    
    357000   241.23295     -44249.723     -50139.622    
    358000   244.79817     -44186.303     -50163.25     
    359000   248.48008     -44151.963     -50218.807    
    360000   246.8         -44228.664     -50254.487    
    361000   247.02002     -44018.196     -50049.391    
    362000   248.57904     -44155.513     -50224.773    
    363000   240.48566     -44365.239     -50236.892    
    364000   244.88821     -44241.578     -50220.723    
    365000   242.50397     -44200.269     -50121.201    
    366000   248.61832     -44224.102     -50294.321    
    367000   243.17678     -44333.393     -50270.752    
    368000   247.19229     -44184.928     -50220.33     
    369000   247.02497     -44278.144     -50309.46     
    370000   246.2199      -44326.538     -50338.198    
    371000   242.28873     -44132.279     -50047.955    
    372000   245.70364     -44093.171     -50092.225    
    373000   245.24699     -44131.456     -50119.361    
    374000   244.20362     -44257.552     -50219.982    
    375000   246.53686     -44213.776     -50233.174    
    376000   244.43252     -44264.699     -50232.719    
    377000   244.7874      -44158.871     -50135.555    
    378000   246.39254     -44283.449     -50299.323    
    379000   244.93841     -44413.892     -50394.263    
    380000   245.9563      -44298.286     -50303.51     
    381000   246.79988     -44241.017     -50266.837    
    382000   246.46913     -44064.272     -50082.017    
    383000   245.51523     -44250.429     -50244.884    
    384000   248.45793     -44034.459     -50100.762    
    385000   248.49093     -44178.495     -50245.603    
    386000   243.80863     -44294.152     -50246.939    
    387000   249.22636     -44077.661     -50162.726    
    388000   247.33275     -44182.227     -50221.058    
    389000   244.60857     -44311.129     -50283.447    
    390000   249.21924     -44117.332     -50202.223    
    391000   243.29085     -44318.896     -50259.04     
    392000   241.6696      -44303.747     -50204.307    
    393000   245.21579     -44141.682     -50128.825    
    394000   246.88756     -44042.707     -50070.668    
    395000   247.85318     -44143.487     -50195.025    
    396000   246.35204     -44130.313     -50145.198    
    397000   247.4874      -44170.348     -50212.955    
    398000   249.64175     -44216.296     -50311.503    
    399000   244.2491      -44253.634     -50217.175    
    400000   245.13487     -44191.566     -50176.734    
    401000   247.6399      -44269.284     -50315.614    
    402000   251.53133     -43856.16      -49997.503    
    403000   242.65393     -44335.551     -50260.144    
    404000   244.60743     -44297.487     -50269.777    
    405000   243.32027     -44175.611     -50116.474    
    406000   246.99272     -44193.461     -50223.989    
    407000   243.96796     -44189.29      -50145.967    
    408000   245.31533     -44238.339     -50227.913    
    409000   244.8107      -44164.967     -50142.219    
    410000   246.28382     -44328.298     -50341.518    
    411000   248.82146     -44194.633     -50269.811    
    412000   247.68791     -44312.908     -50360.41     
    413000   246.72303     -44216.658     -50240.602    
    414000   246.56664     -44354.823     -50374.949    
    415000   244.8805      -44459.576     -50438.533    
    416000   245.08696     -44404.136     -50388.134    
    417000   242.50867     -44349.28      -50270.327    
    418000   246.11602     -44366.779     -50375.902    
    419000   244.86082     -44211.612     -50190.089    
    420000   241.62174     -44374.161     -50273.553    
    421000   247.09477     -44282.336     -50315.356    
    422000   251.36091     -44171.149     -50308.331    
    423000   243.9456      -44311.864     -50267.995    
    424000   249.51123     -44280.985     -50373.005    
    425000   243.68857     -44441.43      -50391.285    
    426000   247.9452      -44236.642     -50290.426    
    427000   242.74186     -44418.087     -50344.827    
    428000   248.42044     -44306.285     -50371.672    
    429000   244.61855     -44259.53      -50232.091    
    430000   242.53212     -44343.505     -50265.125    
    431000   247.0428      -44362.048     -50393.799    
    432000   246.95742     -44326.034     -50355.701    
    433000   247.04118     -44419.043     -50450.755    
    434000   245.02168     -44375.655     -50358.059    
    435000   246.91691     -44415.546     -50444.223    
    436000   245.34401     -44428.218     -50418.492    
    437000   251.04914     -44283.706     -50413.276    
    438000   247.5706      -44410.85      -50455.488    
    439000   247.98853     -44130.891     -50185.733    
    440000   247.44478     -44311.328     -50352.894    
    441000   246.83745     -44460.245     -50486.983    
    442000   246.54971     -44356.684     -50376.396    
    443000   248.42449     -44241.572     -50307.059    
    444000   245.29023     -44293.762     -50282.723    
    445000   244.20183     -44448.75      -50411.136    
    446000   245.38874     -44272.676     -50264.042    
    447000   244.91097     -44302.903     -50282.604    
    448000   249.87924     -44174.203     -50275.209    
    449000   244.96826     -44374.709     -50355.809    
    450000   249.18437     -44254.775     -50338.815    
    451000   246.25667     -44410.074     -50422.632    
    452000   245.32114     -44356.429     -50346.145    
    453000   246.38827     -44275.997     -50291.767    
    454000   245.53661     -44257.138     -50252.115    
    455000   239.49647     -44391.439     -50238.94     
    456000   245.86452     -44260.097     -50263.08     
    457000   243.16715     -44420.919     -50358.044    
    458000   246.9991      -44234.004     -50264.688    
    459000   244.89156     -44315.361     -50294.588    
    460000   245.0746      -44369.41      -50353.106    
    461000   247.98461     -44178.023     -50232.77     
    462000   248.35297     -44337.428     -50401.169    
    463000   245.84309     -44297.649     -50300.108    
    464000   248.26009     -44119.912     -50181.384    
    465000   245.7649      -44357.726     -50358.276    
    466000   244.55244     -44286.138     -50257.085    
    467000   245.97343     -44369.86      -50375.502    
    468000   243.68824     -44338.415     -50288.262    
    469000   246.36379     -44243.816     -50258.989    
    470000   242.9979      -44418.795     -50351.787    
    471000   245.15682     -44337.522     -50323.226    
    472000   244.10212     -44460.306     -50420.258    
    473000   245.17419     -44293.216     -50279.344    
    474000   250.14133     -44151.516     -50258.92     
    475000   244.18829     -44441.857     -50403.913    
    476000   241.64447     -44491.265     -50391.212    
    477000   246.74084     -44475.94      -50500.319    
    478000   245.93425     -44379.483     -50384.169    
    479000   247.28477     -44302.04      -50339.699    
    480000   247.14317     -44224.844     -50259.046    
    481000   246.46632     -44326.448     -50344.124    
    482000   246.54925     -44417.305     -50437.006    
    483000   244.48211     -44325.563     -50294.793    
    484000   245.8286      -44389.244     -50391.35     
    485000   245.11126     -44311.192     -50295.784    
    486000   247.73366     -44325.866     -50374.485    
    487000   244.97344     -44396.456     -50377.682    
    488000   247.72488     -44346.312     -50394.717    
    489000   244.98062     -44296.952     -50278.354    
    490000   245.44517     -44427.315     -50420.059    
    491000   243.46675     -44390.135     -50334.574    
    492000   246.53002     -44482.42      -50501.651    
    493000   249.59004     -44218.374     -50312.318    
    494000   246.85696     -44383.141     -50410.355    
    495000   247.01939     -44311.577     -50342.757    
    496000   246.41568     -44418.724     -50435.163    
    497000   244.25841     -44465.825     -50429.593    
    498000   251.69403     -44289.869     -50435.184    
    499000   245.6559      -44400.363     -50398.252    
    500000   245.46957     -44327.561     -50320.901    
Loop time of 1854.68 on 56 procs for 500000 steps with 12288 atoms

Performance: 23.292 ns/day, 1.030 hours/ns, 269.589 timesteps/s, 3.313 Matom-step/s
99.8% CPU use with 56 MPI tasks x no OpenMP threads

MPI task timing breakdown:
Section |  min time  |  avg time  |  max time  |%varavg| %total
---------------------------------------------------------------
Pair    | 962.68     | 1000.1     | 1042.9     |  52.1 | 53.92
Bond    | 0.098594   | 0.1313     | 0.17494    |   5.0 |  0.01
Kspace  | 549.53     | 592.42     | 627.53     |  68.3 | 31.94
Neigh   | 114.11     | 114.15     | 114.19     |   0.2 |  6.15
Comm    | 71.732     | 77.18      | 83.949     |  35.7 |  4.16
Output  | 0.01528    | 0.016503   | 0.057183   |   4.3 |  0.00
Modify  | 60.884     | 62.906     | 67.855     |  26.5 |  3.39
Other   |            | 7.816      |            |       |  0.42

Nlocal:        219.429 ave         240 max         195 min
Histogram: 1 1 3 8 9 14 7 6 5 2
Nghost:        6850.62 ave        6941 max        6796 min
Histogram: 5 7 13 7 12 4 2 3 2 1
Neighs:        96062.2 ave      106035 max       84626 min
Histogram: 1 1 3 9 10 15 6 5 2 4

Total # of neighbors = 5379485
Ave neighs/atom = 437.78361
Ave special neighs/atom = 2
Neighbor list builds = 9308
Dangerous builds = 0
unfix fnvt_equil
write_data 4096_equilibrated_${T}.data
write_data 4096_equilibrated_246.data
System init for write_data ...
PPPM initialization ...
  extracting TIP4P info from pair style
  using 12-bit tables for long-range coulomb
  G vector (1/distance) = 0.32815664
  grid = 50 50 50
  stencil order = 5
  estimated absolute RMS force accuracy = 0.0035802102
  estimated relative force accuracy = 1.0781697e-05
  using double precision KISS FFT
  3d grid and FFT values/proc = 11424 2800
Generated 0 of 1 mixed pair_coeff terms from geometric mixing rule
WARNING: Not all mixed pair coeffs generated from mixing. Use write_data with 'pair ij' option to store all pair coeffs. (../write_data.cpp:364)

# 系统剪切变形

fix fdeform all deform 1 xy erate ${gamma} remap v
fix fdeform all deform 1 xy erate 2.5e-5 remap v
fix fnvt all nvt/sllod temp ${T} ${T} 100.0
fix fnvt all nvt/sllod temp 246 ${T} 100.0
fix fnvt all nvt/sllod temp 246 246 100.0

compute tilt all temp/deform

variable L0_x equal lx
variable L0_y equal ly
variable L0_z equal lz

compute p all pressure NULL virial
variable sxy equal -c_p[4] * 1.01325e-4  # convert to GPa


variable strainInc equal 0.01
variable dt equal 1.0e-15
variable gammaSI equal ${gamma}*1e15
variable gammaSI equal 2.5e-5*1e15
variable stepsPerReset equal ceil(${strainInc}/(${gammaSI}*${dt}))
variable stepsPerReset equal ceil(0.01/(${gammaSI}*${dt}))
variable stepsPerReset equal ceil(0.01/(25000000000*${dt}))
variable stepsPerReset equal ceil(0.01/(25000000000*1e-15))
print "Steps per reset: ${stepsPerReset}"
Steps per reset: 400

variable massAll equal mass(all)/6.022e23
variable volCm3 equal vol*1.0e-24
variable density_sys equal v_massAll/v_volCm3
variable tau_pa equal v_sxy * 1e9
variable gamma_s equal ${gamma} * 1e15
variable gamma_s equal 2.5e-5 * 1e15
variable viscosity equal v_tau_pa / v_gamma_s

variable strain equal step*${gammaSI}*${dt}
variable strain equal step*25000000000*${dt}
variable strain equal step*25000000000*1e-15

thermo 1000
thermo_style custom step temp etotal pe pxy v_sxy v_strain v_viscosity
WARNING: New thermo_style command, previous thermo_modify settings will be lost (../output.cpp:912)
thermo_modify flush yes

dump traj all custom 500 traj_${gamma}_${T}.lammpstrj id type xu yu zu vx vy vz # 0.5ps
dump traj all custom 500 traj_2.5e-5_${T}.lammpstrj id type xu yu zu vx vy vz 
dump traj all custom 500 traj_2.5e-5_246.lammpstrj id type xu yu zu vx vy vz 
dump_modify traj sort id
fix stress all ave/time 500 1 500 v_strain v_sxy file stress_${gamma}_${T}.data  # 每0.5ps输出一次应力和应变
fix stress all ave/time 500 1 500 v_strain v_sxy file stress_2.5e-5_${T}.data  
fix stress all ave/time 500 1 500 v_strain v_sxy file stress_2.5e-5_246.data  

# compute peratom all stress/atom NULL
# dump stress gO custom 5000 stress_${gamma}_${T}.lammpstrj id type c_peratom[1] c_peratom[2] c_peratom[3] c_peratom[4] c_peratom[5] c_peratom[6]
# dump_modify stress sort id

variable Ttotal equal 2000000 # 2 ns
variable nloops equal ceil(${Ttotal}/(100000))
variable nloops equal ceil(2000000/(100000))
print "Total loops: ${nloops}"
Total loops: 20

variable nloop loop ${nloops}
variable nloop loop 20
label loop_start
run 100000 # 100ps
PPPM initialization ...
  extracting TIP4P info from pair style
  using 12-bit tables for long-range coulomb
  G vector (1/distance) = 0.32815664
  grid = 50 50 50
  stencil order = 5
  estimated absolute RMS force accuracy = 0.0035802102
  estimated relative force accuracy = 1.0781697e-05
  using double precision KISS FFT
  3d grid and FFT values/proc = 11424 2800
Generated 0 of 1 mixed pair_coeff terms from geometric mixing rule
Per MPI rank memory allocation (min/avg/max) = 9.589 | 9.649 | 9.712 Mbytes
   Step          Temp          TotEng         PotEng          Pxy           v_sxy         v_strain     v_viscosity  
    500000   245.46957     -44327.561     -50320.901      139.5099      -0.016153381    12.5          -0.00064613526
    501000   243.20007     -44319.512     -50257.44      -330.53856      0.033165207    12.525         0.0013266083 
    502000   245.43407     -44354.382     -50346.855     -814.39818      0.084081565    12.55          0.0033632626 
    503000   244.61722     -44413.971     -50386.5       -838.49157      0.081481861    12.575         0.0032592744 
    504000   246.94871     -44150.932     -50180.386     -591.26028      0.058706273    12.6           0.0023482509 
    505000   246.33405     -44250.929     -50265.375     -1126.5917      0.11201566     12.625         0.0044806263 
    506000   240.85323     -44513.268     -50393.896     -925.5697       0.095925559    12.65          0.0038370224 
    507000   248.21505     -44082.904     -50143.277     -820.07069      0.079809727    12.675         0.0031923891 
    508000   244.24537     -44306.217     -50269.667     -1310.4829      0.1279269      12.7           0.005117076  
    509000   245.81783     -44005.602     -50007.444     -1277.7712      0.12712404     12.725         0.0050849617 
    510000   243.19687     -44177.288     -50115.138     -934.55027      0.091395217    12.75          0.0036558087 
    511000   245.1613      -43973.752     -49959.565     -771.83189      0.075718475    12.775         0.003028739  
    512000   250.49996     -43902.891     -50019.052     -737.27955      0.072456825    12.8           0.002898273  
    513000   242.49253     -44053.16      -49973.813     -1028.6325      0.10065115     12.825         0.0040260459 
    514000   247.4123      -43877.769     -49918.542     -851.17876      0.084259662    12.85          0.0033703865 
    515000   247.27026     -43924.577     -49961.882     -882.31538      0.090479309    12.875         0.0036191724 
    516000   248.26994     -43945.718     -50007.431     -856.69763      0.083943657    12.9           0.0033577463 
    517000   245.76665     -43918.105     -49918.698     -1079.2768      0.10563178     12.925         0.0042252714 
    518000   247.02265     -43783.064     -49814.323     -918.89824      0.093077258    12.95          0.0037230903 
    519000   246.79099     -43855.986     -49881.589     -1219.4864      0.11886058     12.975         0.004754423  
    520000   250.7606      -43787.045     -49909.57      -769.1444       0.071458018    13             0.0028583207 
    521000   244.72428     -44018.361     -49993.503     -893.58578      0.09066086     13.025         0.0036264344 
    522000   244.35019     -43844.342     -49810.351     -1041.9415      0.10349953     13.05          0.0041399813 
    523000   242.09944     -43903.563     -49814.618     -921.99283      0.090291092    13.075         0.0036116437 
    524000   247.00492     -43851.562     -49882.388     -774.23567      0.078298141    13.1           0.0031319256 
    525000   244.77065     -43926.734     -49903.008     -908.84326      0.090916583    13.125         0.0036366633 
    526000   248.08651     -43715.299     -49772.534     -887.69459      0.083992157    13.15          0.0033596863 
    527000   241.15763     -44021.956     -49910.016     -952.88725      0.097910188    13.175         0.0039164075 
    528000   242.5184      -43910.804     -49832.088     -753.58631      0.069460975    13.2           0.002778439  
    529000   248.96982     -43760.849     -49839.65      -718.72448      0.072999764    13.225         0.0029199906 
    530000   240.75141     -44162.781     -50040.923     -930.59208      0.094131908    13.25          0.0037652763 
    531000   248.76644     -43850.994     -49924.829     -1011.1537      0.10443047     13.275         0.0041772188 
    532000   243.71355     -44093.388     -50043.853     -738.97107      0.07395138     13.3           0.0029580552 
    533000   246.12526     -44019.718     -50029.067     -845.94934      0.083173885    13.325         0.0033269554 
    534000   247.86854     -43942.241     -49994.154     -758.39559      0.074602184    13.35          0.0029840874 
    535000   244.93136     -43819.863     -49800.062     -1059.822       0.10693115     13.375         0.004277246  
    536000   243.39783     -43972.065     -49914.821     -792.2976       0.079504449    13.4           0.003180178  
    537000   244.46326     -44004.848     -49973.618     -1113.6074      0.11290605     13.425         0.0045162418 
    538000   247.23144     -43967.063     -50003.42      -683.78944      0.068845677    13.45          0.0027538271 
    539000   246.08889     -44037.888     -50046.349     -1038.9648      0.10124581     13.475         0.0040498325 
    540000   243.72201     -43951.933     -49902.605     -815.49159      0.082865506    13.5           0.0033146202 
    541000   245.34371     -43755.519     -49745.786     -918.61243      0.090217126    13.525         0.003608685  
    542000   242.97936     -43952.829     -49885.368     -844.78664      0.080329413    13.55          0.0032131765 
    543000   241.8566      -43982.118     -49887.244     -710.14765      0.067904697    13.575         0.0027161879 
    544000   247.35356     -43832.253     -49871.592     -714.71919      0.067286948    13.6           0.0026914779 
    545000   246.66849     -43848.166     -49870.778     -1188.1651      0.11519513     13.625         0.0046078052 
    546000   244.25558     -43953.22      -49916.919     -879.67082      0.087398947    13.65          0.0034959579 
    547000   243.20791     -43988.513     -49926.633     -722.18339      0.071435094    13.675         0.0028574038 
    548000   243.83833     -43886.65      -49840.162     -688.68029      0.070205084    13.7           0.0028082034 
    549000   245.38064     -43799.616     -49790.784     -986.15487      0.096185461    13.725         0.0038474185 
    550000   245.67498     -43886.917     -49885.272     -1006.5499      0.10114178     13.75          0.004045671  
    551000   246.56626     -43800.547     -49820.664     -700.60163      0.071187623    13.775         0.0028475049 
    552000   246.73348     -43852.78      -49876.979     -541.57711      0.05538545     13.8           0.002215418  
    553000   245.76898     -43857.728     -49858.378     -668.87333      0.064925146    13.825         0.0025970058 
    554000   245.19801     -44000.714     -49987.423     -605.73543      0.057993258    13.85          0.0023197303 
    555000   244.58601     -43877.708     -49849.474     -795.25444      0.077935818    13.875         0.0031174327 
    556000   242.45523     -44076.542     -49996.284     -883.37759      0.090124077    13.9           0.0036049631 
    557000   243.71605     -44094.195     -50044.721     -779.79069      0.078610613    13.925         0.0031444245 
    558000   247.07048     -43914.249     -49946.676     -1017.1137      0.1000036      13.95          0.0040001439 
    559000   243.976       -43997.797     -49954.669     -914.93803      0.089053588    13.975         0.0035621435 
    560000   246.01004     -44023.638     -50030.174     -883.39827      0.091515967    14             0.0036606387 
    561000   240.14538     -43988.642     -49851.987     -850.89761      0.08416624     14.025         0.0033666496 
    562000   244.53852     -43768.261     -49738.868     -985.69558      0.096989183    14.05          0.0038795673 
    563000   249.67779     -43882.309     -49978.395     -670.77773      0.067202786    14.075         0.0026881114 
    564000   243.71315     -43928.656     -49879.111     -1097.4634      0.10976926     14.1           0.0043907704 
    565000   250.34969     -43760.119     -49872.611     -869.60682      0.087286339    14.125         0.0034914536 
    566000   245.41484     -43787.349     -49779.352     -535.41039      0.053647448    14.15          0.0021458979 
    567000   243.89688     -43971.098     -49926.039     -702.53287      0.072930265    14.175         0.0029172106 
    568000   245.78092     -43962.026     -49962.968     -600.13965      0.058197099    14.2           0.0023278839 
    569000   244.78209     -43987.263     -49963.817     -834.81377      0.087970085    14.225         0.0035188034 
    570000   246.06913     -44050.734     -50058.713     -582.54183      0.056687323    14.25          0.0022674929 
    571000   246.42915     -43963.367     -49980.136     -717.79847      0.067415784    14.275         0.0026966314 
    572000   249.87419     -44008.154     -50109.036     -538.24838      0.054128411    14.3           0.0021651364 
    573000   243.38706     -44116.621     -50059.114     -722.12401      0.071100822    14.325         0.0028440329 
    574000   245.63094     -43925.731     -49923.011     -715.32255      0.069156456    14.35          0.0027662582 
    575000   245.42132     -44049.192     -50041.354     -725.94791      0.072834855    14.375         0.0029133942 
    576000   246.70402     -44030.889     -50054.369     -1066.3635      0.10466418     14.4           0.0041865671 
    577000   244.86484     -44031.991     -50010.566     -905.28756      0.090090248    14.425         0.0036036099 
    578000   244.59445     -43915.255     -49887.228     -733.6153       0.072627903    14.45          0.0029051161 
    579000   244.01687     -43887.09      -49844.961     -474.61799      0.047145635    14.475         0.0018858254 
    580000   244.33537     -43978.148     -49943.795     -1043.4024      0.10188118     14.5           0.0040752471 
    581000   247.66553     -43798.997     -49845.953     -859.9157       0.088117881    14.525         0.0035247152 
    582000   246.71761     -43991.564     -50015.376     -617.26689      0.058249118    14.55          0.0023299647 
    583000   243.04428     -43947.965     -49882.09      -616.62748      0.060019036    14.575         0.0024007615 
    584000   244.39783     -43940.639     -49907.811     -963.23306      0.10010515     14.6           0.0040042059 
    585000   248.49874     -43814.492     -49881.792     -942.60664      0.092719137    14.625         0.0037087655 
    586000   246.57232     -44091.421     -50111.685     -712.81007      0.071216795    14.65          0.0028486718 
    587000   244.47225     -43931.011     -49900         -1134.9932      0.11112431     14.675         0.0044449726 
    588000   240.2252      -44128.202     -49993.496     -658.59951      0.062452097    14.7           0.0024980839 
    589000   249.57632     -43917.636     -50011.245     -970.64028      0.095439105    14.725         0.0038175642 
    590000   242.43138     -44117.691     -50036.85      -870.75656      0.086277001    14.75          0.0034510801 
    591000   246.01886     -43925.005     -49931.756     -717.18945      0.069989776    14.775         0.002799591  
    592000   243.85883     -44126.447     -50080.459     -1148.0882      0.11469009     14.8           0.0045876038 
    593000   247.54301     -43937.805     -49981.77      -1264.7772      0.12587637     14.825         0.005035055  
    594000   244.36842     -43956.418     -49922.872     -987.14685      0.096557189    14.85          0.0038622876 
    595000   243.04355     -44051.856     -49985.963     -693.40984      0.070016189    14.875         0.0028006476 
    596000   245.3234      -43886.996     -49876.767     -893.34149      0.085039453    14.9           0.0034015781 
    597000   246.2886      -43988.885     -50002.222     -787.85479      0.083338115    14.925         0.0033335246 
    598000   246.34817     -43860.187     -49874.979     -684.63436      0.067742985    14.95          0.0027097194 
    599000   247.87082     -43844.61      -49896.578     -751.19512      0.076524663    14.975         0.0030609865 
    600000   247.09446     -43878.684     -49911.697     -594.85237      0.056788225    15             0.002271529  
Loop time of 425.26 on 56 procs for 100000 steps with 12288 atoms

Performance: 20.317 ns/day, 1.181 hours/ns, 235.150 timesteps/s, 2.890 Matom-step/s
99.8% CPU use with 56 MPI tasks x no OpenMP threads

MPI task timing breakdown:
Section |  min time  |  avg time  |  max time  |%varavg| %total
---------------------------------------------------------------
Pair    | 186.99     | 196.67     | 203.76     |  29.8 | 46.25
Bond    | 0.019283   | 0.027116   | 0.036446   |   2.7 |  0.01
Kspace  | 111.98     | 118.79     | 129.12     |  38.4 | 27.93
Neigh   | 24.896     | 24.906     | 24.916     |   0.1 |  5.86
Comm    | 14.878     | 15.893     | 17.367     |  13.9 |  3.74
Output  | 0.22435    | 0.39709    | 0.56346    |  16.0 |  0.09
Modify  | 51.911     | 56.162     | 66.1       |  44.9 | 13.21
Other   |            | 12.41      |            |       |  2.92

Nlocal:        219.429 ave         240 max         197 min
Histogram: 1 2 1 14 13 5 10 6 1 3
Nghost:         7280.7 ave        7367 max        7198 min
Histogram: 2 3 5 9 12 8 7 5 0 5
Neighs:        96054.9 ave      107372 max       84240 min
Histogram: 1 2 2 7 18 9 8 6 1 2

Total # of neighbors = 5379072
Ave neighs/atom = 437.75
Ave special neighs/atom = 2
Neighbor list builds = 2116
Dangerous builds = 0
kspace_style pppm/tip4p 1.0e-5
next nloop
jump SELF loop_start
run 100000 # 100ps
PPPM initialization ...
  extracting TIP4P info from pair style
  using 12-bit tables for long-range coulomb
  G vector (1/distance) = 0.32815664
  grid = 50 75 50
  stencil order = 5
  estimated absolute RMS force accuracy = 0.0035802102
  estimated relative force accuracy = 1.0781697e-05
  using double precision KISS FFT
  3d grid and FFT values/proc = 15776 4000
Generated 0 of 1 mixed pair_coeff terms from geometric mixing rule
Per MPI rank memory allocation (min/avg/max) = 11.21 | 11.34 | 11.44 Mbytes
   Step          Temp          TotEng         PotEng          Pxy           v_sxy         v_strain     v_viscosity  
    600000   247.10882     -43878.457     -49911.82      -540.81489      0.051229018    15             0.0020491607 
    601000   243.41126     -43837.314     -49780.399     -757.48665      0.073429201    15.025         0.002937168  
    602000   245.96669     -43984.475     -49989.952     -608.02065      0.066683135    15.05          0.0026673254 
    603000   245.90114     -44091.994     -50095.871     -904.47657      0.090002584    15.075         0.0036001034 
    604000   244.05587     -44022.831     -49981.654     -714.1552       0.071707702    15.1           0.0028683081 
    605000   248.60003     -43945.879     -50015.652     -617.07202      0.05762041     15.125         0.0023048164 
    606000   250.38751     -43658.375     -49771.79      -868.45249      0.084984584    15.15          0.0033993834 
    607000   242.30928     -43877.262     -49793.441     -985.0605       0.098367809    15.175         0.0039347124 
    608000   242.12487     -44015.392     -49927.068     -1004.8368      0.094794931    15.2           0.0037917973 
    609000   247.65036     -43830.059     -49876.644     -684.08868      0.069127396    15.225         0.0027650958 
    610000   245.74733     -43697.279     -49697.4       -856.96071      0.078510481    15.25          0.0031404193 
    611000   243.76238     -43881.643     -49833.3       -892.36003      0.086763919    15.275         0.0034705568 
    612000   245.54462     -43772.71      -49767.882     -555.16273      0.056232016    15.3           0.0022492807 
    613000   245.23142     -43863.965     -49851.49      -719.21495      0.073897645    15.325         0.0029559058 
    614000   248.29023     -43740.162     -49802.371     -1051.2789      0.10085201     15.35          0.0040340805 
    615000   245.25753     -43877.278     -49865.441     -1129.5192      0.11052158     15.375         0.0044208632 
    616000   244.92994     -43837.153     -49817.318     -883.84804      0.087479713    15.4           0.0034991885 
    617000   244.52161     -43924.362     -49894.557     -668.15032      0.064606715    15.425         0.0025842686 
    618000   244.23198     -44004.112     -49967.235     -761.29422      0.072185169    15.45          0.0028874068 
    619000   249.62484     -43759.986     -49854.78      -1044.2724      0.1066721      15.475         0.0042668839 
    620000   243.10623     -43900.764     -49836.401     -662.88066      0.065611427    15.5           0.0026244571 
    621000   246.50582     -43837.974     -49856.615     -1353.1832      0.13087722     15.525         0.0052350888 
    622000   247.75579     -43955.866     -50005.025     -622.59714      0.0604839      15.55          0.002419356  
    623000   243.59335     -44065.184     -50012.714     -1038.8481      0.10536088     15.575         0.0042144354 
    624000   246.91162     -43865.511     -49894.06      -859.7306       0.086797375    15.6           0.003471895  
    625000   248.56562     -43760.483     -49829.415     -922.68251      0.090316938    15.625         0.0036126775 
    626000   245.15472     -44103.213     -50088.865     -884.14977      0.086729821    15.65          0.0034691929 
    627000   245.81498     -43861.541     -49863.315     -926.54095      0.086254996    15.675         0.0034501998 
    628000   243.96288     -43957.823     -49914.376     -721.24196      0.071484824    15.7           0.002859393  
    629000   247.36359     -43835.052     -49874.635     -845.46915      0.080477506    15.725         0.0032191003 
    630000   244.34285     -43980.48      -49946.31      -664.5942       0.064305985    15.75          0.0025722394 
    631000   246.77734     -43919.354     -49944.624     -894.58243      0.087754094    15.775         0.0035101638 
    632000   249.64359     -43773.308     -49868.56      -932.40091      0.093221376    15.8           0.0037288551 
    633000   245.95017     -43832.308     -49837.382     -799.14943      0.078033444    15.825         0.0031213377 
    634000   247.43393     -43933.7       -49975.001     -1093.4687      0.10718839     15.85          0.0042875357 
    635000   246.9568      -43935.82      -49965.471     -813.28331      0.079946774    15.875         0.0031978709 
    636000   241.93615     -44025.485     -49932.554     -1064.1381      0.10428018     15.9           0.0041712072 
    637000   246.48919     -43846.691     -49864.926     -764.66288      0.072119879    15.925         0.0028847952 
    638000   247.45781     -43829.231     -49871.115     -812.3557       0.078895508    15.95          0.0031558203 
    639000   242.65019     -43946.835     -49871.337     -821.83221      0.080806833    15.975         0.0032322733 
    640000   243.24897     -43861.408     -49800.529     -793.21948      0.077683866    16             0.0031073546 
    641000   245.03127     -43879.514     -49862.152     -1110.4167      0.10835686     16.025         0.0043342742 
    642000   243.58262     -43895.82      -49843.088     -803.39775      0.078273036    16.05          0.0031309214 
    643000   244.2831      -43952.893     -49917.264     -958.46854      0.096971111    16.075         0.0038788444 
    644000   249.08957     -43823.32      -49905.045     -1078.3659      0.10804496     16.1           0.0043217984 
    645000   247.67795     -43994.794     -50042.054     -428.77494      0.042215387    16.125         0.0016886155 
    646000   245.91602     -43914.017     -49918.257     -1046.7849      0.10446179     16.15          0.0041784715 
    647000   245.43311     -43944.06      -49936.51      -973.53966      0.096707655    16.175         0.0038683062 
    648000   245.40651     -43955.358     -49947.158     -768.82506      0.07498588     16.2           0.0029994352 
    649000   246.75382     -43872.004     -49896.699     -929.90809      0.092077796    16.225         0.0036831118 
    650000   248.72816     -43732.715     -49805.616     -1108.07        0.10939147     16.25          0.0043756588 
    651000   243.9251      -43893.678     -49849.308     -885.94572      0.088673809    16.275         0.0035469524 
    652000   248.68007     -43817.22      -49888.947     -1013.272       0.099339603    16.3           0.0039735841 
    653000   248.98402     -43680.367     -49759.515     -892.95766      0.086932796    16.325         0.0034773118 
    654000   244.37496     -43846.041     -49812.655     -770.18833      0.077275615    16.35          0.0030910246 
    655000   248.51452     -43729.508     -49797.192     -941.71056      0.095920438    16.375         0.0038368175 
    656000   244.24969     -43886.907     -49850.462     -563.33698      0.054238309    16.4           0.0021695324 
    657000   249.08906     -43826.744     -49908.457     -746.90787      0.07690936     16.425         0.0030763744 
    658000   248.20459     -43831.834     -49891.951     -607.93836      0.057339751    16.45          0.00229359   
    659000   246.39347     -43853.977     -49869.875     -505.93874      0.050278778    16.475         0.0020111511 
    660000   249.40021     -43869.811     -49959.121     -863.33591      0.08452528     16.5           0.0033810112 
    661000   244.73244     -43967.088     -49942.43      -814.30411      0.083762013    16.525         0.0033504805 
    662000   247.25663     -43977.233     -50014.205     -563.95374      0.053927303    16.55          0.0021570921 
    663000   243.08922     -44030.773     -49965.994     -973.9182       0.095765598    16.575         0.0038306239 
    664000   249.6994      -43755.387     -49852.002     -895.12857      0.091432915    16.6           0.0036573166 
    665000   247.58217     -43765.016     -49809.936     -720.90771      0.074345585    16.625         0.0029738234 
    666000   248.37402     -43830.116     -49894.37      -544.88897      0.05562775     16.65          0.00222511   
    667000   245.24339     -43776.211     -49764.029     -1022.4829      0.098202438    16.675         0.0039280975 
    668000   245.40374     -43880.405     -49872.137     -805.0981       0.08046978     16.7           0.0032187912 
    669000   249.39559     -43755.405     -49844.601     -1019.3045      0.10310234     16.725         0.0041240938 
    670000   244.73552     -43943.83      -49919.248     -928.91394      0.091429953    16.75          0.0036571981 
    671000   245.14064     -43919.804     -49905.113     -1145.8022      0.11068152     16.775         0.0044272608 
    672000   247.11103     -43695.205     -49728.622     -764.58535      0.077346354    16.8           0.0030938541 
    673000   246.40642     -44004.917     -50021.131     -765.95412      0.076121397    16.825         0.0030448559 
    674000   246.57203     -43772.156     -49792.413     -392.0295       0.042201492    16.85          0.0016880597 
    675000   246.09457     -43799.155     -49807.754     -777.83607      0.078562848    16.875         0.0031425139 
    676000   250.71405     -43694.92      -49816.308     -501.65442      0.049818255    16.9           0.0019927302 
    677000   244.20134     -43983.571     -49945.946     -955.68422      0.092465412    16.925         0.0036986165 
    678000   244.12556     -43870.554     -49831.079     -837.62706      0.084090227    16.95          0.0033636091 
    679000   246.61153     -43929.312     -49950.534     -817.54306      0.078024977    16.975         0.0031209991 
    680000   245.78404     -43863.982     -49865         -743.83627      0.073616627    17             0.0029446651 
    681000   244.25868     -43879.385     -49843.16      -1277.9405      0.12612195     17.025         0.0050448779 
    682000   250.36867     -43846.483     -49959.438     -700.20336      0.071992069    17.05          0.0028796828 
    683000   246.32185     -43854.253     -49868.402     -1000.0753      0.098716966    17.075         0.0039486786 
    684000   244.46237     -43859.696     -49828.444     -784.7233       0.071727259    17.1           0.0028690904 
    685000   250.01244     -43667.813     -49772.07      -927.00645      0.091326998    17.125         0.0036530799 
    686000   248.12042     -43848.762     -49906.824     -829.65436      0.080981167    17.15          0.0032392467 
    687000   245.55234     -43774.099     -49769.459     -952.25234      0.094596869    17.175         0.0037838748 
    688000   249.48397     -43827.418     -49918.772     -915.48749      0.092073634    17.2           0.0036829454 
    689000   245.24393     -44061.661     -50049.491     -819.78552      0.079961884    17.225         0.0031984754 
    690000   251.65385     -43682.405     -49826.739     -684.7781       0.069742043    17.25          0.0027896817 
    691000   245.29845     -43873.27      -49862.431     -647.18755      0.061001294    17.275         0.0024400518 
    692000   245.26922     -43916.103     -49904.551     -1040.806       0.10177137     17.3           0.004070855  
    693000   247.22166     -43956.471     -49992.589     -628.14537      0.062159336    17.325         0.0024863734 
    694000   245.89335     -43874.112     -49877.799     -732.0791       0.069311086    17.35          0.0027724434 
    695000   247.57715     -43857.186     -49901.984     -650.05719      0.062298396    17.375         0.0024919359 
    696000   245.18172     -43833.515     -49819.826     -665.04292      0.067380305    17.4           0.0026952122 
    697000   245.98338     -43798.981     -49804.866     -890.35852      0.087976575    17.425         0.003519063  
    698000   246.4834      -43953.044     -49971.137     -742.13933      0.076882065    17.45          0.0030752826 
    699000   245.89461     -43793.924     -49797.641     -492.20472      0.047385165    17.475         0.0018954066 
    700000   247.4123      -43751.387     -49792.159     -850.28437      0.084079838    17.5           0.0033631935 
Loop time of 495.36 on 56 procs for 100000 steps with 12288 atoms

Performance: 17.442 ns/day, 1.376 hours/ns, 201.873 timesteps/s, 2.481 Matom-step/s
99.8% CPU use with 56 MPI tasks x no OpenMP threads

MPI task timing breakdown:
Section |  min time  |  avg time  |  max time  |%varavg| %total
---------------------------------------------------------------
Pair    | 189.13     | 199.26     | 208.09     |  29.2 | 40.23
Bond    | 0.021547   | 0.031211   | 0.041347   |   2.7 |  0.01
Kspace  | 148.9      | 158.63     | 169.58     |  33.3 | 32.02
Neigh   | 24.864     | 24.874     | 24.884     |   0.1 |  5.02
Comm    | 15.914     | 17.619     | 19.418     |  20.1 |  3.56
Output  | 0.22242    | 0.39385    | 0.55832    |  15.8 |  0.08
Modify  | 73.536     | 79.667     | 91.965     |  51.9 | 16.08
Other   |            | 14.88      |            |       |  3.00

Nlocal:        219.429 ave         243 max         199 min
Histogram: 3 4 6 7 9 9 12 4 1 1
Nghost:        6834.75 ave        6882 max        6762 min
Histogram: 1 1 3 6 2 12 11 9 8 3
Neighs:        96061.6 ave      107812 max       87012 min
Histogram: 6 2 7 10 7 10 9 3 1 1

Total # of neighbors = 5379447
Ave neighs/atom = 437.78052
Ave special neighs/atom = 2
Neighbor list builds = 2122
Dangerous builds = 0
kspace_style pppm/tip4p 1.0e-5
next nloop
jump SELF loop_start
run 100000 # 100ps
PPPM initialization ...
  extracting TIP4P info from pair style
  using 12-bit tables for long-range coulomb
  G vector (1/distance) = 0.32815664
  grid = 50 50 50
  stencil order = 5
  estimated absolute RMS force accuracy = 0.0035802102
  estimated relative force accuracy = 1.0781697e-05
  using double precision KISS FFT
  3d grid and FFT values/proc = 11424 2800
Generated 0 of 1 mixed pair_coeff terms from geometric mixing rule
Per MPI rank memory allocation (min/avg/max) = 10.92 | 11.03 | 11.12 Mbytes
   Step          Temp          TotEng         PotEng          Pxy           v_sxy         v_strain     v_viscosity  
    700000   247.39934     -43751.658     -49792.115     -805.55248      0.079456475    17.5           0.003178259  
    701000   245.04813     -43910.576     -49893.625     -950.83627      0.09544597     17.525         0.0038178388 
    702000   249.33226     -43729.637     -49817.287     -832.59008      0.088167561    17.55          0.0035267025 
    703000   244.82057     -43880.263     -49857.756     -1152.6811      0.11567173     17.575         0.0046268694 
    704000   248.40339     -43768.55      -49833.521     -729.33802      0.072790238    17.6           0.0029116095 
    705000   243.22789     -43993.499     -49932.106     -747.54257      0.073070129    17.625         0.0029228052 
    706000   244.79502     -43785.874     -49762.744     -953.40901      0.091023107    17.65          0.0036409243 
    707000   244.45056     -43911.889     -49880.348     -1038.5924      0.10373272     17.675         0.0041493086 
    708000   245.54645     -44018.157     -50013.373     -577.12298      0.057033389    17.7           0.0022813356 
    709000   240.61894     -44047.986     -49922.893     -947.47718      0.096483041    17.725         0.0038593217 
    710000   241.9295      -43965.823     -49872.729     -715.65718      0.071347434    17.75          0.0028538974 
    711000   246.14386     -43936.973     -49946.776     -891.97453      0.08969098     17.775         0.0035876392 
    712000   247.70724     -43998.939     -50046.913     -902.48023      0.088299259    17.8           0.0035319704 
    713000   246.47681     -43862.902     -49880.834     -766.37834      0.079184279    17.825         0.0031673712 
    714000   245.01513     -43774.282     -49756.526     -953.66852      0.09084598     17.85          0.0036338392 
    715000   245.02274     -43853.208     -49835.638     -662.19424      0.067944636    17.875         0.0027177854 
    716000   245.70317     -43857.261     -49856.304     -772.3107       0.079778957    17.9           0.0031911583 
    717000   244.17175     -43964.474     -49926.127     -728.93742      0.074639462    17.925         0.0029855785 
    718000   245.69487     -43878.49      -49877.331     -474.52227      0.047148916    17.95          0.0018859566 
    719000   245.95616     -43686.946     -49692.167     -855.20778      0.082269298    17.975         0.0032907719 
    720000   243.73032     -43910.247     -49861.122     -945.6533       0.092363348    18             0.0036945339 
    721000   245.44354     -43587.745     -49580.449     -945.20616      0.094688387    18.025         0.0037875355 
    722000   245.80608     -43643.558     -49645.113     -825.99374      0.081725297    18.05          0.0032690119 
    723000   247.72741     -43729.96      -49778.427     -958.47069      0.092330655    18.075         0.0036932262 
    724000   244.52363     -43858.159     -49828.403     -1040.2539      0.10680694     18.1           0.0042722775 
    725000   248.24755     -43656.067     -49717.233     -659.92832      0.069048457    18.125         0.0027619383 
    726000   244.76128     -43815.208     -49791.254     -886.86696      0.086777398    18.15          0.0034710959 
    727000   246.08934     -43727.752     -49736.224     -955.6656       0.094706965    18.175         0.0037882786 
    728000   242.88917     -43828.881     -49759.218     -678.85975      0.065150945    18.2           0.0026060378 
    729000   247.79201     -43930.376     -49980.419     -557.53301      0.052446956    18.225         0.0020978782 
    730000   246.96962     -43741.494     -49771.459     -755.04811      0.080362568    18.25          0.0032145027 
    731000   250.30152     -43618.252     -49729.568     -643.29942      0.064018979    18.275         0.0025607592 
    732000   242.0718      -43866.277     -49776.657     -480.87127      0.048367205    18.3           0.0019346882 
    733000   245.63062     -43779.421     -49776.693     -548.53789      0.051694926    18.325         0.002067797  
    734000   246.20607     -43884.113     -49895.435     -678.8612       0.066163045    18.35          0.0026465218 
    735000   246.77743     -43892.264     -49917.536     -787.41439      0.074654483    18.375         0.0029861793 
    736000   245.52769     -43876.52      -49871.279     -844.02323      0.085685855    18.4           0.0034274342 
    737000   249.88906     -43764.046     -49865.291     -1202.5322      0.12167031     18.425         0.0048668125 
    738000   242.36821     -43956.948     -49874.565     -593.3472       0.06191225     18.45          0.00247649   
    739000   245.21825     -43815.012     -49802.216     -692.5706       0.069445379    18.475         0.0027778152 
    740000   248.35481     -43748.955     -49812.74      -707.22213      0.068971448    18.5           0.0027588579 
    741000   248.00615     -43888.292     -49943.564     -647.67798      0.063181145    18.525         0.0025272458 
    742000   248.60402     -43665.712     -49735.582     -890.84003      0.086580143    18.55          0.0034632057 
    743000   243.85984     -43893.668     -49847.704     -1156.1983      0.11429822     18.575         0.0045719288 
    744000   251.95829     -43730.652     -49882.419     -689.60488      0.068116708    18.6           0.0027246683 
    745000   245.26889     -44028.658     -50017.098     -683.94976      0.067446344    18.625         0.0026978538 
    746000   243.79856     -44002.744     -49955.284     -900.81818      0.087747987    18.65          0.0035099195 
    747000   245.53642     -43832.453     -49827.425     -592.83171      0.057958744    18.675         0.0023183497 
    748000   249.45729     -43902.536     -49993.239     -860.95579      0.085232619    18.7           0.0034093048 
    749000   246.58583     -43816.751     -49837.345     -776.17563      0.074621035    18.725         0.0029848414 
    750000   244.9161      -43795.072     -49774.898     -940.04481      0.090833426    18.75          0.003633337  
    751000   248.8417      -43664.777     -49740.45      -443.42081      0.041482711    18.775         0.0016593084 
    752000   247.12588     -43919.682     -49953.462     -822.66876      0.082378514    18.8           0.0032951406 
    753000   247.22947     -43722.911     -49759.22      -952.70077      0.091597887    18.825         0.0036639155 
    754000   246.06436     -44007.293     -50015.155     -772.69434      0.073794766    18.85          0.0029517906 
    755000   245.93584     -44046.189     -50050.913     -746.34261      0.070830625    18.875         0.002833225  
    756000   249.3313      -43872.796     -49960.423     -970.20474      0.10033553     18.9           0.0040134211 
    757000   249.14774     -43729.571     -49812.716     -1152.0234      0.11293373     18.925         0.0045173491 
    758000   246.26298     -43815.816     -49828.528     -1000.6127      0.097885286    18.95          0.0039154114 
    759000   245.97971     -43787.838     -49793.633     -952.22921      0.093231337    18.975         0.0037292535 
    760000   251.88822     -43775.973     -49926.029     -842.18243      0.081675538    19             0.0032670215 
    761000   247.73171     -43806.354     -49854.926     -979.07273      0.095296264    19.025         0.0038118506 
    762000   245.01942     -43993.592     -49975.941     -1076.0943      0.10964697     19.05          0.0043858787 
    763000   250.48839     -43511.376     -49627.254     -614.24459      0.059107174    19.075         0.002364287  
    764000   243.58251     -44005.944     -49953.209     -720.36323      0.073308404    19.1           0.0029323362 
    765000   250.64526     -43650.049     -49769.757     -748.87235      0.071072253    19.125         0.0028428901 
    766000   244.2728      -43879.999     -49844.119     -635.48404      0.063049227    19.15          0.0025219691 
    767000   245.94436     -43924.356     -49929.288     -687.55656      0.069641172    19.175         0.0027856469 
    768000   245.25695     -43889.37      -49877.519     -794.10713      0.080214573    19.2           0.0032085829 
    769000   248.15942     -43725.074     -49784.089     -863.65283      0.082091941    19.225         0.0032836776 
    770000   247.63954     -43766.906     -49813.227     -1083.4437      0.10446182     19.25          0.0041784729 
    771000   244.55799     -43957.607     -49928.689     -958.04007      0.095034507    19.275         0.0038013803 
    772000   245.46436     -43928.168     -49921.381     -632.94096      0.059774158    19.3           0.0023909663 
    773000   244.59463     -43893.356     -49865.333     -734.9113       0.073244296    19.325         0.0029297718 
    774000   244.74727     -44004.821     -49980.525     -947.31694      0.092355349    19.35          0.003694214  
    775000   248.36828     -43765.886     -49830         -623.74837      0.060063257    19.375         0.0024025303 
    776000   248.4972      -43871.791     -49939.053     -661.35537      0.059786176    19.4           0.002391447  
    777000   245.58358     -43949.352     -49945.475     -964.75034      0.096924798    19.425         0.0038769919 
    778000   246.6587      -43788.842     -49811.215     -584.54722      0.054904411    19.45          0.0021961764 
    779000   249.45823     -43823.116     -49913.842     -1021.1981      0.10183558     19.475         0.004073423  
    780000   245.71782     -43921.834     -49921.235     -938.50812      0.094070652    19.5           0.0037628261 
    781000   248.16988     -43795.649     -49854.919     -1012.8135      0.10343437     19.525         0.0041373746 
    782000   244.82826     -43992.313     -49969.995     -790.97107      0.074491408    19.55          0.0029796563 
    783000   249.09616     -43836.942     -49918.828     -728.89502      0.071628468    19.575         0.0028651387 
    784000   246.79647     -43834.701     -49860.438     -1175.2541      0.11492173     19.6           0.0045968692 
    785000   247.74108     -43912.107     -49960.908     -769.58145      0.074584449    19.625         0.002983378  
    786000   245.8001      -43791.32      -49792.73      -750.28928      0.07088175     19.65          0.00283527   
    787000   247.40571     -43892.613     -49933.225     -695.18849      0.067787161    19.675         0.0027114865 
    788000   249.36232     -43787.714     -49876.098     -1067.855       0.10359226     19.7           0.0041436902 
    789000   248.83864     -43771.423     -49847.021     -891.73462      0.089216843    19.725         0.0035686737 
    790000   246.13149     -43957.391     -49966.892     -865.33848      0.084976617    19.75          0.0033990647 
    791000   245.82606     -44014.719     -50016.763     -767.43733      0.074469714    19.775         0.0029787886 
    792000   247.31947     -43827.399     -49865.905     -866.03413      0.086081396    19.8           0.0034432559 
    793000   244.86285     -43890.902     -49869.428     -1120.2853      0.11363103     19.825         0.0045452411 
    794000   244.91558     -43750.497     -49730.31      -587.29165      0.059249562    19.85          0.0023699825 
    795000   250.1619      -43727.575     -49835.482     -722.48191      0.070945335    19.875         0.0028378134 
    796000   244.79533     -43922.325     -49899.203     -792.83877      0.081706824    19.9           0.003268273  
    797000   242.83145     -43953.051     -49881.979     -745.83084      0.070269795    19.925         0.0028107918 
    798000   247.19238     -43690.513     -49725.917     -495.89678      0.047443876    19.95          0.0018977551 
    799000   245.92016     -43839.459     -49843.8       -697.71689      0.070273905    19.975         0.0028109562 
    800000   250.27218     -43790.441     -49901.041     -510.99839      0.049436543    20             0.0019774617 
Loop time of 424.945 on 56 procs for 100000 steps with 12288 atoms

Performance: 20.332 ns/day, 1.180 hours/ns, 235.325 timesteps/s, 2.892 Matom-step/s
99.8% CPU use with 56 MPI tasks x no OpenMP threads

MPI task timing breakdown:
Section |  min time  |  avg time  |  max time  |%varavg| %total
---------------------------------------------------------------
Pair    | 187.12     | 195.96     | 205.96     |  34.2 | 46.11
Bond    | 0.018289   | 0.026268   | 0.038971   |   3.0 |  0.01
Kspace  | 109.51     | 119.21     | 128.16     |  44.0 | 28.05
Neigh   | 24.772     | 24.781     | 24.791     |   0.1 |  5.83
Comm    | 14.846     | 15.852     | 17.603     |  14.7 |  3.73
Output  | 0.22254    | 0.39485    | 0.56       |  15.9 |  0.09
Modify  | 52.042     | 56.246     | 66.248     |  45.5 | 13.24
Other   |            | 12.48      |            |       |  2.94

Nlocal:        219.429 ave         237 max         201 min
Histogram: 1 4 2 7 10 15 9 4 2 2
Nghost:        7281.46 ave        7344 max        7220 min
Histogram: 2 2 6 9 9 9 12 2 4 1
Neighs:        96035.6 ave      105051 max       87362 min
Histogram: 1 3 5 5 18 11 5 5 1 2

Total # of neighbors = 5377991
Ave neighs/atom = 437.66203
Ave special neighs/atom = 2
Neighbor list builds = 2111
Dangerous builds = 0
kspace_style pppm/tip4p 1.0e-5
next nloop
jump SELF loop_start
run 100000 # 100ps
PPPM initialization ...
  extracting TIP4P info from pair style
  using 12-bit tables for long-range coulomb
  G vector (1/distance) = 0.32815664
  grid = 50 75 50
  stencil order = 5
  estimated absolute RMS force accuracy = 0.0035802102
  estimated relative force accuracy = 1.0781697e-05
  using double precision KISS FFT
  3d grid and FFT values/proc = 15776 4000
Generated 0 of 1 mixed pair_coeff terms from geometric mixing rule
Per MPI rank memory allocation (min/avg/max) = 11.21 | 11.34 | 11.44 Mbytes
   Step          Temp          TotEng         PotEng          Pxy           v_sxy         v_strain     v_viscosity  
    800000   250.29914     -43789.814     -49901.072     -460.38183      0.044180895    20             0.0017672358 
    801000   252.40322     -43565.164     -49727.794     -1034.0399      0.10342754     20.025         0.0041371018 
    802000   242.37852     -43824.319     -49742.188     -759.59157      0.075590873    20.05          0.0030236349 
    803000   245.76302     -43777.869     -49778.374     -965.348        0.097593174    20.075         0.003903727  
    804000   245.06967     -43898.817     -49882.393     -1065.5337      0.10384007     20.1           0.0041536026 
    805000   246.52113     -43788.152     -49807.166     -1140.9582      0.11117112     20.125         0.0044468449 
    806000   248.03719     -43747.671     -49803.701     -780.94358      0.077293617    20.15          0.0030917447 
    807000   249.70364     -43758.001     -49854.719     -729.20541      0.069127241    20.175         0.0027650896 
    808000   248.89983     -43698.918     -49776.011     -576.77632      0.057674871    20.2           0.0023069949 
    809000   246.08812     -43905.869     -49914.311     -976.6828       0.097850014    20.225         0.0039140006 
    810000   245.06815     -43677.231     -49660.77      -701.74799      0.069224725    20.25          0.002768989  
    811000   246.39628     -43776.428     -49792.394     -657.38634      0.066941333    20.275         0.0026776533 
    812000   243.06048     -43820.964     -49755.484     -536.34855      0.050782534    20.3           0.0020313013 
    813000   251.90183     -43675.242     -49825.631     -675.34772      0.066410816    20.325         0.0026564326 
    814000   245.05065     -43937.242     -49920.354     -752.81607      0.072147306    20.35          0.0028858922 
    815000   247.72075     -43754.577     -49802.881     -1029.5066      0.10369891     20.375         0.0041479563 
    816000   244.48389     -43717.882     -49687.156     -791.60158      0.078730428    20.4           0.0031492171 
    817000   247.22832     -43889.099     -49925.38      -774.51912      0.077995785    20.425         0.0031198314 
    818000   246.65054     -43688.925     -49711.099     -866.34631      0.087901709    20.45          0.0035160683 
    819000   244.31996     -44048.143     -50013.414     -847.09792      0.085965142    20.475         0.0034386057 
    820000   247.68115     -43740.463     -49787.8       -613.03609      0.062217249    20.5           0.00248869   
    821000   244.66396     -43938.538     -49912.208     -553.05223      0.05637813     20.525         0.0022551252 
    822000   246.98345     -43979.904     -50010.206     -845.68276      0.078979079    20.55          0.0031591632 
    823000   243.7683      -43942.875     -49894.677     -583.6897       0.05569177     20.575         0.0022276708 
    824000   249.35015     -43842.51      -49930.597     -748.83538      0.074616247    20.6           0.0029846499 
    825000   248.06876     -43863.191     -49919.992     -1008.8247      0.10007445     20.625         0.0040029778 
    826000   244.80411     -44043.815     -50020.907     -998.52592      0.09511926     20.65          0.0038047704 
    827000   249.81304     -43776.338     -49875.727     -961.90643      0.095497843    20.675         0.0038199137 
    828000   247.60293     -43852.159     -49897.586     -875.22113      0.088548744    20.7           0.0035419498 
    829000   244.80556     -43830.521     -49807.649     -802.14751      0.075816373    20.725         0.0030326549 
    830000   247.99371     -43804.832     -49859.801     -1242.4212      0.12194242     20.75          0.0048776967 
    831000   243.31101     -44140.674     -50081.311     -1016.9676      0.10096964     20.775         0.0040387857 
    832000   251.91925     -43710.571     -49861.385     -897.70135      0.093361654    20.8           0.0037344662 
    833000   246.76661     -44008.794     -50033.802     -1045.7335      0.10245794     20.825         0.0040983174 
    834000   247.18294     -43891.529     -49926.702     -677.27003      0.067349435    20.85          0.0026939774 
    835000   245.78636     -43859.371     -49860.445     -770.98359      0.074456162    20.875         0.0029782465 
    836000   248.31407     -43888.902     -49951.692     -884.94988      0.08595137     20.9           0.0034380548 
    837000   245.70284     -43835.177     -49834.212     -1030.9267      0.10142684     20.925         0.0040570738 
    838000   248.05446     -43782.025     -49838.477     -844.69342      0.082520801    20.95          0.003300832  
    839000   245.63473     -43891.239     -49888.611     -932.96577      0.095841619    20.975         0.0038336648 
    840000   246.99654     -43952.784     -49983.406     -1245.5516      0.1231356      21             0.0049254241 
    841000   252.74861     -43661.464     -49832.527     -957.588        0.091888346    21.025         0.0036755338 
    842000   248.40655     -43826.057     -49891.105     -866.02396      0.088535604    21.05          0.0035414241 
    843000   249.37136     -43802.374     -49890.979     -831.47706      0.082955799    21.075         0.003318232  
    844000   242.88515     -43962.347     -49892.586     -780.77076      0.074252043    21.1           0.0029700817 
    845000   251.75107     -43645.71      -49792.418     -757.18568      0.077007264    21.125         0.0030802906 
    846000   246.51126     -43966.717     -49985.491     -739.21756      0.071266992    21.15          0.0028506797 
    847000   246.65408     -43818.664     -49840.924     -960.57093      0.095840106    21.175         0.0038336042 
    848000   247.25107     -43791.169     -49828.006     -1058.1147      0.10681519     21.2           0.0042726078 
    849000   249.30176     -43702.678     -49789.584     -1147.012       0.11169106     21.225         0.0044676425 
    850000   245.06167     -43844.399     -49827.78      -1073.5917      0.10580581     21.25          0.0042322325 
    851000   250.38414     -43748.417     -49861.75      -842.075        0.083337093    21.275         0.0033334837 
    852000   250.37207     -43689.891     -49802.929     -956.08963      0.093813484    21.3           0.0037525394 
    853000   246.25557     -43820.042     -49832.572     -763.60602      0.076060337    21.325         0.0030424135 
    854000   244.364       -43876.918     -49843.265     -620.3443       0.058443869    21.35          0.0023377547 
    855000   248.11164     -43631.519     -49689.367     -738.10263      0.068546126    21.375         0.002741845  
    856000   246.96751     -43784.272     -49814.185     -804.57914      0.082496611    21.4           0.0032998644 
    857000   246.86061     -43811.796     -49839.099     -642.86971      0.066727055    21.425         0.0026690822 
    858000   246.17095     -43823.646     -49834.111     -590.70786      0.059720248    21.45          0.0023888099 
    859000   246.96013     -43957.25      -49986.982     -1121.5858      0.11113636     21.475         0.0044454542 
    860000   249.58333     -43623.938     -49717.719     -965.66251      0.09145771     21.5           0.0036583084 
    861000   245.62199     -43836.391     -49833.452     -665.06706      0.065322887    21.525         0.0026129155 
    862000   248.78124     -43845.865     -49920.062     -731.09169      0.072034887    21.55          0.0028813955 
    863000   246.69168     -43799.555     -49822.734     -998.99513      0.097896373    21.575         0.0039158549 
    864000   248.29992     -43892.094     -49954.539     -972.07352      0.096079241    21.6           0.0038431696 
    865000   251.1752      -43755.46      -49888.107     -1231.129       0.1212155      21.625         0.0048486201 
    866000   247.80426     -43907.485     -49957.828     -986.83565      0.097856633    21.65          0.0039142653 
    867000   248.64896     -43815.325     -49886.292     -832.25145      0.083101163    21.675         0.0033240465 
    868000   250.26798     -43902.704     -50013.201     -767.1848       0.073957541    21.7           0.0029583016 
    869000   247.5715      -44008.998     -50053.658     -766.98273      0.076913195    21.725         0.0030765278 
    870000   245.68237     -43945.382     -49943.917     -1006.7         0.099507923    21.75          0.0039803169 
    871000   254.08012     -43675.646     -49879.22      -541.69894      0.050878887    21.775         0.0020351555 
    872000   244.36121     -43916.154     -49882.432     -782.22351      0.077218151    21.8           0.003088726  
    873000   241.66098     -43948.23      -49848.58      -834.69003      0.082596914    21.825         0.0033038765 
    874000   248.9567      -43704.41      -49782.891     -499.92429      0.050155623    21.85          0.0020062249 
    875000   244.57748     -43885.436     -49856.995     -890.31231      0.08522642     21.875         0.0034090568 
    876000   245.33597     -43857.975     -49848.052     -478.95386      0.046491548    21.9           0.0018596619 
    877000   247.3676      -43720.498     -49760.179     -855.77293      0.080925879    21.925         0.0032370351 
    878000   246.56173     -43832.275     -49852.281     -833.96468      0.081773306    21.95          0.0032709323 
    879000   241.91889     -43896.352     -49802.999     -949.40311      0.09625074     21.975         0.0038500296 
    880000   246.4395      -43734.378     -49751.4       -885.91159      0.088374383    22             0.0035349753 
    881000   251.50307     -43720.28      -49860.932     -899.49279      0.088079799    22.025         0.003523192  
    882000   246.11033     -43785.924     -49794.908     -1202.7173      0.11797642     22.05          0.0047190568 
    883000   244.02959     -43922.55      -49880.732     -1012.4436      0.099349654    22.075         0.0039739862 
    884000   244.53357     -43896.91      -49867.397     -824.72677      0.07819831     22.1           0.0031279324 
    885000   251.28537     -43765.726     -49901.064     -814.40678      0.078578699    22.125         0.003143148  
    886000   248.17568     -43640.803     -49700.215     -736.9387       0.074110193    22.15          0.0029644077 
    887000   247.76048     -43850.05      -49899.324     -769.14088      0.076533012    22.175         0.0030613205 
    888000   247.9893      -43796.759     -49851.62      -760.68908      0.078305522    22.2           0.0031322209 
    889000   250.32266     -43795.854     -49907.685     -695.39422      0.071923875    22.225         0.002876955  
    890000   245.86851     -43836.553     -49839.633     -829.23815      0.083044402    22.25          0.0033217761 
    891000   248.04918     -43744.882     -49801.205     -867.38751      0.08699773     22.275         0.0034799092 
    892000   246.40297     -43896.728     -49912.858     -667.59971      0.06622286     22.3           0.0026489144 
    893000   246.90437     -43882.002     -49910.374     -717.64866      0.068218402    22.325         0.0027287361 
    894000   250.18469     -43769.983     -49878.446     -918.04517      0.09199344     22.35          0.0036797376 
    895000   250.34408     -43763.84      -49876.194     -636.8713       0.064884704    22.375         0.0025953882 
    896000   246.91129     -43941.341     -49969.881     -854.78914      0.087431152    22.4           0.0034972461 
    897000   249.60623     -43905.621     -49999.96      -823.22114      0.079372164    22.425         0.0031748866 
    898000   246.40229     -43956.349     -49972.462     -785.96459      0.083121786    22.45          0.0033248714 
    899000   246.56507     -43835.593     -49855.68      -808.10026      0.081771755    22.475         0.0032708702 
    900000   246.52302     -43793.488     -49812.548     -719.62847      0.069678567    22.5           0.0027871427 
Loop time of 494.403 on 56 procs for 100000 steps with 12288 atoms

Performance: 17.476 ns/day, 1.373 hours/ns, 202.264 timesteps/s, 2.485 Matom-step/s
99.8% CPU use with 56 MPI tasks x no OpenMP threads

MPI task timing breakdown:
Section |  min time  |  avg time  |  max time  |%varavg| %total
---------------------------------------------------------------
Pair    | 190.59     | 198.31     | 208.31     |  31.8 | 40.11
Bond    | 0.020821   | 0.030127   | 0.040738   |   2.8 |  0.01
Kspace  | 148        | 158.54     | 166.45     |  35.5 | 32.07
Neigh   | 24.677     | 24.687     | 24.699     |   0.1 |  4.99
Comm    | 15.867     | 17.562     | 19.175     |  18.0 |  3.55
Output  | 0.22554    | 0.75146    | 0.92434    |  13.9 |  0.15
Modify  | 73.65      | 79.583     | 91.95      |  52.3 | 16.10
Other   |            | 14.94      |            |       |  3.02

Nlocal:        219.429 ave         237 max         199 min
Histogram: 2 1 1 8 10 14 8 8 3 1
Nghost:        6851.21 ave        6932 max        6806 min
Histogram: 4 9 8 13 11 6 3 0 1 1
Neighs:        96044.1 ave      104869 max       86468 min
Histogram: 2 1 5 5 12 14 6 7 2 2

Total # of neighbors = 5378472
Ave neighs/atom = 437.70117
Ave special neighs/atom = 2
Neighbor list builds = 2114
Dangerous builds = 0
kspace_style pppm/tip4p 1.0e-5
next nloop
jump SELF loop_start
run 100000 # 100ps
PPPM initialization ...
  extracting TIP4P info from pair style
  using 12-bit tables for long-range coulomb
  G vector (1/distance) = 0.32815664
  grid = 50 50 50
  stencil order = 5
  estimated absolute RMS force accuracy = 0.0035802102
  estimated relative force accuracy = 1.0781697e-05
  using double precision KISS FFT
  3d grid and FFT values/proc = 11424 2800
Generated 0 of 1 mixed pair_coeff terms from geometric mixing rule
Per MPI rank memory allocation (min/avg/max) = 10.92 | 11.03 | 11.12 Mbytes
   Step          Temp          TotEng         PotEng          Pxy           v_sxy         v_strain     v_viscosity  
    900000   246.49309     -43794.3       -49812.63      -664.30324      0.064001951    22.5           0.002560078  
    901000   249.36426     -43766.722     -49855.154     -715.90268      0.071064748    22.525         0.0028425899 
    902000   243.85669     -43889.561     -49843.521     -794.59951      0.079226129    22.55          0.0031690452 
    903000   245.4535      -43935.186     -49928.134     -783.55357      0.074772206    22.575         0.0029908882 
    904000   245.80694     -43966.949     -49968.526     -832.51585      0.081932823    22.6           0.0032773129 
    905000   247.43571     -43811.508     -49852.853     -976.03947      0.096234488    22.625         0.0038493795 
    906000   249.02294     -43830.202     -49910.3       -602.35116      0.062102774    22.65          0.002484111  
    907000   246.17823     -43801.581     -49812.223     -861.94539      0.084016099    22.675         0.003360644  
    908000   249.45628     -43862.986     -49953.664     -639.66601      0.06256837     22.7           0.0025027348 
    909000   246.19489     -44007.137     -50018.186     -799.34739      0.074824425    22.725         0.002992977  
    910000   245.07225     -43845.585     -49829.223     -540.18037      0.048432288    22.75          0.0019372915 
    911000   246.38447     -43681.075     -49696.753     -619.42089      0.057316941    22.775         0.0022926776 
    912000   248.33674     -43797.779     -49861.123     -1086.7229      0.10611346     22.8           0.0042445382 
    913000   248.45293     -43753.116     -49819.297     -430.42212      0.041530491    22.825         0.0016612196 
    914000   245.14607     -43849.374     -49834.815     -832.20478      0.084175024    22.85          0.0033670009 
    915000   249.02993     -43873.689     -49953.958     -723.95782      0.070217256    22.875         0.0028086903 
    916000   241.4972      -43897.697     -49794.048     -857.71114      0.085669667    22.9           0.0034267867 
    917000   244.55147     -43800.724     -49771.648     -1074.9626      0.10461226     22.925         0.0041844902 
    918000   246.32518     -43917.285     -49931.515     -674.13987      0.064471661    22.95          0.0025788664 
    919000   247.59575     -43866.173     -49911.425     -760.8206       0.071536015    22.975         0.0028614406 
    920000   247.35447     -43782.69      -49822.051     -1053.339       0.10207877     23             0.0040831508 
    921000   248.98037     -43895.451     -49974.51      -954.80666      0.094878875    23.025         0.003795155  
    922000   246.8881      -43810.567     -49838.541     -971.88854      0.098872382    23.05          0.0039548953 
    923000   249.71737     -43812.744     -49909.797     -1264.0729      0.1270916      23.075         0.0050836641 
    924000   250.06735     -43799.21      -49904.808     -646.35201      0.061102872    23.1           0.0024441149 
    925000   247.32475     -43795.499     -49834.134     -919.29266      0.092173467    23.125         0.0036869387 
    926000   245.76558     -43788.094     -49788.661     -1272.7511      0.12482819     23.15          0.0049931278 
    927000   244.97584     -43881.262     -49862.547     -1018.3868      0.10100837     23.175         0.0040403348 
    928000   246.07991     -43885.242     -49893.484     -774.76398      0.079178051    23.2           0.003167122  
    929000   245.2181      -43887.062     -49874.262     -714.09021      0.074629273    23.225         0.0029851709 
    930000   245.77015     -43761.945     -49762.624     -1077.8807      0.10647241     23.25          0.0042588965 
    931000   245.84425     -43986.22      -49988.707     -663.5991       0.064860944    23.275         0.0025944377 
    932000   247.78976     -43752.398     -49802.387     -531.78196      0.048821191    23.3           0.0019528476 
    933000   248.36245     -43832.566     -49896.537     -861.92543      0.083754524    23.325         0.003350181  
    934000   249.65594     -43737.134     -49832.687     -753.43839      0.073091798    23.35          0.0029236719 
    935000   247.89879     -43843.714     -49896.365     -676.19756      0.064827625    23.375         0.002593105  
    936000   248.93251     -43689.58      -49767.47      -563.33913      0.056162014    23.4           0.0022464806 
    937000   243.02763     -43886.493     -49820.21      -728.8483       0.070290789    23.425         0.0028116315 
    938000   245.96008     -43736.233     -49741.549     -773.07927      0.074117868    23.45          0.0029647147 
    939000   245.86361     -43805.821     -49808.782     -1030.8476      0.10199143     23.475         0.0040796571 
    940000   246.48018     -43752.979     -49770.993     -803.30205      0.081556917    23.5           0.0032622767 
    941000   244.62892     -43900.114     -49872.929     -876.18944      0.088360972    23.525         0.0035344389 
    942000   252.28898     -43582.686     -49742.527     -783.91369      0.079178535    23.55          0.0031671414 
    943000   246.20155     -43881.581     -49892.793     -654.472        0.063777999    23.575         0.0025511199 
    944000   246.36595     -43809.899     -49825.125     -668.82354      0.06763232     23.6           0.0027052928 
    945000   251.90912     -43623.513     -49774.08      -1052.5031      0.10137585     23.625         0.004055034  
    946000   244.12654     -43891.05      -49851.599     -696.71515      0.071831083    23.65          0.0028732433 
    947000   247.87428     -43683.594     -49735.646     -932.44488      0.092098777    23.675         0.0036839511 
    948000   249.4778      -43786.272     -49877.476     -558.81099      0.051138089    23.7           0.0020455235 
    949000   244.82423     -43928.186     -49905.769     -737.34867      0.075791565    23.725         0.0030316626 
    950000   250.44862     -43765.466     -49880.373     -653.14923      0.064326807    23.75          0.0025730723 
    951000   245.15317     -43937.199     -49922.814     -478.0763       0.048278791    23.775         0.0019311516 
    952000   247.34945     -43876.536     -49915.775     -763.55215      0.076999079    23.8           0.0030799632 
    953000   250.1108      -43690.715     -49797.374     -731.92715      0.072738957    23.825         0.0029095583 
    954000   250.47077     -43772.272     -49887.72      -764.86717      0.076168987    23.85          0.0030467595 
    955000   244.10601     -43884.181     -49844.228     -1048.9743      0.10606979     23.875         0.0042427917 
    956000   248.01424     -43800.996     -49856.466     -862.36426      0.088287289    23.9           0.0035314916 
    957000   247.17349     -43727.343     -49762.285     -785.56538      0.08091324     23.925         0.0032365296 
    958000   243.26812     -43990.456     -49930.046     -968.90296      0.094648471    23.95          0.0037859389 
    959000   249.66638     -43792.175     -49887.983     -907.66365      0.0873131      23.975         0.003492524  
    960000   245.2621      -43916.221     -49904.495     -828.17041      0.077729083    24             0.0031091633 
    961000   248.84094     -43860.714     -49936.368     -644.62652      0.062914356    24.025         0.0025165743 
    962000   245.45356     -43883.893     -49876.842     -1033.9056      0.10182674     24.05          0.0040730698 
    963000   248.93483     -43899.279     -49977.226     -881.14442      0.088175515    24.075         0.0035270206 
    964000   250.37805     -43828.951     -49942.135     -901.33911      0.08706998     24.1           0.0034827992 
    965000   247.05766     -43947.868     -49979.983     -1070.3216      0.10630491     24.125         0.0042521963 
    966000   247.79489     -43897.875     -49947.99      -941.39905      0.089417793    24.15          0.0035767117 
    967000   248.61622     -43824.738     -49894.906     -890.20552      0.086289931    24.175         0.0034515972 
    968000   248.26284     -43806.833     -49868.372     -483.5546       0.046330836    24.2           0.0018532334 
    969000   246.7273      -43977.57      -50001.619     -593.53384      0.058259963    24.225         0.0023303985 
    970000   247.16047     -43901.34      -49935.964     -567.06379      0.054652353    24.25          0.0021860941 
    971000   246.53238     -43822.591     -49841.88      -858.53838      0.086477946    24.275         0.0034591178 
    972000   247.08258     -43899.653     -49932.375     -974.86848      0.0992924      24.3           0.003971696  
    973000   252.9271      -43593.429     -49768.85      -543.6016       0.052599537    24.325         0.0021039815 
    974000   243.68231     -43979.104     -49928.807     -1031.8153      0.10260652     24.35          0.0041042606 
    975000   248.44311     -43860.947     -49926.888     -793.1617       0.075645388    24.375         0.0030258155 
    976000   246.40221     -43830.631     -49846.742     -920.2974       0.091987715    24.4           0.0036795086 
    977000   248.60184     -43692.785     -49762.602     -702.78519      0.064560398    24.425         0.0025824159 
    978000   248.01684     -43853.175     -49908.708     -627.9872       0.062609497    24.45          0.0025043799 
    979000   243.75481     -43874.745     -49826.218     -747.82243      0.072611832    24.475         0.0029044733 
    980000   245.94586     -43835.526     -49840.495     -1075.7565      0.10556075     24.5           0.0042224299 
    981000   250.41688     -43746.298     -49860.43      -1284.5249      0.12635114     24.525         0.0050540455 
    982000   250.53252     -43730.959     -49847.915     -721.15689      0.070698479    24.55          0.0028279392 
    983000   246.2738      -43855.572     -49868.548     -791.85846      0.079153409    24.575         0.0031661364 
    984000   249.38041     -43700.191     -49789.017     -725.93499      0.069220164    24.6           0.0027688065 
    985000   248.92941     -43858.332     -49936.146     -782.1889       0.07766258     24.625         0.0031065032 
    986000   248.11575     -43929.155     -49987.104     -957.92989      0.097222842    24.65          0.0038889137 
    987000   244.44602     -43932.786     -49901.135     -950.68093      0.096131035    24.675         0.0038452414 
    988000   244.4998      -43861.782     -49831.444     -614.42327      0.060166958    24.7           0.0024066783 
    989000   245.27711     -43758.883     -49747.523     -943.36425      0.090521082    24.725         0.0036208433 
    990000   249.87649     -43695.16      -49796.098     -521.13642      0.047140652    24.75          0.0018856261 
    991000   245.79883     -43811.042     -49812.421     -693.98131      0.064971878    24.775         0.0025988751 
    992000   246.48138     -43680.76      -49698.804     -963.36164      0.097204713    24.8           0.0038881885 
    993000   243.52681     -43867.783     -49813.689     -985.92871      0.096201712    24.825         0.0038480685 
    994000   247.61093     -43716.31      -49761.932     -936.24578      0.089555366    24.85          0.0035822146 
    995000   245.43366     -43901.781     -49894.244     -1065.0832      0.10432406     24.875         0.0041729623 
    996000   251.82651     -43645.546     -49794.095     -667.32708      0.063456143    24.9           0.0025382457 
    997000   246.15462     -43918.99      -49929.056     -776.11759      0.072889393    24.925         0.0029155757 
    998000   247.76864     -43818.557     -49868.03      -787.57786      0.077809119    24.95          0.0031123648 
    999000   244.28511     -43780.948     -49745.368     -896.14511      0.084302682    24.975         0.0033721073 
   1000000   247.9995      -43721.111     -49776.221     -784.33798      0.074194829    25             0.0029677932 
Loop time of 423.438 on 56 procs for 100000 steps with 12288 atoms

Performance: 20.404 ns/day, 1.176 hours/ns, 236.162 timesteps/s, 2.902 Matom-step/s
99.8% CPU use with 56 MPI tasks x no OpenMP threads

MPI task timing breakdown:
Section |  min time  |  avg time  |  max time  |%varavg| %total
---------------------------------------------------------------
Pair    | 186.22     | 195.32     | 203.4      |  29.4 | 46.13
Bond    | 0.019368   | 0.025648   | 0.034519   |   2.7 |  0.01
Kspace  | 109.5      | 118.15     | 127.66     |  38.5 | 27.90
Neigh   | 24.835     | 24.843     | 24.851     |   0.1 |  5.87
Comm    | 14.812     | 15.955     | 17.682     |  16.3 |  3.77
Output  | 0.22506    | 0.3985     | 0.56464    |  15.9 |  0.09
Modify  | 52.033     | 56.203     | 66.215     |  45.4 | 13.27
Other   |            | 12.54      |            |       |  2.96

Nlocal:        219.429 ave         239 max         195 min
Histogram: 1 3 2 4 6 16 11 9 2 2
Nghost:        7279.48 ave        7367 max        7207 min
Histogram: 3 7 4 10 10 7 3 6 4 2
Neighs:        96072.6 ave      106411 max       83761 min
Histogram: 1 2 2 7 8 16 9 8 1 2

Total # of neighbors = 5380066
Ave neighs/atom = 437.83089
Ave special neighs/atom = 2
Neighbor list builds = 2124
Dangerous builds = 0
kspace_style pppm/tip4p 1.0e-5
next nloop
jump SELF loop_start
run 100000 # 100ps
PPPM initialization ...
  extracting TIP4P info from pair style
  using 12-bit tables for long-range coulomb
  G vector (1/distance) = 0.32815664
  grid = 50 75 50
  stencil order = 5
  estimated absolute RMS force accuracy = 0.0035802102
  estimated relative force accuracy = 1.0781697e-05
  using double precision KISS FFT
  3d grid and FFT values/proc = 15776 4000
Generated 0 of 1 mixed pair_coeff terms from geometric mixing rule
Per MPI rank memory allocation (min/avg/max) = 11.21 | 11.34 | 11.45 Mbytes
   Step          Temp          TotEng         PotEng          Pxy           v_sxy         v_strain     v_viscosity  
   1000000   247.9868      -43721.508     -49776.308     -721.70961      0.06774627     25             0.0027098508 
   1001000   248.40104     -43744.076     -49808.99      -884.47518      0.088143046    25.025         0.0035257218 
   1002000   244.61455     -43753.485     -49725.949     -881.47913      0.086319806    25.05          0.0034527922 
   1003000   246.06261     -43698.087     -49705.906     -618.88022      0.062721661    25.075         0.0025088664 
   1004000   251.4497      -43614.004     -49753.354     -752.68997      0.074950682    25.1           0.0029980273 
   1005000   247.21819     -43730.537     -49766.571     -750.77376      0.072715619    25.125         0.0029086247 
   1006000   246.70901     -43681.21      -49704.812     -624.71459      0.05889984     25.15          0.0023559936 
   1007000   245.18843     -43888.404     -49874.879     -786.81832      0.077752737    25.175         0.0031101095 
   1008000   247.3558      -43775.04      -49814.434     -687.4457       0.065224943    25.2           0.0026089977 
   1009000   246.43305     -43791.803     -49808.667     -1188.9501      0.11479799     25.225         0.0045919198 
   1010000   247.81362     -43743.503     -49794.075     -695.45275      0.067222333    25.25          0.0026888933 
   1011000   247.6801      -43756.728     -49804.04      -1154.6902      0.11334183     25.275         0.0045336732 
   1012000   247.92194     -43791.904     -49845.12      -601.99043      0.058595273    25.3           0.0023438109 
   1013000   249.27399     -43787.78      -49874.008     -679.75876      0.069492833    25.325         0.0027797133 
   1014000   245.46085     -43856.499     -49849.626     -1217.0488      0.12016702     25.35          0.0048066807 
   1015000   248.80483     -43662.721     -49737.494     -827.9685       0.082952543    25.375         0.0033181017 
   1016000   245.86186     -43873.354     -49876.272     -911.87996      0.091255848    25.4           0.0036502339 
   1017000   249.58448     -43717.926     -49811.734     -836.14506      0.077601267    25.425         0.0031040507 
   1018000   246.47588     -43726.835     -49744.744     -728.53038      0.070377645    25.45          0.0028151058 
   1019000   247.01545     -43650.173     -49681.257     -720.32275      0.073223447    25.475         0.0029289379 
   1020000   244.01559     -43775.884     -49733.723     -599.86938      0.060151912    25.5           0.0024060765 
   1021000   245.42455     -43747.575     -49739.815     -822.39243      0.083548186    25.525         0.0033419274 
   1022000   248.12722     -43851.038     -49909.266     -899.31172      0.088286591    25.55          0.0035314636 
   1023000   248.23282     -43849.394     -49910.201     -824.38767      0.0793766      25.575         0.003175064  
   1024000   248.94687     -43740.825     -49819.066     -629.5047       0.059903495    25.6           0.0023961398 
   1025000   245.57692     -43990.255     -49986.216     -710.14207      0.069907187    25.625         0.0027962875 
   1026000   252.25728     -43534.914     -49693.981     -1072.358       0.1031907      25.65          0.0041276279 
   1027000   245.00426     -43913.779     -49895.758     -647.3963       0.062077833    25.675         0.0024831133 
   1028000   249.99385     -43700.241     -49804.045     -969.74594      0.093538805    25.7           0.0037415522 
   1029000   250.64337     -43755.435     -49875.097     -713.4313       0.073441597    25.725         0.0029376639 
   1030000   246.16469     -43682.867     -49693.178     -745.27864      0.073890856    25.75          0.0029556343 
   1031000   247.97085     -43723.759     -49778.17      -880.10625      0.088285658    25.775         0.0035314263 
   1032000   249.22849     -43625.942     -49711.058     -705.17654      0.071376208    25.8           0.0028550483 
   1033000   246.26902     -43717.689     -49730.547     -651.67388      0.063318361    25.825         0.0025327345 
   1034000   243.01341     -44002.124     -49935.494     -856.86025      0.085420948    25.85          0.0034168379 
   1035000   246.68217     -43600.564     -49623.51      -485.01979      0.047171556    25.875         0.0018868623 
   1036000   245.89331     -43854.999     -49858.685     -986.56221      0.098523266    25.9           0.0039409306 
   1037000   247.64821     -43833.846     -49880.379     -786.17655      0.07863652     25.925         0.0031454608 
   1038000   244.65251     -43782.623     -49756.014     -961.26297      0.093966292    25.95          0.0037586517 
   1039000   246.60678     -43729.718     -49750.823     -916.79201      0.090472534    25.975         0.0036189014 
   1040000   247.66361     -43883.548     -49930.457     -821.03427      0.077833568    26             0.0031133427 
   1041000   246.5767      -43768.429     -49788.8       -904.24321      0.087451427    26.025         0.0034980571 
   1042000   250.13343     -43737.857     -49845.068     -847.85859      0.079852769    26.05          0.0031941108 
   1043000   245.10224     -43966.329     -49950.7       -684.17185      0.068980081    26.075         0.0027592033 
   1044000   250.27101     -43684.021     -49794.591     -901.16699      0.087470884    26.1           0.0034988354 
   1045000   253.17404     -43686.526     -49867.976     -567.15811      0.05594315     26.125         0.002237726  
   1046000   247.76748     -43797.706     -49847.151     -687.2791       0.067493766    26.15          0.0026997507 
   1047000   245.79122     -43851.421     -49852.614     -648.28744      0.064810052    26.175         0.0025924021 
   1048000   245.00055     -43926.958     -49908.846     -773.36482      0.075010278    26.2           0.0030004111 
   1049000   247.03217     -43816.249     -49847.741     -765.39025      0.076688798    26.225         0.0030675519 
   1050000   248.67948     -43786.227     -49857.939     -854.82553      0.087495661    26.25          0.0034998264 
   1051000   250.29736     -43847.375     -49958.589     -620.19856      0.066399119    26.275         0.0026559648 
   1052000   247.06453     -43880.611     -49912.893     -908.1696       0.090315568    26.3           0.0036126227 
   1053000   247.6725      -43823.369     -49870.495     -1051.2981      0.10426786     26.325         0.0041707142 
   1054000   245.36077     -43800.298     -49790.981     -500.81125      0.050314254    26.35          0.0020125701 
   1055000   245.39474     -43809.886     -49801.399     -858.26387      0.086128597    26.375         0.0034451439 
   1056000   248.796       -43689.009     -49763.566     -904.81352      0.088436729    26.4           0.0035374692 
   1057000   248.8622      -43812.392     -49888.565     -771.92032      0.075785756    26.425         0.0030314302 
   1058000   250.38692     -43618.074     -49731.475     -644.6529       0.061210313    26.45          0.0024484125 
   1059000   249.99642     -43684.688     -49788.555     -428.37616      0.037426062    26.475         0.0014970425 
   1060000   249.81045     -43677.35      -49776.676     -763.64329      0.076658355    26.5           0.0030663342 
   1061000   247.24931     -43740.519     -49777.313     -696.95529      0.065379922    26.525         0.0026151969 
   1062000   250.49671     -43654.825     -49770.907     -1043.2495      0.096598133    26.55          0.0038639253 
   1063000   247.62699     -43697.191     -49743.206     -780.29078      0.074681819    26.575         0.0029872727 
   1064000   247.84519     -43652.368     -49703.71      -880.07361      0.086073786    26.6           0.0034429514 
   1065000   248.28078     -43679.541     -49741.519     -613.63303      0.057762134    26.625         0.0023104854 
   1066000   247.82847     -43948.024     -49998.958     -1056.7706      0.10398441     26.65          0.0041593764 
   1067000   246.13275     -43804.356     -49813.888     -809.47824      0.080472245    26.675         0.0032188898 
   1068000   249.81725     -43777.877     -49877.369     -667.67972      0.069525593    26.7           0.0027810237 
   1069000   245.03945     -43941.213     -49924.05      -921.21019      0.092449077    26.725         0.0036979631 
   1070000   246.06491     -43932.113     -49939.989     -779.63137      0.074960341    26.75          0.0029984137 
   1071000   249.36455     -43739.357     -49827.796     -860.33366      0.081346546    26.775         0.0032538618 
   1072000   247.1207      -43727.135     -49760.788     -960.1727       0.092587616    26.8           0.0037035046 
   1073000   247.33398     -43796.003     -49834.864     -703.65677      0.068117392    26.825         0.0027246957 
   1074000   247.55848     -43866.381     -49910.723     -654.78092      0.062677229    26.85          0.0025070891 
   1075000   247.32411     -43951.127     -49989.746     -775.47739      0.079039104    26.875         0.0031615642 
   1076000   248.11651     -43750.813     -49808.78      -703.58856      0.067007947    26.9           0.0026803179 
   1077000   244.21791     -43913.89      -49876.67      -775.29904      0.074914821    26.925         0.0029965928 
   1078000   250.2883      -43760.218     -49871.211     -994.15143      0.096235918    26.95          0.0038494367 
   1079000   244.92869     -43888.128     -49868.261     -947.36439      0.093254891    26.975         0.0037301956 
   1080000   249.07896     -43632.77      -49714.236     -658.25454      0.065760856    27             0.0026304342 
   1081000   245.27281     -43783.552     -49772.087     -841.51637      0.083809778    27.025         0.0033523911 
   1082000   249.406       -43764.62      -49854.071     -609.40818      0.059684542    27.05          0.0023873817 
   1083000   250.27265     -43824.905     -49935.515     -751.71729      0.072246909    27.075         0.0028898764 
   1084000   244.84649     -43892.85      -49870.976     -986.66018      0.096713842    27.1           0.0038685537 
   1085000   248.74101     -43740.109     -49813.323     -767.07756      0.073889233    27.125         0.0029555693 
   1086000   247.54648     -43825.775     -49869.824     -1227.8234      0.12036749     27.15          0.0048146994 
   1087000   247.98821     -43701.247     -49756.081     -558.04911      0.05499944     27.175         0.0021999776 
   1088000   248.58163     -43697.33      -49766.653     -598.2271       0.056855873    27.2           0.0022742349 
   1089000   245.97869     -43853.473     -49859.243     -500.2347       0.047150007    27.225         0.0018860003 
   1090000   246.35481     -43878.598     -49893.551     -596.56733      0.058765022    27.25          0.0023506009 
   1091000   243.49154     -43981.075     -49926.12      -829.40906      0.081981515    27.275         0.0032792606 
   1092000   253.29726     -43655.504     -49839.963     -774.49652      0.072629839    27.3           0.0029051935 
   1093000   245.80164     -43912.413     -49913.86      -489.38775      0.047631656    27.325         0.0019052662 
   1094000   246.22733     -43843.479     -49855.32      -808.71617      0.079966607    27.35          0.0031986643 
   1095000   243.77782     -43920.036     -49872.07      -827.4471       0.084922468    27.375         0.0033968987 
   1096000   242.72823     -43928.343     -49854.751     -848.86184      0.083775146    27.4           0.0033510058 
   1097000   249.05743     -43711.363     -49792.304     -657.05038      0.065091716    27.425         0.0026036686 
   1098000   248.55656     -43763.091     -49831.802     -1015.758       0.096448645    27.45          0.0038579458 
   1099000   247.31512     -43722.356     -49760.756     -1018.3193      0.097291532    27.475         0.0038916613 
   1100000   244.87737     -43755.982     -49734.862     -852.91654      0.083097941    27.5           0.0033239176 
Loop time of 494.522 on 56 procs for 100000 steps with 12288 atoms

Performance: 17.471 ns/day, 1.374 hours/ns, 202.215 timesteps/s, 2.485 Matom-step/s
99.8% CPU use with 56 MPI tasks x no OpenMP threads

MPI task timing breakdown:
Section |  min time  |  avg time  |  max time  |%varavg| %total
---------------------------------------------------------------
Pair    | 189.01     | 197.31     | 209.67     |  32.2 | 39.90
Bond    | 0.019202   | 0.028826   | 0.039939   |   2.8 |  0.01
Kspace  | 146.25     | 159.68     | 166.98     |  36.3 | 32.29
Neigh   | 24.792     | 24.802     | 24.815     |   0.1 |  5.02
Comm    | 15.568     | 17.795     | 19.71      |  22.8 |  3.60
Output  | 0.22468    | 0.39608    | 0.56044    |  15.8 |  0.08
Modify  | 73.402     | 79.487     | 92.047     |  52.4 | 16.07
Other   |            | 15.02      |            |       |  3.04

Nlocal:        219.429 ave         236 max         200 min
Histogram: 1 5 5 3 5 9 14 8 5 1
Nghost:        6843.77 ave        6880 max        6796 min
Histogram: 1 1 5 9 5 8 7 9 10 1
Neighs:        96033.4 ave      104833 max       87343 min
Histogram: 2 7 3 4 7 11 13 7 1 1

Total # of neighbors = 5377868
Ave neighs/atom = 437.65202
Ave special neighs/atom = 2
Neighbor list builds = 2122
Dangerous builds = 0
kspace_style pppm/tip4p 1.0e-5
next nloop
jump SELF loop_start
run 100000 # 100ps
PPPM initialization ...
  extracting TIP4P info from pair style
  using 12-bit tables for long-range coulomb
  G vector (1/distance) = 0.32815664
  grid = 50 50 50
  stencil order = 5
  estimated absolute RMS force accuracy = 0.0035802102
  estimated relative force accuracy = 1.0781697e-05
  using double precision KISS FFT
  3d grid and FFT values/proc = 11424 2800
Generated 0 of 1 mixed pair_coeff terms from geometric mixing rule
Per MPI rank memory allocation (min/avg/max) = 10.92 | 11.03 | 11.12 Mbytes
   Step          Temp          TotEng         PotEng          Pxy           v_sxy         v_strain     v_viscosity  
   1100000   244.90896     -43755.12      -49734.771     -801.71122      0.077858624    27.5           0.003114345  
   1101000   246.23176     -43771.849     -49783.799     -1032.4134      0.10037019     27.525         0.0040148077 
   1102000   247.30538     -43769.556     -49807.719     -856.71014      0.083861333    27.55          0.0033544533 
   1103000   248.16115     -43699.283     -49758.34      -821.0866       0.082132368    27.575         0.0032852947 
   1104000   247.01484     -43738.472     -49769.541     -766.63114      0.07286576     27.6           0.0029146304 
   1105000   247.27291     -43752.134     -49789.504     -586.11451      0.058225194    27.625         0.0023290078 
   1106000   247.63077     -43791.476     -49837.584     -1251.5805      0.12303342     27.65          0.0049213368 
   1107000   247.5749      -43817.502     -49862.245     -677.89845      0.068456594    27.675         0.0027382638 
   1108000   247.72237     -43792.144     -49840.487     -448.76126      0.036920613    27.7           0.0014768245 
   1109000   242.91675     -43996.758     -49927.769     -531.87665      0.053487786    27.725         0.0021395114 
   1110000   250.72152     -43847.475     -49969.045     -864.78308      0.084729354    27.75          0.0033891742 
   1111000   249.97841     -43770.682     -49874.109     -1137.9151      0.11301326     27.775         0.0045205304 
   1112000   249.11534     -43950.494     -50032.848     -1115.775       0.11028053     27.8           0.004411221  
   1113000   248.62835     -43793.011     -49863.475     -987.73275      0.094893388    27.825         0.0037957355 
   1114000   247.19353     -43899.332     -49934.764     -557.13061      0.054701679    27.85          0.0021880671 
   1115000   244.3392      -43985.461     -49951.202     -631.48154      0.065218888    27.875         0.0026087555 
   1116000   249.33393     -43641.801     -49729.492     -1070.0986      0.10455129     27.9           0.0041820517 
   1117000   249.94721     -43850.795     -49953.46      -1000.6159      0.10168884     27.925         0.0040675535 
   1118000   245.98162     -43986.101     -49991.943     -1103.814       0.10829249     27.95          0.0043316995 
   1119000   248.66854     -43913.664     -49985.109     -972.347        0.09401673     27.975         0.0037606692 
   1120000   249.685       -43830.647     -49926.91      -817.53289      0.085014849    28             0.0034005939 
   1121000   247.81615     -43779.035     -49829.668     -774.57306      0.075845105    28.025         0.0030338042 
   1122000   249.45874     -44006.049     -50096.787     -647.35652      0.062199439    28.05          0.0024879775 
   1123000   246.93247     -43883.779     -49912.836     -1168.5022      0.11506435     28.075         0.0046025738 
   1124000   245.0991      -43829.735     -49814.029     -1059.6604      0.1039684      28.1           0.0041587361 
   1125000   244.17328     -44123.155     -50084.845     -626.33831      0.061962865    28.125         0.0024785146 
   1126000   248.23103     -43913.929     -49974.692     -758.7418       0.071780753    28.15          0.0028712301 
   1127000   248.60954     -43858.096     -49928.101     -853.10857      0.085073102    28.175         0.0034029241 
   1128000   245.7822      -44034.522     -50035.495     -856.27827      0.084295752    28.2           0.0033718301 
   1129000   249.80613     -43700.222     -49799.443     -525.36793      0.053589694    28.225         0.0021435878 
   1130000   243.43793     -43942.945     -49886.681     -778.91895      0.078340552    28.25          0.0031336221 
   1131000   251.11888     -43728.607     -49859.879     -909.45333      0.091065934    28.275         0.0036426373 
   1132000   246.30939     -43856.007     -49869.851     -933.40962      0.08954069     28.3           0.0035816276 
   1133000   244.79212     -43863.287     -49840.086     -740.87961      0.070093367    28.325         0.0028037347 
   1134000   248.73126     -43779.794     -49852.77      -801.74102      0.078351249    28.35          0.00313405   
   1135000   247.48916     -43888.897     -49931.546     -998.80167      0.10078576     28.375         0.0040314306 
   1136000   249.78917     -43763.124     -49861.931     -621.74765      0.061748136    28.4           0.0024699255 
   1137000   246.19057     -43828.441     -49839.384     -998.38356      0.10046448     28.425         0.0040185791 
   1138000   248.6531      -43745.715     -49816.783     -754.7565       0.077177079    28.45          0.0030870831 
   1139000   244.91412     -43818.297     -49798.075     -612.90035      0.060581238    28.475         0.0024232495 
   1140000   246.5558      -43963.352     -49983.213     -739.01257      0.072699177    28.5           0.0029079671 
   1141000   246.489       -43853.524     -49871.754     -737.64611      0.070599201    28.525         0.002823968  
   1142000   245.48252     -43789.567     -49783.222     -1003.3765      0.097279033    28.55          0.0038911613 
   1143000   252.33273     -43781.439     -49942.348     -1123.6844      0.11044931     28.575         0.0044179723 
   1144000   247.01356     -43776.797     -49807.835     -1139.9527      0.11264945     28.6           0.0045059779 
   1145000   246.05377     -43820.171     -49827.775     -654.12504      0.063473069    28.625         0.0025389228 
   1146000   246.83084     -43784.036     -49810.612     -874.0782       0.086484411    28.65          0.0034593765 
   1147000   248.8096      -43766.45      -49841.34      -529.45298      0.053294413    28.675         0.0021317765 
   1148000   249.25567     -43887.163     -49972.944     -595.08952      0.059580155    28.7           0.0023832062 
   1149000   246.13595     -44009.552     -50019.162     -907.82091      0.089770252    28.725         0.0035908101 
   1150000   245.9701      -43832.648     -49838.208     -679.00209      0.06771065     28.75          0.002708426  
   1151000   247.65582     -43856.87      -49903.589     -754.43699      0.076548376    28.775         0.003061935  
   1152000   249.0834      -43883.342     -49964.916     -1111.3598      0.10249497     28.8           0.0040997986 
   1153000   244.36687     -43943.383     -49909.8       -766.45055      0.07645372     28.825         0.0030581488 
   1154000   247.28468     -43851.374     -49889.031     -818.11554      0.081778058    28.85          0.0032711223 
   1155000   249.4894      -43853.677     -49945.164     -742.62837      0.071898035    28.875         0.0028759214 
   1156000   246.39629     -43882.29      -49898.256     -981.36671      0.09528569     28.9           0.0038114276 
   1157000   246.80969     -43828.014     -49854.073     -480.42101      0.048816512    28.925         0.0019526605 
   1158000   246.41056     -43747.93      -49764.244     -976.88173      0.098855981    28.95          0.0039542392 
   1159000   246.53463     -43876.577     -49895.921     -726.7442       0.07361922     28.975         0.0029447688 
   1160000   246.96617     -43920.869     -49950.75      -535.92084      0.050717943    29             0.0020287177 
   1161000   244.95563     -43898.85      -49879.641     -889.4765       0.084149369    29.025         0.0033659748 
   1162000   245.50135     -43772.143     -49766.259     -797.18443      0.079679417    29.05          0.0031871767 
   1163000   247.40746     -43901.728     -49942.383     -904.63256      0.086350137    29.075         0.0034540055 
   1164000   247.20856     -43770.516     -49806.314     -967.96883      0.092064344    29.1           0.0036825737 
   1165000   246.832       -43888.699     -49915.303     -661.13578      0.06246021     29.125         0.0024984084 
   1166000   246.13946     -43859.23      -49868.925     -929.17231      0.091783519    29.15          0.0036713408 
   1167000   247.52609     -43904.414     -49947.965     -853.84152      0.084762383    29.175         0.0033904953 
   1168000   247.93181     -43922.246     -49975.703     -733.24369      0.071679975    29.2           0.002867199  
   1169000   246.27623     -43736.874     -49749.909     -833.44128      0.082327406    29.225         0.0032930963 
   1170000   248.4674      -43802.19      -49868.724     -867.99         0.087004838    29.25          0.0034801935 
   1171000   248.66887     -43595.911     -49667.364     -1178.894       0.11118569     29.275         0.0044474277 
   1172000   248.9464      -43675.125     -49753.354     -929.58309      0.089579574    29.3           0.003583183  
   1173000   246.89375     -43651.435     -49679.547     -827.13414      0.080824005    29.325         0.0032329602 
   1174000   247.35192     -43729.221     -49768.519     -890.97636      0.090549698    29.35          0.0036219879 
   1175000   247.55936     -43782.498     -49826.861     -583.98957      0.053925408    29.375         0.0021570163 
   1176000   248.23099     -43813.032     -49873.794     -956.38761      0.093648712    29.4           0.0037459485 
   1177000   245.59619     -43929.477     -49925.908     -940.85934      0.09050807     29.425         0.0036203228 
   1178000   250.39101     -43675.007     -49788.508     -575.10574      0.054243179    29.45          0.0021697272 
   1179000   246.0342      -43759.649     -49766.775     -938.03308      0.095719312    29.475         0.0038287725 
   1180000   247.01272     -43739.008     -49770.025     -775.09748      0.076764501    29.5           0.00307058   
   1181000   248.05098     -43822.037     -49878.403     -833.66745      0.08283411     29.525         0.0033133644 
   1182000   247.06364     -43764.716     -49796.976     -1082.2841      0.10084553     29.55          0.0040338213 
   1183000   247.54127     -43833.16      -49877.082     -716.08913      0.071077447    29.575         0.0028430979 
   1184000   246.55281     -43840.88      -49860.668     -1024.2454      0.098005501    29.6           0.00392022   
   1185000   246.63256     -43782.018     -49803.754     -723.39913      0.070918166    29.625         0.0028367266 
   1186000   243.43749     -43946.679     -49890.404     -935.11002      0.090017082    29.65          0.0036006833 
   1187000   250.55089     -43737.717     -49855.121     -876.95736      0.088913527    29.675         0.0035565411 
   1188000   247.18527     -43838.989     -49874.219     -948.2507       0.090523491    29.7           0.0036209396 
   1189000   249.88344     -43736.671     -49837.779     -1026.468       0.10196468     29.725         0.0040785872 
   1190000   247.84545     -43871.854     -49923.202     -579.99273      0.057989649    29.75          0.002319586  
   1191000   247.23674     -43658.619     -49695.105     -839.40953      0.078677549    29.775         0.0031471019 
   1192000   247.46734     -43700.485     -49742.602     -647.11054      0.064525603    29.8           0.0025810241 
   1193000   246.82556     -43853.552     -49879.999     -1002.342       0.098481936    29.825         0.0039392774 
   1194000   244.09148     -43810.629     -49770.322     -560.78108      0.053038541    29.85          0.0021215416 
   1195000   250.81627     -43679.034     -49802.918     -1090.4466      0.10849102     29.875         0.0043396408 
   1196000   246.21474     -43804.142     -49815.676     -889.457        0.092616537    29.9           0.0037046615 
   1197000   246.73409     -43804.264     -49828.478     -707.77613      0.071042538    29.925         0.0028417015 
   1198000   244.52741     -43825.111     -49795.447     -1201.0718      0.1168186      29.95          0.0046727439 
   1199000   249.19915     -43796.208     -49880.608     -1075.9887      0.10885317     29.975         0.0043541267 
   1200000   248.61014     -43745.071     -49815.091     -834.86248      0.084858865    30             0.0033943546 
Loop time of 422.937 on 56 procs for 100000 steps with 12288 atoms

Performance: 20.429 ns/day, 1.175 hours/ns, 236.442 timesteps/s, 2.905 Matom-step/s
99.8% CPU use with 56 MPI tasks x no OpenMP threads

MPI task timing breakdown:
Section |  min time  |  avg time  |  max time  |%varavg| %total
---------------------------------------------------------------
Pair    | 187.92     | 194.28     | 208.38     |  30.1 | 45.94
Bond    | 0.017656   | 0.024715   | 0.035134   |   2.8 |  0.01
Kspace  | 104.66     | 118.91     | 126.16     |  39.9 | 28.12
Neigh   | 24.861     | 24.87      | 24.882     |   0.1 |  5.88
Comm    | 14.868     | 15.866     | 17.377     |  15.7 |  3.75
Output  | 0.22579    | 0.39873    | 0.5643     |  15.9 |  0.09
Modify  | 51.878     | 56.182     | 66.032     |  45.2 | 13.28
Other   |            | 12.4       |            |       |  2.93

Nlocal:        219.429 ave         244 max         202 min
Histogram: 7 6 4 7 8 15 6 1 1 1
Nghost:        7288.59 ave        7355 max        7226 min
Histogram: 3 3 8 9 11 7 3 4 3 5
Neighs:        96041.2 ave      107062 max       87413 min
Histogram: 4 5 6 9 9 6 11 4 1 1

Total # of neighbors = 5378307
Ave neighs/atom = 437.68774
Ave special neighs/atom = 2
Neighbor list builds = 2130
Dangerous builds = 0
kspace_style pppm/tip4p 1.0e-5
next nloop
jump SELF loop_start
run 100000 # 100ps
PPPM initialization ...
  extracting TIP4P info from pair style
  using 12-bit tables for long-range coulomb
  G vector (1/distance) = 0.32815664
  grid = 50 75 50
  stencil order = 5
  estimated absolute RMS force accuracy = 0.0035802102
  estimated relative force accuracy = 1.0781697e-05
  using double precision KISS FFT
  3d grid and FFT values/proc = 15776 4000
Generated 0 of 1 mixed pair_coeff terms from geometric mixing rule
Per MPI rank memory allocation (min/avg/max) = 11.21 | 11.35 | 11.45 Mbytes
   Step          Temp          TotEng         PotEng          Pxy           v_sxy         v_strain     v_viscosity  
   1200000   248.6211      -43744.687     -49814.974     -776.86876      0.078974967    30             0.0031589987 
   1201000   248.04808     -43834.29      -49890.586     -1079.3258      0.10536629     30.025         0.0042146516 
   1202000   247.25723     -43948.915     -49985.902     -1097.1462      0.10792655     30.05          0.0043170621 
   1203000   246.22037     -43767.187     -49778.858     -1150.9666      0.10796677     30.075         0.0043186706 
   1204000   250.49023     -43776.612     -49892.535     -1020.6666      0.10162841     30.1           0.0040651362 
   1205000   246.71299     -43896.055     -49919.754     -963.96883      0.094044555    30.125         0.0037617822 
   1206000   247.6467      -43777.581     -49824.077     -807.55554      0.078598759    30.15          0.0031439503 
   1207000   247.82397     -43812.623     -49863.447     -989.39127      0.098000291    30.175         0.0039200116 
   1208000   246.38536     -44043.742     -50059.441     -837.87799      0.08149189     30.2           0.0032596756 
   1209000   245.56595     -43975.704     -49971.397     -973.59439      0.097290807    30.225         0.0038916323 
   1210000   247.45441     -43866.621     -49908.423     -873.67249      0.088908637    30.25          0.0035563455 
   1211000   248.92835     -43876.219     -49954.008     -862.00083      0.085580008    30.275         0.0034232003 
   1212000   251.29453     -43833.857     -49969.418     -1004.9474      0.097415052    30.3           0.0038966021 
   1213000   250.83329     -43833.732     -49958.031     -1046.6548      0.1054985      30.325         0.0042199399 
   1214000   248.6828      -43845.672     -49917.465     -1070.0142      0.10431009     30.35          0.0041724035 
   1215000   243.43049     -44049.192     -49992.746     -879.6376       0.087038675    30.375         0.003481547  
   1216000   250.10562     -43789.507     -49896.04      -959.086        0.09624003     30.4           0.0038496012 
   1217000   248.01588     -43878.407     -49933.917     -1194.1127      0.11770027     30.425         0.0047080107 
   1218000   248.34755     -43780.437     -49844.045     -879.99278      0.083241091    30.45          0.0033296436 
   1219000   248.94013     -43885.676     -49963.752     -1304.0165      0.12662332     30.475         0.0050649329 
   1220000   249.43778     -43803.867     -49894.093     -840.62617      0.082837706    30.5           0.0033135082 
   1221000   249.79346     -43820.06      -49918.971     -925.81326      0.092339117    30.525         0.0036935647 
   1222000   250.09725     -43775.114     -49881.443     -1057.1742      0.11065178     30.55          0.0044260711 
   1223000   247.26376     -43806.889     -49844.035     -771.60579      0.076149283    30.575         0.0030459713 
   1224000   246.95832     -43705.137     -49734.826     -801.05965      0.07725539     30.6           0.0030902156 
   1225000   245.67056     -43899.932     -49898.178     -791.74608      0.079843757    30.625         0.0031937503 
   1226000   246.16044     -43860.835     -49871.043     -831.53488      0.077589758    30.65          0.0031035903 
   1227000   248.72931     -43773.363     -49846.292     -495.45196      0.046514897    30.675         0.0018605959 
   1228000   247.79768     -43658.582     -49708.764     -878.79724      0.088850672    30.7           0.0035540269 
   1229000   244.28918     -43881.229     -49845.748     -827.55261      0.081105252    30.725         0.0032442101 
   1230000   250.41357     -43674.826     -49788.877     -943.18027      0.09058438     30.75          0.0036233752 
   1231000   247.42434     -43902.241     -49943.308     -752.28531      0.073118968    30.775         0.0029247587 
   1232000   244.77979     -43962.181     -49938.679     -916.69907      0.094093423    30.8           0.0037637369 
   1233000   247.88622     -43741.891     -49794.236     -986.67342      0.093749653    30.825         0.0037499861 
   1234000   246.30325     -43784.561     -49798.256     -820.80757      0.078868903    30.85          0.0031547561 
   1235000   247.89779     -43889.342     -49941.969     -895.87948      0.086614994    30.875         0.0034645997 
   1236000   248.56512     -43913         -49981.92      -798.11096      0.080937307    30.9           0.0032374923 
   1237000   248.45194     -43872.186     -49938.342     -885.53878      0.087741552    30.925         0.0035096621 
   1238000   247.98929     -43774.333     -49829.194     -648.5591       0.063169498    30.95          0.0025267799 
   1239000   246.12019     -43730.425     -49739.65      -813.96717      0.082632711    30.975         0.0033053084 
   1240000   251.39121     -43745.187     -49883.108     -700.80948      0.064966823    31             0.0025986729 
   1241000   247.14975     -43727.335     -49761.698     -869.18044      0.083031358    31.025         0.0033212543 
   1242000   246.10647     -43819.841     -49828.731     -479.71059      0.04395707     31.05          0.0017582828 
   1243000   248.41577     -43824.169     -49889.443     -861.39972      0.081644232    31.075         0.0032657693 
   1244000   247.19177     -43823.268     -49858.657     -409.45976      0.037555191    31.1           0.0015022076 
   1245000   248.0873      -43862.486     -49919.74      -417.88023      0.038650454    31.125         0.0015460182 
   1246000   249.41973     -43794.689     -49884.475     -978.38889      0.10017672     31.15          0.0040070686 
   1247000   248.38076     -43835.77      -49900.188     -834.43641      0.082799548    31.175         0.0033119819 
   1248000   249.49881     -43769.213     -49860.93      -711.00122      0.073049083    31.2           0.0029219633 
   1249000   246.88716     -43770.063     -49798.014     -1085.0297      0.10831166     31.225         0.0043324664 
   1250000   248.34953     -43776.621     -49840.277     -832.24987      0.081341826    31.25          0.003253673  
   1251000   249.26626     -43775.526     -49861.565     -886.39589      0.08590524     31.275         0.0034362096 
   1252000   248.092       -43750.544     -49807.912     -829.16436      0.085845943    31.3           0.0034338377 
   1253000   250.1923      -43716.143     -49824.792     -590.50584      0.059469714    31.325         0.0023787886 
   1254000   247.05966     -43782.908     -49815.071     -679.74413      0.065746386    31.35          0.0026298554 
   1255000   246.48282     -43740.031     -49758.11      -958.1994       0.094456487    31.375         0.0037782595 
   1256000   249.67399     -43688.921     -49784.915     -814.04001      0.083302544    31.4           0.0033321018 
   1257000   242.76432     -43957.492     -49884.781     -672.28177      0.068898835    31.425         0.0027559534 
   1258000   249.80544     -43723.196     -49822.399     -852.6026       0.086671113    31.45          0.0034668445 
   1259000   248.85461     -43783.073     -49859.061     -697.43282      0.067946657    31.475         0.0027178663 
   1260000   248.98524     -43700.356     -49779.534     -1126.7306      0.11194392     31.5           0.0044777566 
   1261000   247.09886     -43806.953     -49840.073     -1171.3996      0.11579061     31.525         0.0046316243 
   1262000   246.28649     -43805.845     -49819.131     -918.86745      0.090765763    31.55          0.0036306305 
   1263000   245.23049     -43879.681     -49867.183     -864.69945      0.083224975    31.575         0.003328999  
   1264000   243.92677     -43882.678     -49838.349     -641.34199      0.060351205    31.6           0.0024140482 
   1265000   241.01504     -44068.366     -49952.945     -620.16838      0.05854994     31.625         0.0023419976 
   1266000   248.35025     -43843.015     -49906.689     -808.76034      0.07768926     31.65          0.0031075704 
   1267000   245.79342     -43938.547     -49939.794     -977.39719      0.096648016    31.675         0.0038659206 
   1268000   248.63079     -43882.732     -49953.256     -991.12841      0.10033561     31.7           0.0040134245 
   1269000   247.26204     -43835.932     -49873.036     -821.17941      0.082462585    31.725         0.0032985034 
   1270000   253.38288     -43663.119     -49849.669     -835.94128      0.08400907     31.75          0.0033603628 
   1271000   246.91271     -43794.501     -49823.076     -769.3004       0.07322125     31.775         0.00292885   
   1272000   254.38371     -43601.517     -49812.502     -854.01         0.084111085    31.8           0.0033644434 
   1273000   245.16974     -43997.45      -49983.47      -947.60657      0.094417091    31.825         0.0037766836 
   1274000   248.19219     -43829.881     -49889.695     -787.32203      0.076541906    31.85          0.0030616762 
   1275000   248.05354     -43887.524     -49943.953     -582.64894      0.055136548    31.875         0.0022054619 
   1276000   245.10147     -43914.849     -49899.202     -808.73063      0.079110544    31.9           0.0031644218 
   1277000   248.43664     -43870.038     -49935.821     -989.10102      0.097897871    31.925         0.0039159148 
   1278000   246.6099      -43924.044     -49945.226     -1106.4046      0.11039444     31.95          0.0044157778 
   1279000   249.7937      -43773.867     -49872.784     -861.63424      0.082208707    31.975         0.0032883483 
   1280000   247.74791     -43798.823     -49847.79      -753.21453      0.071431968    32             0.0028572787 
   1281000   246.09499     -43932.732     -49941.342     -527.56055      0.055163807    32.025         0.0022065523 
   1282000   246.62958     -43870.402     -49892.065     -1043.0585      0.099683894    32.05          0.0039873558 
   1283000   247.33579     -43786.497     -49825.402     -902.773        0.088724841    32.075         0.0035489936 
   1284000   247.40047     -43862.222     -49902.706     -874.73488      0.085534284    32.1           0.0034213714 
   1285000   247.6276      -43824.724     -49870.753     -928.34378      0.089742909    32.125         0.0035897163 
   1286000   253.51168     -43566.47      -49756.164     -583.52526      0.058545686    32.15          0.0023418274 
   1287000   245.14515     -43854.383     -49839.802     -448.32313      0.042183019    32.175         0.0016873208 
   1288000   248.64312     -43712.107     -49782.932     -748.59899      0.072262403    32.2           0.0028904961 
   1289000   246.88201     -43732.777     -49760.602     -502.5893       0.048409865    32.225         0.0019363946 
   1290000   249.02502     -43829.824     -49909.973     -661.87462      0.061930368    32.25          0.0024772147 
   1291000   244.53281     -43810.793     -49781.261     -765.09411      0.076978069    32.275         0.0030791228 
   1292000   247.93428     -43587.654     -49641.172     -917.22962      0.088841629    32.3           0.0035536652 
   1293000   250.18619     -43687.797     -49796.297     -854.79618      0.081115871    32.325         0.0032446348 
   1294000   247.02601     -43989.274     -50020.615     -822.26602      0.07884879     32.35          0.0031539516 
   1295000   253.68487     -43548.421     -49742.344     -939.80076      0.090619658    32.375         0.0036247863 
   1296000   241.5043      -44008.709     -49905.233     -359.77236      0.03680558     32.4           0.0014722232 
   1297000   245.48139     -43884.354     -49877.983     -815.9659       0.081508174    32.425         0.003260327  
   1298000   248.1272      -43839.311     -49897.539     -681.55643      0.064136357    32.45          0.0025654543 
   1299000   245.99837     -43893.188     -49899.439     -710.44168      0.069043903    32.475         0.0027617561 
   1300000   248.72411     -43843.967     -49916.769     -727.08492      0.070074822    32.5           0.0028029929 
Loop time of 492.746 on 56 procs for 100000 steps with 12288 atoms

Performance: 17.534 ns/day, 1.369 hours/ns, 202.944 timesteps/s, 2.494 Matom-step/s
99.8% CPU use with 56 MPI tasks x no OpenMP threads

MPI task timing breakdown:
Section |  min time  |  avg time  |  max time  |%varavg| %total
---------------------------------------------------------------
Pair    | 188        | 196.38     | 208.33     |  30.5 | 39.85
Bond    | 0.020845   | 0.028254   | 0.040017   |   2.6 |  0.01
Kspace  | 146.94     | 159.07     | 167.28     |  34.0 | 32.28
Neigh   | 24.478     | 24.487     | 24.497     |   0.1 |  4.97
Comm    | 15.638     | 17.671     | 19.654     |  21.8 |  3.59
Output  | 0.22495    | 0.39682    | 0.56141    |  15.8 |  0.08
Modify  | 73.572     | 79.638     | 92.114     |  52.2 | 16.16
Other   |            | 15.08      |            |       |  3.06

Nlocal:        219.429 ave         238 max         200 min
Histogram: 2 4 4 5 7 11 11 8 3 1
Nghost:        6854.23 ave        6927 max        6798 min
Histogram: 2 2 13 11 7 12 1 3 4 1
Neighs:        96059.4 ave      106190 max       86675 min
Histogram: 2 5 5 5 10 11 10 6 1 1

Total # of neighbors = 5379324
Ave neighs/atom = 437.77051
Ave special neighs/atom = 2
Neighbor list builds = 2093
Dangerous builds = 0
kspace_style pppm/tip4p 1.0e-5
next nloop
jump SELF loop_start
run 100000 # 100ps
PPPM initialization ...
  extracting TIP4P info from pair style
  using 12-bit tables for long-range coulomb
  G vector (1/distance) = 0.32815664
  grid = 50 50 50
  stencil order = 5
  estimated absolute RMS force accuracy = 0.0035802102
  estimated relative force accuracy = 1.0781697e-05
  using double precision KISS FFT
  3d grid and FFT values/proc = 11424 2800
Generated 0 of 1 mixed pair_coeff terms from geometric mixing rule
Per MPI rank memory allocation (min/avg/max) = 10.92 | 11.04 | 11.12 Mbytes
   Step          Temp          TotEng         PotEng          Pxy           v_sxy         v_strain     v_viscosity  
   1300000   248.7264      -43844.21      -49917.068     -675.64709      0.064806814    32.5           0.0025922726 
   1301000   248.69246     -43794.386     -49866.415     -860.29893      0.084114287    32.525         0.0033645715 
   1302000   246.91093     -43934.076     -49962.607     -948.04865      0.096364321    32.55          0.0038545728 
   1303000   251.22575     -43657.86      -49791.742     -353.86452      0.035200671    32.575         0.0014080268 
   1304000   247.43273     -43821.32      -49862.592     -546.19061      0.055217648    32.6           0.0022087059 
   1305000   249.07751     -43844.135     -49925.565     -704.62528      0.070989213    32.625         0.0028395685 
   1306000   248.04949     -43837.054     -49893.384     -964.6342       0.095450789    32.65          0.0038180316 
   1307000   249.74348     -43710.815     -49808.505     -690.51477      0.066260666    32.675         0.0026504266 
   1308000   245.97287     -43853.45      -49859.078     -803.13832      0.075615213    32.7           0.0030246085 
   1309000   249.98066     -43838.481     -49941.962     -954.63342      0.09301207     32.725         0.0037204828 
   1310000   244.02208     -44019.461     -49977.459     -678.23415      0.064672592    32.75          0.0025869037 
   1311000   248.33294     -43980.455     -50043.706     -768.64542      0.078926551    32.775         0.003157062  
   1312000   247.05936     -43911.862     -49944.018     -1050.6092      0.097988217    32.8           0.0039195287 
   1313000   250.20374     -43961.12      -50070.049     -927.68373      0.089626047    32.825         0.0035850419 
   1314000   249.57526     -43780.678     -49874.261     -657.21881      0.064184777    32.85          0.0025673911 
   1315000   245.50711     -43935.644     -49929.9       -1078.3355      0.1061171      32.875         0.0042446838 
   1316000   246.5174      -43880.143     -49899.066     -1040.4414      0.098831179    32.9           0.0039532472 
   1317000   246.50554     -43836.644     -49855.278     -819.01896      0.082927838    32.925         0.0033171135 
   1318000   247.2232      -43713.725     -49749.881     -703.30431      0.070456295    32.95          0.0028182518 
   1319000   248.11091     -43791.781     -49849.611     -576.93526      0.057107509    32.975         0.0022843004 
   1320000   246.76012     -43912.003     -49936.852     -780.183        0.075433286    33             0.0030173314 
   1321000   249.87126     -43713.745     -49814.555     -1043.5952      0.10349198     33.025         0.004139679  
   1322000   245.28466     -43818.217     -49807.042     -698.45629      0.07041001     33.05          0.0028164004 
   1323000   248.66553     -43663.904     -49735.275     -639.83891      0.06324482     33.075         0.0025297928 
   1324000   245.58949     -43953.207     -49949.475     -1022.9702      0.10222889     33.1           0.0040891556 
   1325000   245.65906     -43771.617     -49769.583     -672.18154      0.064194031    33.125         0.0025677613 
   1326000   248.47336     -43828.807     -49895.486     -1105.6554      0.10668819     33.15          0.0042675277 
   1327000   248.48416     -43876.736     -49943.679     -415.53855      0.043876082    33.175         0.0017550433 
   1328000   246.51257     -43833.444     -49852.249     -637.94363      0.062004022    33.2           0.0024801609 
   1329000   246.84549     -43813.461     -49840.395     -772.73385      0.073854161    33.225         0.0029541664 
   1330000   245.41346     -43871.14      -49863.11      -879.96718      0.089776593    33.25          0.0035910637 
   1331000   247.72049     -43967.145     -50015.442     -604.15293      0.059989362    33.275         0.0023995745 
   1332000   243.3623      -43900.404     -49842.293     -560.61822      0.057640435    33.3           0.0023056174 
   1333000   244.16346     -43862.694     -49824.144     -1079.1898      0.10639732     33.325         0.0042558927 
   1334000   248.66622     -43652.21      -49723.598     -749.88353      0.074355329    33.35          0.0029742132 
   1335000   248.71989     -43739.446     -49812.145     -1047.4241      0.10283326     33.375         0.0041133304 
   1336000   245.23713     -43772.965     -49760.629     -859.19952      0.085362073    33.4           0.0034144829 
   1337000   251.24855     -43686.647     -49821.085     -1104.2253      0.10514158     33.425         0.0042056632 
   1338000   250.7943      -43780.378     -49903.725     -820.15698      0.08154623     33.45          0.0032618492 
   1339000   247.77144     -43799.372     -49848.914     -898.65606      0.085338728    33.475         0.0034135491 
   1340000   253.22404     -43669.896     -49852.567     -916.39001      0.091475832    33.5           0.0036590333 
   1341000   248.22578     -43665.428     -49726.062     -798.81632      0.079868826    33.525         0.0031947531 
   1342000   244.53568     -43744.112     -49714.65      -491.38867      0.050747226    33.55          0.002029889  
   1343000   250.40655     -43677.748     -49791.628     -1027.4518      0.10087777     33.575         0.004035111  
   1344000   252.93321     -43683.777     -49859.348     -993.46611      0.096693042    33.6           0.0038677217 
   1345000   246.56608     -43635.939     -49656.051     -597.04574      0.063276131    33.625         0.0025310452 
   1346000   244.24365     -43890.27      -49853.678     -597.858        0.057024279    33.65          0.0022809711 
   1347000   248.42178     -43715.183     -49780.603     -716.41169      0.072426361    33.675         0.0028970545 
   1348000   248.41042     -43846.79      -49911.933     -863.274        0.082600669    33.7           0.0033040267 
   1349000   245.33968     -43874.738     -49864.906     -882.57496      0.089278498    33.725         0.0035711399 
   1350000   249.94115     -43690.838     -49793.355     -810.86144      0.08135142     33.75          0.0032540568 
   1351000   246.80354     -43790.353     -49816.262     -606.0317       0.061243862    33.775         0.0024497545 
   1352000   246.41778     -43942.033     -49958.524     -1040.9475      0.10219032     33.8           0.0040876126 
   1353000   249.9577      -43894.972     -49997.893     -1131.0042      0.11477895     33.825         0.0045911579 
   1354000   245.43759     -44015.826     -50008.385     -937.44704      0.09595068     33.85          0.0038380272 
   1355000   245.77052     -43800.143     -49800.831     -816.33276      0.079042728    33.875         0.0031617091 
   1356000   247.01009     -43839.598     -49870.551     -860.178        0.084092287    33.9           0.0033636915 
   1357000   246.36982     -43894.606     -49909.926     -763.83845      0.07533105     33.925         0.003013242  
   1358000   247.70539     -43760.275     -49808.204     -623.51629      0.057151357    33.95          0.0022860543 
   1359000   247.90129     -43875.075     -49927.787     -897.89244      0.087613403    33.975         0.0035045361 
   1360000   247.91349     -43864.504     -49917.514     -764.71936      0.073347018    34             0.0029338807 
   1361000   242.40946     -43952.645     -49871.27      -818.61317      0.081031393    34.025         0.0032412557 
   1362000   250.88246     -43666.33      -49791.83      -888.39824      0.087155811    34.05          0.0034862324 
   1363000   245.49152     -43886.481     -49880.357     -1055.8022      0.10305909     34.075         0.0041223634 
   1364000   244.93021     -43832.532     -49812.703     -1022.598       0.10119262     34.1           0.0040477046 
   1365000   248.37331     -43863.637     -49927.874     -1178.0066      0.11690954     34.125         0.0046763815 
   1366000   249.38191     -43783.76      -49872.623     -952.27952      0.096968767    34.15          0.0038787507 
   1367000   246.44395     -43737.869     -49754.999     -1125.5892      0.10929287     34.175         0.0043717149 
   1368000   247.45873     -43853.014     -49894.921     -889.98801      0.090130312    34.2           0.0036052125 
   1369000   246.20745     -43897.484     -49908.84      -849.65832      0.08180937     34.225         0.0032723748 
   1370000   252.04395     -43607.417     -49761.276     -1068.0105      0.10112244     34.25          0.0040448977 
   1371000   245.57287     -43984.593     -49980.455     -896.26745      0.087647645    34.275         0.0035059058 
   1372000   251.59322     -43790.296     -49933.15      -757.43432      0.070955506    34.3           0.0028382203 
   1373000   244.544       -43981.25      -49951.991     -1118.5164      0.11333789     34.325         0.0045335155 
   1374000   248.30502     -43679.256     -49741.825     -1042.2427      0.10071642     34.35          0.0040286568 
   1375000   249.84681     -43836.608     -49936.821     -711.85174      0.06812326     34.375         0.0027249304 
   1376000   248.43462     -43959.087     -50024.82      -709.59281      0.070840973    34.4           0.0028336389 
   1377000   248.35613     -43831.028     -49894.845     -745.42931      0.070765001    34.425         0.0028306    
   1378000   247.38981     -43897.763     -49937.987     -675.09124      0.067977315    34.45          0.0027190926 
   1379000   245.78513     -43871.65      -49872.694     -515.73859      0.052588457    34.475         0.0021035383 
   1380000   246.27189     -43782.227     -49795.156     -660.7005       0.063912619    34.5           0.0025565047 
   1381000   247.78298     -43925.398     -49975.221     -361.38214      0.034679469    34.525         0.0013871788 
   1382000   245.50915     -43834.992     -49829.298     -890.13033      0.087818474    34.55          0.003512739  
   1383000   248.99446     -43879.989     -49959.392     -776.01366      0.076804524    34.575         0.003072181  
   1384000   245.88064     -43971.566     -49974.942     -709.30643      0.069542933    34.6           0.0027817173 
   1385000   248.05069     -43863.009     -49919.368     -778.40378      0.077696982    34.625         0.0031078793 
   1386000   248.73897     -43832.299     -49905.463     -1166.259       0.11606019     34.65          0.0046424077 
   1387000   245.48108     -43845.97      -49839.591     -773.6543       0.078248767    34.675         0.0031299507 
   1388000   248.06151     -43868.413     -49925.037     -889.34116      0.086350952    34.7           0.0034540381 
   1389000   250.36357     -43589.663     -49702.494     -987.64416      0.096981539    34.725         0.0038792615 
   1390000   247.26062     -43853.596     -49890.666     -867.6773       0.089818121    34.75          0.0035927248 
   1391000   246.48503     -43712.278     -49730.411     -655.02155      0.062013259    34.775         0.0024805304 
   1392000   246.04557     -43883.249     -49890.652     -812.68395      0.075867091    34.8           0.0030346836 
   1393000   248.36115     -43772.41      -49836.35      -761.75369      0.07667325     34.825         0.00306693   
   1394000   254.71075     -43597.678     -49816.648     -753.64364      0.074912759    34.85          0.0029965103 
   1395000   244.53043     -43966.307     -49936.716     -903.67747      0.08411952     34.875         0.0033647808 
   1396000   247.8861      -43743.04      -49795.382     -956.95294      0.092091914    34.9           0.0036836766 
   1397000   245.39004     -43895.518     -49886.916     -756.59536      0.07520798     34.925         0.0030083192 
   1398000   248.03033     -43817.203     -49873.066     -928.1108       0.090383427    34.95          0.0036153371 
   1399000   245.76501     -43937.714     -49938.267     -804.15198      0.081823369    34.975         0.0032729348 
   1400000   250.6161      -43742.556     -49861.553     -710.52767      0.069108261    35             0.0027643305 
Loop time of 421.034 on 56 procs for 100000 steps with 12288 atoms

Performance: 20.521 ns/day, 1.170 hours/ns, 237.510 timesteps/s, 2.919 Matom-step/s
99.8% CPU use with 56 MPI tasks x no OpenMP threads

MPI task timing breakdown:
Section |  min time  |  avg time  |  max time  |%varavg| %total
---------------------------------------------------------------
Pair    | 185.05     | 193.54     | 204.8      |  27.9 | 45.97
Bond    | 0.018353   | 0.024026   | 0.034256   |   2.5 |  0.01
Kspace  | 106.38     | 117.63     | 126.83     |  36.7 | 27.94
Neigh   | 24.849     | 24.856     | 24.866     |   0.1 |  5.90
Comm    | 14.836     | 15.868     | 17.416     |  16.0 |  3.77
Output  | 0.22407    | 0.3968     | 0.56262    |  15.9 |  0.09
Modify  | 52.068     | 56.251     | 66.289     |  45.3 | 13.36
Other   |            | 12.47      |            |       |  2.96

Nlocal:        219.429 ave         242 max         202 min
Histogram: 4 1 10 9 12 4 8 5 1 2
Nghost:         7275.7 ave        7335 max        7185 min
Histogram: 1 0 4 4 6 11 12 11 2 5
Neighs:        96061.4 ave      105158 max       87451 min
Histogram: 4 1 8 8 10 7 7 6 2 3

Total # of neighbors = 5379436
Ave neighs/atom = 437.77962
Ave special neighs/atom = 2
Neighbor list builds = 2121
Dangerous builds = 0
kspace_style pppm/tip4p 1.0e-5
next nloop
jump SELF loop_start
run 100000 # 100ps
PPPM initialization ...
  extracting TIP4P info from pair style
  using 12-bit tables for long-range coulomb
  G vector (1/distance) = 0.32815664
  grid = 50 75 50
  stencil order = 5
  estimated absolute RMS force accuracy = 0.0035802102
  estimated relative force accuracy = 1.0781697e-05
  using double precision KISS FFT
  3d grid and FFT values/proc = 15776 4000
Generated 0 of 1 mixed pair_coeff terms from geometric mixing rule
Per MPI rank memory allocation (min/avg/max) = 11.21 | 11.35 | 11.45 Mbytes
   Step          Temp          TotEng         PotEng          Pxy           v_sxy         v_strain     v_viscosity  
   1400000   250.62774     -43742.093     -49861.373     -663.94018      0.0643102      35             0.002572408  
   1401000   245.47688     -43891.09      -49884.608     -648.69174      0.063328751    35.025         0.00253315   
   1402000   247.77254     -43671.019     -49720.587     -753.58656      0.075702735    35.05          0.0030281094 
   1403000   248.38919     -43840.828     -49905.453     -896.21186      0.086598247    35.075         0.0034639299 
   1404000   248.11956     -43786.492     -49844.533     -732.64666      0.070674666    35.1           0.0028269866 
   1405000   246.04235     -43945.404     -49952.728     -780.74008      0.079190637    35.125         0.0031676255 
   1406000   248.28637     -43755.111     -49817.225     -741.434        0.0724234      35.15          0.002896936  
   1407000   250.70622     -43719.233     -49840.43      -726.16571      0.070481252    35.175         0.0028192501 
   1408000   247.50445     -43781.994     -49825.016     -660.29056      0.063815971    35.2           0.0025526389 
   1409000   248.87507     -43612.417     -49688.904     -1153.9013      0.11217447     35.225         0.0044869786 
   1410000   247.87866     -43767.231     -49819.391     -751.20403      0.074377032    35.25          0.0029750813 
   1411000   250.11998     -43710.71      -49817.593     -719.508        0.069003731    35.275         0.0027601492 
   1412000   249.16366     -43842.893     -49926.427     -1090.018       0.10690906     35.3           0.0042763625 
   1413000   242.01776     -43979.653     -49888.714     -638.19355      0.061833459    35.325         0.0024733383 
   1414000   246.84589     -43813.581     -49840.524     -567.59687      0.056839785    35.35          0.0022735914 
   1415000   249.94437     -43712.849     -49815.445     -895.80903      0.087806346    35.375         0.0035122538 
   1416000   246.2361      -43892.67      -49904.725     -861.40018      0.087690717    35.4           0.0035076287 
   1417000   245.91064     -43933.883     -49937.992     -681.78472      0.070201824    35.425         0.0028080729 
   1418000   244.4568      -43835.592     -49804.204     -678.0688       0.061727542    35.45          0.0024691017 
   1419000   250.30385     -43823.55      -49934.922     -669.55381      0.066547763    35.475         0.0026619105 
   1420000   248.65862     -43753.782     -49824.984     -893.94691      0.088424377    35.5           0.0035369751 
   1421000   251.00778     -43751.87      -49880.43      -379.03564      0.036793307    35.525         0.0014717323 
   1422000   243.4823      -43979.914     -49924.733     -807.09919      0.076618696    35.55          0.0030647479 
   1423000   249.40997     -43812.199     -49901.746     -836.01766      0.077285434    35.575         0.0030914174 
   1424000   245.66309     -43805.987     -49804.052     -920.71727      0.088763699    35.6           0.003550548  
   1425000   249.92385     -43859.061     -49961.155     -1164.3265      0.11320505     35.625         0.004528202  
   1426000   246.42662     -43983.362     -50000.069     -1113.5441      0.11142613     35.65          0.0044570454 
   1427000   249.70258     -43825.571     -49922.263     -803.27589      0.077541414    35.675         0.0031016566 
   1428000   244.98286     -43946.166     -49927.622     -765.08099      0.072176394    35.7           0.0028870557 
   1429000   246.3295      -43854.718     -49869.054     -995.21284      0.098410551    35.725         0.0039364221 
   1430000   247.94074     -43806.977     -49860.652     -1384.076       0.13558261     35.75          0.0054233042 
   1431000   247.72731     -43853.274     -49901.738     -1029.8005      0.10242257     35.775         0.0040969027 
   1432000   245.75282     -43882.967     -49883.223     -572.65764      0.060596557    35.8           0.0024238623 
   1433000   248.33935     -43744.415     -49807.822     -617.93858      0.060434023    35.825         0.0024173609 
   1434000   246.21235     -43807.006     -49818.482     -912.77996      0.086908047    35.85          0.0034763219 
   1435000   247.48625     -43711.442     -49754.02      -1039.8897      0.10417594     35.875         0.0041670375 
   1436000   246.58911     -43813.03      -49833.704     -593.76248      0.058840209    35.9           0.0023536084 
   1437000   245.82096     -43984.343     -49986.262     -733.65367      0.071769559    35.925         0.0028707824 
   1438000   248.89866     -43808.062     -49885.125     -847.11885      0.082612108    35.95          0.0033044843 
   1439000   247.81669     -43793.123     -49843.77      -843.19598      0.084870065    35.975         0.0033948026 
   1440000   246.13895     -43834.85      -49844.533     -865.82161      0.083675734    36             0.0033470293 
   1441000   244.92656     -43876.614     -49856.696     -1071.0544      0.10612704     36.025         0.0042450814 
   1442000   250.34606     -43691.022     -49803.425     -618.23799      0.066576287    36.05          0.0026630515 
   1443000   248.107       -43765.034     -49822.768     -486.56326      0.04994929     36.075         0.0019979716 
   1444000   248.71805     -43829.314     -49901.967     -802.70142      0.080516574    36.1           0.0032206629 
   1445000   248.413       -43732.588     -49797.794     -345.57288      0.031765142    36.125         0.0012706057 
   1446000   243.88992     -43951.44      -49906.211     -430.43097      0.041735478    36.15          0.0016694191 
   1447000   248.40598     -43919.018     -49984.053     -669.48835      0.062451984    36.175         0.0024980794 
   1448000   250.36161     -43775.888     -49888.671     -703.44173      0.069409105    36.2           0.0027763642 
   1449000   246.02544     -43870.333     -49877.245     -803.51052      0.076136388    36.225         0.0030454555 
   1450000   251.64213     -43625.566     -49769.614     -730.92637      0.07014127     36.25          0.0028056508 
   1451000   244.77225     -43930.971     -49907.285     -698.12524      0.068339104    36.275         0.0027335641 
   1452000   246.25787     -43832.841     -49845.428     -738.22266      0.071295977    36.3           0.0028518391 
   1453000   248.53677     -43794.965     -49863.193     -878.97016      0.086249752    36.325         0.0034499901 
   1454000   246.85973     -43804.485     -49831.766     -817.238        0.077475662    36.35          0.0030990265 
   1455000   249.51139     -43934.978     -50027.002     -950.20118      0.091014284    36.375         0.0036405714 
   1456000   249.41956     -43728.93      -49818.712     -1100.4055      0.11289393     36.4           0.004515757  
   1457000   242.3504      -44078.278     -49995.461     -857.30037      0.08498482     36.425         0.0033993928 
   1458000   245.63475     -43923.88      -49921.253     -1050.2847      0.10285671     36.45          0.0041142685 
   1459000   248.30152     -43753.184     -49815.668     -747.9722       0.071992019    36.475         0.0028796808 
   1460000   248.58121     -43762.668     -49831.981     -979.49755      0.093103986    36.5           0.0037241594 
   1461000   248.05965     -43872.664     -49929.243     -674.74547      0.065215948    36.525         0.0026086379 
   1462000   245.50952     -43962.096     -49956.411     -516.08538      0.050931309    36.55          0.0020372523 
   1463000   250.16283     -43809.472     -49917.401     -613.07211      0.06383653     36.575         0.0025534612 
   1464000   246.7193      -43913.837     -49937.69      -1016.1089      0.098964626    36.6           0.003958585  
   1465000   249.89234     -43826.933     -49928.258     -685.26786      0.06382719     36.625         0.0025530876 
   1466000   248.01729     -43828.152     -49883.697     -1067.8943      0.1026522      36.65          0.0041060881 
   1467000   249.5401      -43758.281     -49851.006     -826.13259      0.081428682    36.675         0.0032571473 
   1468000   247.33703     -43929.197     -49968.132     -615.48803      0.057023955    36.7           0.0022809582 
   1469000   249.52453     -43796.167     -49888.512     -817.00627      0.081132166    36.725         0.0032452866 
   1470000   249.67945     -43571.937     -49668.065     -887.36465      0.089277064    36.75          0.0035710826 
   1471000   245.47056     -43859.777     -49853.141     -786.94871      0.077406586    36.775         0.0030962635 
   1472000   246.41929     -43832.293     -49848.821     -883.12012      0.084181233    36.8           0.0033672493 
   1473000   248.64115     -43738.395     -49809.172     -660.96513      0.065595783    36.825         0.0026238313 
   1474000   247.67271     -43785.694     -49832.825     -885.18331      0.084279407    36.85          0.0033711763 
   1475000   245.36011     -43883.945     -49874.612     -903.04107      0.087310001    36.875         0.0034924    
   1476000   247.25251     -43855.908     -49892.779     -778.46946      0.078642903    36.9           0.0031457161 
   1477000   246.64289     -44025.682     -50047.669     -872.99479      0.086214754    36.925         0.0034485901 
   1478000   251.13876     -43727.506     -49859.263     -763.73064      0.073515486    36.95          0.0029406194 
   1479000   248.57229     -43769.679     -49838.774     -882.27931      0.093771924    36.975         0.0037508769 
   1480000   251.4101      -43683.597     -49821.979     -805.44036      0.076808493    37             0.0030723397 
   1481000   248.9205      -43827.964     -49905.561     -717.84636      0.073552906    37.025         0.0029421162 
   1482000   246.66365     -43774.211     -49796.705     -775.87275      0.073485311    37.05          0.0029394124 
   1483000   247.61269     -43849.629     -49895.294     -668.59655      0.066548753    37.075         0.0026619501 
   1484000   247.80008     -43911.708     -49961.948     -1029.3402      0.10175752     37.1           0.0040703008 
   1485000   245.94619     -44066.952     -50071.928     -538.18671      0.049539283    37.125         0.0019815713 
   1486000   248.28835     -43920.205     -49982.368     -545.24827      0.051575361    37.15          0.0020630145 
   1487000   245.94239     -43741.615     -49746.499     -880.46316      0.08504756     37.175         0.0034019024 
   1488000   246.58108     -43900.702     -49921.18      -739.63427      0.071385123    37.2           0.0028554049 
   1489000   248.34109     -43749.952     -49813.402     -913.57332      0.093219028    37.225         0.0037287611 
   1490000   245.85713     -43885.862     -49888.665     -1263.343       0.12922489     37.25          0.0051689956 
   1491000   246.12977     -43924.489     -49933.948     -751.01195      0.073785076    37.275         0.002951403  
   1492000   248.96293     -43730.128     -49808.761     -740.23899      0.070177545    37.3           0.0028071018 
   1493000   243.60421     -44007.111     -49954.906     -781.65858      0.077381708    37.325         0.0030952683 
   1494000   248.33716     -43672.441     -49735.795     -664.77987      0.063596268    37.35          0.0025438507 
   1495000   243.06971     -43926.494     -49861.238     -823.8072       0.081450488    37.375         0.0032580195 
   1496000   244.12674     -43859.223     -49819.776     -940.8619       0.091662004    37.4           0.0036664802 
   1497000   251.34584     -43728.805     -49865.618     -642.45012      0.066724826    37.425         0.002668993  
   1498000   243.8791      -43887.857     -49842.364     -668.16362      0.068293514    37.45          0.0027317406 
   1499000   249.80808     -43737.164     -49836.432     -804.62059      0.078860521    37.475         0.0031544208 
   1500000   244.01601     -43988.963     -49946.813     -709.87406      0.069742652    37.5           0.0027897061 
Loop time of 489.956 on 56 procs for 100000 steps with 12288 atoms

Performance: 17.634 ns/day, 1.361 hours/ns, 204.100 timesteps/s, 2.508 Matom-step/s
99.8% CPU use with 56 MPI tasks x no OpenMP threads

MPI task timing breakdown:
Section |  min time  |  avg time  |  max time  |%varavg| %total
---------------------------------------------------------------
Pair    | 189.22     | 195.55     | 206.23     |  26.4 | 39.91
Bond    | 0.017699   | 0.027216   | 0.038991   |   2.5 |  0.01
Kspace  | 148.13     | 157.17     | 163.12     |  29.5 | 32.08
Neigh   | 24.644     | 24.654     | 24.664     |   0.1 |  5.03
Comm    | 15.8       | 17.644     | 19.758     |  21.7 |  3.60
Output  | 0.22443    | 0.39574    | 0.55987    |  15.8 |  0.08
Modify  | 73.811     | 79.651     | 92.106     |  51.9 | 16.26
Other   |            | 14.87      |            |       |  3.03

Nlocal:        219.429 ave         242 max         204 min
Histogram: 3 2 13 12 9 10 4 0 2 1
Nghost:        6848.82 ave        6904 max        6785 min
Histogram: 1 3 4 13 9 3 5 8 5 5
Neighs:        96034.1 ave      106599 max       89002 min
Histogram: 4 2 11 12 12 7 5 0 2 1

Total # of neighbors = 5377907
Ave neighs/atom = 437.65519
Ave special neighs/atom = 2
Neighbor list builds = 2110
Dangerous builds = 0
kspace_style pppm/tip4p 1.0e-5
next nloop
jump SELF loop_start
run 100000 # 100ps
PPPM initialization ...
  extracting TIP4P info from pair style
  using 12-bit tables for long-range coulomb
  G vector (1/distance) = 0.32815664
  grid = 50 50 50
  stencil order = 5
  estimated absolute RMS force accuracy = 0.0035802102
  estimated relative force accuracy = 1.0781697e-05
  using double precision KISS FFT
  3d grid and FFT values/proc = 11424 2800
Generated 0 of 1 mixed pair_coeff terms from geometric mixing rule
Per MPI rank memory allocation (min/avg/max) = 10.92 | 11.04 | 11.12 Mbytes
   Step          Temp          TotEng         PotEng          Pxy           v_sxy         v_strain     v_viscosity  
   1500000   244.02084     -43989.081     -49947.049     -658.25335      0.064486655    37.5           0.0025794662 
   1501000   248.01852     -43798.466     -49854.041     -600.94012      0.058075763    37.525         0.0023230305 
   1502000   245.90557     -43905.857     -49909.842     -628.36841      0.060814974    37.55          0.002432599  
   1503000   249.63524     -43771.628     -49866.676     -719.68044      0.068091876    37.575         0.002723675  
   1504000   247.36968     -43827.954     -49867.687     -835.05948      0.083184277    37.6           0.0033273711 
   1505000   246.99941     -43660.664     -49691.356     -720.67941      0.069896509    37.625         0.0027958604 
   1506000   247.2535      -43902.524     -49939.42      -844.11035      0.084710999    37.65          0.00338844   
   1507000   249.10026     -43749.059     -49831.044     -723.74444      0.070823023    37.675         0.0028329209 
   1508000   246.82017     -43741.057     -49767.373     -917.88326      0.088998964    37.7           0.0035599586 
   1509000   249.93256     -43764.192     -49866.499     -873.12481      0.083585384    37.725         0.0033434154 
   1510000   243.69475     -43889.752     -49839.758     -677.85836      0.06838404     37.75          0.0027353616 
   1511000   250.23227     -43702.277     -49811.902     -982.72943      0.098515822    37.775         0.0039406329 
   1512000   247.67906     -43841.84      -49889.127     -940.73283      0.093154184    37.8           0.0037261674 
   1513000   252.00336     -43699.117     -49851.984     -1092.8151      0.10832899     37.825         0.0043331598 
   1514000   250.21876     -43798.956     -49908.251     -1013.7727      0.096970318    37.85          0.0038788127 
   1515000   248.89683     -43523.507     -49600.526     -867.56394      0.083784893    37.875         0.0033513957 
   1516000   244.71518     -43765.791     -49740.711     -1058.3556      0.10857426     37.9           0.0043429702 
   1517000   251.43726     -43650.275     -49789.321     -727.19784      0.072613449    37.925         0.002904538  
   1518000   246.65145     -43967.867     -49990.064     -808.43325      0.081029918    37.95          0.0032411967 
   1519000   248.12044     -43622.078     -49680.14      -795.13865      0.076709832    37.975         0.0030683933 
   1520000   245.21326     -43837.551     -49824.633     -790.07982      0.079818194    38             0.0031927278 
   1521000   249.83223     -43600.599     -49700.456     -529.44546      0.050584615    38.025         0.0020233846 
   1522000   245.94991     -43816.708     -49821.775     -740.01403      0.070319174    38.05          0.002812767  
   1523000   245.81571     -43825.516     -49827.307     -694.35777      0.066823527    38.075         0.0026729411 
   1524000   246.58611     -43786.945     -49807.546     -663.41129      0.064395444    38.1           0.0025758177 
   1525000   246.40414     -43833.723     -49849.881     -469.01383      0.043204573    38.125         0.0017281829 
   1526000   248.40444     -43866.012     -49931.009     -838.22521      0.083973993    38.15          0.0033589597 
   1527000   248.20871     -43793.507     -49853.725     -635.7809       0.060211796    38.175         0.0024084719 
   1528000   245.56528     -43696.818     -49692.494     -760.88701      0.070727074    38.2           0.002829083  
   1529000   246.07817     -43809.277     -49817.476     -760.74986      0.076513895    38.225         0.0030605558 
   1530000   247.84498     -43814.107     -49865.444     -904.78542      0.092386638    38.25          0.0036954655 
   1531000   246.0675      -44000.107     -50008.046     -989.94558      0.097143774    38.275         0.003885751  
   1532000   249.74675     -43854.43      -49952.201     -910.26404      0.090938089    38.3           0.0036375235 
   1533000   246.4593      -43896.06      -49913.565     -680.30535      0.067950601    38.325         0.002718024  
   1534000   247.64197     -43875.311     -49921.692     -666.32758      0.06805626     38.35          0.0027222504 
   1535000   248.00293     -43960.999     -50016.193     -1046.8281      0.10232038     38.375         0.0040928151 
   1536000   249.74779     -43804.248     -49902.044     -748.55032      0.07380493     38.4           0.0029521972 
   1537000   242.34625     -43980.01      -49897.092     -913.95661      0.091783372    38.425         0.0036713349 
   1538000   255.70462     -43641.876     -49885.112     -708.43256      0.068782179    38.45          0.0027512872 
   1539000   244.75982     -43942.897     -49918.907     -1051.7907      0.10252464     38.475         0.0041009856 
   1540000   250.58115     -43685.669     -49803.812     -736.59753      0.072922409    38.5           0.0029168963 
   1541000   248.2008      -43811.816     -49871.841     -631.49547      0.063941539    38.525         0.0025576616 
   1542000   244.34155     -43958.406     -49924.204     -356.5818       0.029944911    38.55          0.0011977964 
   1543000   250.65136     -43639.224     -49759.081     -924.8088       0.090007543    38.575         0.0036003017 
   1544000   248.35125     -43818.675     -49882.374     -611.12541      0.057717028    38.6           0.0023086811 
   1545000   246.98655     -43949.529     -49979.907     -885.86914      0.089670351    38.625         0.003586814  
   1546000   252.27895     -43754.269     -49913.865     -1234.977       0.12057035     38.65          0.004822814  
   1547000   245.08314     -43946.147     -49930.052     -786.83976      0.079901508    38.675         0.0031960603 
   1548000   245.62045     -43753.359     -49750.383     -860.75594      0.083782905    38.7           0.0033513162 
   1549000   243.88612     -44007.107     -49961.785     -728.08002      0.072696296    38.725         0.0029078518 
   1550000   252.36613     -43737.747     -49899.472     -964.91113      0.097772266    38.75          0.0039108906 
   1551000   245.74785     -43982.498     -49982.632     -967.5902       0.098637291    38.775         0.0039454916 
   1552000   249.86389     -43780.391     -49881.022     -841.46288      0.083029026    38.8           0.0033211611 
   1553000   248.5274      -43846.375     -49914.374     -1032.804       0.10296098     38.825         0.0041184392 
   1554000   245.57975     -43873.713     -49869.743     -868.83554      0.086013174    38.85          0.003440527  
   1555000   248.46836     -43862.405     -49928.963     -479.86417      0.046479569    38.875         0.0018591827 
   1556000   246.94994     -43869.911     -49899.395     -911.50329      0.090292308    38.9           0.0036116923 
   1557000   245.0983      -43773.891     -49758.166     -863.35434      0.084449156    38.925         0.0033779663 
   1558000   244.98375     -43791.702     -49773.18      -850.99798      0.083000579    38.95          0.0033200232 
   1559000   248.82132     -43736.489     -49811.664     -385.37425      0.037154704    38.975         0.0014861882 
   1560000   243.61167     -43843.276     -49791.253     -702.96482      0.066595652    39             0.0026638261 
   1561000   245.28731     -43735.928     -49724.817     -931.66053      0.093384015    39.025         0.0037353606 
   1562000   247.51192     -43956.04      -49999.245     -1053.2828      0.10509556     39.05          0.0042038225 
   1563000   245.09262     -43831.803     -49815.939     -843.29667      0.086460164    39.075         0.0034584066 
   1564000   250.985       -43690.665     -49818.668     -535.35676      0.051555263    39.1           0.0020622105 
   1565000   246.25383     -43782.953     -49795.441     -943.9852       0.092783995    39.125         0.0037113598 
   1566000   247.7734      -43813.682     -49863.272     -973.16029      0.093189188    39.15          0.0037275675 
   1567000   247.31268     -43763.169     -49801.51      -766.01019      0.07606522     39.175         0.0030426088 
   1568000   246.24742     -43885.952     -49898.283     -532.08168      0.050375073    39.2           0.0020150029 
   1569000   248.52266     -43587.97      -49655.853     -574.53502      0.055805161    39.225         0.0022322064 
   1570000   251.0921      -43763.267     -49893.885     -607.2899       0.063262873    39.25          0.0025305149 
   1571000   247.40071     -43918.979     -49959.469     -913.73196      0.086006256    39.275         0.0034402503 
   1572000   248.54956     -43762.601     -49831.141     -502.95645      0.047823557    39.3           0.0019129423 
   1573000   250.72817     -43843.625     -49965.357     -867.31743      0.085306317    39.325         0.0034122527 
   1574000   245.25431     -43887.242     -49875.326     -898.27322      0.092509841    39.35          0.0037003936 
   1575000   246.70899     -43833.773     -49857.374     -690.59285      0.066918242    39.375         0.0026767297 
   1576000   249.52834     -43933.934     -50026.372     -476.75077      0.047421501    39.4           0.00189686   
   1577000   248.38964     -43803.947     -49868.583     -683.7216       0.067445694    39.425         0.0026978278 
   1578000   244.82006     -43964.21      -49941.692     -742.70625      0.075648214    39.45          0.0030259286 
   1579000   246.56807     -43760.211     -49780.371     -704.31252      0.070408455    39.475         0.0028163382 
   1580000   248.68757     -43767.186     -49839.096     -732.62505      0.074740096    39.5           0.0029896038 
   1581000   245.10848     -43820.973     -49805.496     -857.97423      0.087620374    39.525         0.0035048149 
   1582000   249.20561     -43772.432     -49856.99      -931.12514      0.087536038    39.55          0.0035014415 
   1583000   246.44468     -43794.284     -49811.431     -617.71245      0.058679181    39.575         0.0023471672 
   1584000   251.24283     -43815.788     -49950.087     -1124.4388      0.11525154     39.6           0.0046100614 
   1585000   247.09411     -43834.436     -49867.44      -664.69687      0.068660696    39.625         0.0027464278 
   1586000   245.5262      -43947.583     -49942.305     -679.65218      0.067609768    39.65          0.0027043907 
   1587000   248.01518     -43713.443     -49768.936     -1116.9215      0.11131326     39.675         0.0044525306 
   1588000   244.61527     -43934.449     -49906.93      -869.60624      0.078676932    39.7           0.0031470773 
   1589000   251.18582     -43724.465     -49857.371     -719.26784      0.071714064    39.725         0.0028685625 
   1590000   246.43858     -43824.141     -49841.14      -951.10076      0.091458715    39.75          0.0036583486 
   1591000   246.15892     -43743.478     -49753.649     -843.82097      0.083770942    39.775         0.0033508377 
   1592000   250.65148     -43739.721     -49859.581     -1038.2045      0.10391843     39.8           0.0041567373 
   1593000   252.20296     -43609.847     -49767.588     -633.28024      0.060548582    39.825         0.0024219433 
   1594000   247.80461     -43781.877     -49832.229     -713.02111      0.068476019    39.85          0.0027390408 
   1595000   246.66394     -43713.717     -49736.218     -456.53797      0.045812528    39.875         0.0018325011 
   1596000   243.07836     -43779.641     -49714.598     -913.93199      0.089116601    39.9           0.0035646641 
   1597000   249.19051     -43734.631     -49818.821     -558.41808      0.056627776    39.925         0.002265111  
   1598000   249.51288     -43672.498     -49764.558     -1014.435       0.098263088    39.95          0.0039305235 
   1599000   244.39784     -43839.758     -49806.93      -844.69476      0.082816939    39.975         0.0033126776 
   1600000   245.92122     -43737.414     -49741.781     -1020.1324      0.10389745     40             0.004155898  
Loop time of 419.278 on 56 procs for 100000 steps with 12288 atoms

Performance: 20.607 ns/day, 1.165 hours/ns, 238.505 timesteps/s, 2.931 Matom-step/s
99.8% CPU use with 56 MPI tasks x no OpenMP threads

MPI task timing breakdown:
Section |  min time  |  avg time  |  max time  |%varavg| %total
---------------------------------------------------------------
Pair    | 186.61     | 192.75     | 199.22     |  21.5 | 45.97
Bond    | 0.016666   | 0.02338    | 0.02978    |   1.9 |  0.01
Kspace  | 109.4      | 116.44     | 122.43     |  26.2 | 27.77
Neigh   | 24.833     | 24.842     | 24.852     |   0.1 |  5.92
Comm    | 14.847     | 15.912     | 17.365     |  16.3 |  3.79
Output  | 0.22636    | 0.39871    | 0.56345    |  15.8 |  0.10
Modify  | 51.95      | 56.267     | 66.366     |  45.8 | 13.42
Other   |            | 12.65      |            |       |  3.02

Nlocal:        219.429 ave         237 max         205 min
Histogram: 4 1 9 9 13 6 6 4 0 4
Nghost:        7288.52 ave        7355 max        7205 min
Histogram: 1 1 5 6 10 8 9 8 7 1
Neighs:        96069.3 ave      105770 max       88261 min
Histogram: 2 3 9 14 8 9 3 4 1 3

Total # of neighbors = 5379879
Ave neighs/atom = 437.81567
Ave special neighs/atom = 2
Neighbor list builds = 2129
Dangerous builds = 0
kspace_style pppm/tip4p 1.0e-5
next nloop
jump SELF loop_start
run 100000 # 100ps
PPPM initialization ...
  extracting TIP4P info from pair style
  using 12-bit tables for long-range coulomb
  G vector (1/distance) = 0.32815664
  grid = 50 75 50
  stencil order = 5
  estimated absolute RMS force accuracy = 0.0035802102
  estimated relative force accuracy = 1.0781697e-05
  using double precision KISS FFT
  3d grid and FFT values/proc = 15776 4000
Generated 0 of 1 mixed pair_coeff terms from geometric mixing rule
Per MPI rank memory allocation (min/avg/max) = 11.21 | 11.35 | 11.45 Mbytes
   Step          Temp          TotEng         PotEng          Pxy           v_sxy         v_strain     v_viscosity  
   1600000   245.90978     -43737.937     -49742.025     -973.89437      0.099129496    40             0.0039651798 
   1601000   251.58849     -43691.605     -49834.343     -837.42482      0.082813719    40.025         0.0033125487 
   1602000   246.38826     -43891.485     -49907.256     -758.35084      0.074096989    40.05          0.0029638795 
   1603000   250.73138     -43742.496     -49864.307     -715.07996      0.070852562    40.075         0.0028341025 
   1604000   246.39748     -43767.241     -49783.236     -1042.0136      0.10569589     40.1           0.0042278356 
   1605000   243.76319     -43787.203     -49738.879     -1059.9022      0.1078811      40.125         0.0043152439 
   1606000   246.45031     -43766.817     -49784.102     -531.88747      0.04815823     40.15          0.0019263292 
   1607000   246.61779     -43799.177     -49820.552     -938.59318      0.092058316    40.175         0.0036823327 
   1608000   247.8997      -43798.243     -49850.917     -647.12677      0.064785555    40.2           0.0025914222 
   1609000   244.05841     -43888.041     -49846.926     -1114.3762      0.11379983     40.225         0.0045519931 
   1610000   247.99108     -43778.643     -49833.547     -716.07863      0.071322503    40.25          0.0028529001 
   1611000   247.25705     -43953.739     -49990.721     -988.88639      0.095785558    40.275         0.0038314223 
   1612000   247.61741     -43846.344     -49892.125     -643.3112       0.064182003    40.3           0.0025672801 
   1613000   245.33552     -43856.184     -49846.251     -1057.3059      0.10565664     40.325         0.0042262657 
   1614000   250.10196     -43810.558     -49917.001     -703.40702      0.07161384     40.35          0.0028645536 
   1615000   246.80186     -43817.072     -49842.941     -1094.0673      0.10561353     40.375         0.0042245411 
   1616000   246.20241     -43873.924     -49885.157     -771.11726      0.076737157    40.4           0.0030694863 
   1617000   251.01564     -43743.093     -49871.844     -1036.1987      0.10478902     40.425         0.0041915606 
   1618000   247.6967      -43786.401     -49834.117     -883.71046      0.086724995    40.45          0.0034689998 
   1619000   250.62894     -43744.35      -49863.66      -1028.1578      0.10207599     40.475         0.0040830396 
   1620000   245.00636     -43951.002     -49933.032     -905.0077       0.088024741    40.5           0.0035209896 
   1621000   247.75304     -43806.285     -49855.378     -889.49055      0.083924607    40.525         0.0033569843 
   1622000   244.24549     -43866.11      -49829.563     -937.53358      0.093865003    40.55          0.0037546001 
   1623000   246.48762     -43887.675     -49905.871     -831.82639      0.083426531    40.575         0.0033370612 
   1624000   247.44223     -43886.433     -49927.937     -951.287        0.094170734    40.6           0.0037668293 
   1625000   244.08939     -43873.677     -49833.319     -1032.2691      0.10385342     40.625         0.0041541366 
   1626000   248.48451     -43700.183     -49767.135     -1149.0119      0.11605138     40.65          0.0046420552 
   1627000   243.61007     -43921.806     -49869.745     -977.13083      0.092521214    40.675         0.0037008486 
   1628000   249.79137     -43731.928     -49830.788     -830.28709      0.084248437    40.7           0.0033699375 
   1629000   248.55464     -43934.068     -50002.732     -690.23074      0.068993392    40.725         0.0027597357 
   1630000   248.06177     -43894.169     -49950.799     -832.64469      0.081349625    40.75          0.003253985  
   1631000   251.08134     -43801.561     -49931.917     -857.27592      0.087154737    40.775         0.0034861895 
   1632000   247.29128     -43779.616     -49817.434     -846.77105      0.078700125    40.8           0.003148005  
   1633000   242.95942     -43831.039     -49763.092     -773.73383      0.079048146    40.825         0.0031619258 
   1634000   248.97646     -43806.359     -49885.323     -623.06566      0.059279007    40.85          0.0023711603 
   1635000   249.4611      -43751.226     -49842.022     -1064.7028      0.10551127     40.875         0.0042204507 
   1636000   249.30154     -43721.514     -49808.414     -732.57869      0.072865416    40.9           0.0029146166 
   1637000   244.59919     -43937.838     -49909.926     -569.6624       0.057335612    40.925         0.0022934245 
   1638000   248.39569     -43759.427     -49824.211     -618.3279       0.059536269    40.95          0.0023814507 
   1639000   247.81009     -43771.982     -49822.468     -589.21255      0.056297211    40.975         0.0022518884 
   1640000   249.11351     -43794.509     -49876.818     -632.88469      0.061008644    41             0.0024403458 
   1641000   245.81361     -43796.459     -49798.198     -1053.1797      0.10498776     41.025         0.0041995105 
   1642000   245.83336     -43909.172     -49911.393     -677.63833      0.069714933    41.05          0.0027885973 
   1643000   247.78035     -43854.925     -49904.684     -702.68801      0.065628809    41.075         0.0026251523 
   1644000   249.90144     -43677.232     -49778.779     -1361.4639      0.13244993     41.1           0.0052979971 
   1645000   248.02486     -43713.121     -49768.85      -910.35097      0.091120812    41.125         0.0036448325 
   1646000   247.68941     -43598.447     -49645.986     -1011.8747      0.099443888    41.15          0.0039777555 
   1647000   243.75152     -43833.786     -49785.178     -971.2649       0.092980422    41.175         0.0037192169 
   1648000   249.67011     -43660.538     -49756.437     -986.02814      0.098255465    41.2           0.0039302186 
   1649000   249.15921     -43606.167     -49689.592     -864.28648      0.0870639      41.225         0.003482556  
   1650000   249.12656     -43753.271     -49835.899     -948.0666       0.088319727    41.25          0.0035327891 
   1651000   246.80099     -43725.935     -49751.782     -907.49146      0.090180838    41.275         0.0036072335 
   1652000   248.40365     -43716.189     -49781.167     -601.01918      0.061075288    41.3           0.0024430115 
   1653000   248.03967     -43971.19      -50027.28      -705.77644      0.069744221    41.325         0.0027897689 
   1654000   248.33792     -43766.432     -49829.805     -866.38501      0.084509168    41.35          0.0033803667 
   1655000   250.14536     -43784.663     -49892.166     -737.71118      0.075827028    41.375         0.0030330811 
   1656000   247.97568     -43828.831     -49883.359     -884.79599      0.084811442    41.4           0.0033924577 
   1657000   247.33751     -43675.06      -49714.007     -928.29923      0.089988899    41.425         0.003599556  
   1658000   247.82503     -43777.207     -49828.057     -632.53714      0.064528835    41.45          0.0025811534 
   1659000   249.04101     -43710.309     -49790.848     -897.08362      0.084782574    41.475         0.003391303  
   1660000   251.13725     -43653.297     -49785.018     -714.78533      0.071445791    41.5           0.0028578317 
   1661000   248.08176     -43877.102     -49934.22      -814.11426      0.083577269    41.525         0.0033430908 
   1662000   248.40408     -43787.706     -49852.694     -930.51974      0.094763814    41.55          0.0037905526 
   1663000   247.28119     -43865.967     -49903.539     -860.53928      0.082400782    41.575         0.0032960313 
   1664000   249.10077     -43854.178     -49936.177     -752.93893      0.072633877    41.6           0.0029053551 
   1665000   249.13993     -43777.519     -49860.474     -712.8647       0.069868188    41.625         0.0027947275 
   1666000   247.5988      -43821.283     -49866.609     -517.47877      0.05245301     41.65          0.0020981204 
   1667000   247.90852     -43941.376     -49994.264     -755.49125      0.07338295     41.675         0.002935318  
   1668000   247.1713      -43758.074     -49792.963     -654.64565      0.063938335    41.7           0.0025575334 
   1669000   242.93088     -43975.188     -49906.543     -667.42063      0.066699832    41.725         0.0026679933 
   1670000   244.38092     -43898.866     -49865.625     -874.60781      0.081350719    41.75          0.0032540288 
   1671000   246.75771     -43829.516     -49854.307     -717.03353      0.070840977    41.775         0.0028336391 
   1672000   248.50227     -43854.467     -49921.853     -872.66345      0.084805411    41.8           0.0033922164 
   1673000   245.41094     -43865.853     -49857.761     -795.60115      0.080843039    41.825         0.0032337216 
   1674000   251.05896     -43731.483     -49861.292     -937.96587      0.095483791    41.85          0.0038193516 
   1675000   242.44074     -43761.532     -49680.92      -946.22651      0.09544384     41.875         0.0038177536 
   1676000   243.64122     -43846.299     -49794.998     -834.45747      0.08141671     41.9           0.0032566684 
   1677000   251.59896     -43730.64      -49873.634     -834.69733      0.078368673    41.925         0.0031347469 
   1678000   244.69793     -43994.15      -49968.649     -730.14511      0.069241062    41.95          0.0027696425 
   1679000   248.3295      -43776.133     -49839.3       -662.03734      0.061938697    41.975         0.0024775479 
   1680000   249.098       -43742.8       -49824.731     -919.46636      0.086727937    42             0.0034691175 
   1681000   246.35033     -43707.208     -49722.052     -904.84949      0.089458613    42.025         0.0035783445 
   1682000   249.05283     -43727.148     -49807.976     -880.08378      0.087679753    42.05          0.0035071901 
   1683000   249.88588     -43700.811     -49801.978     -1241.6778      0.12647843     42.075         0.0050591372 
   1684000   246.83401     -43877.933     -49904.586     -1066.8766      0.10383289     42.1           0.0041533154 
   1685000   252.52585     -43641.114     -49806.738     -838.19776      0.086907721    42.125         0.0034763088 
   1686000   245.81711     -43835.64      -49837.465     -628.0382       0.063212324    42.15          0.0025284929 
   1687000   248.31257     -43807.668     -49870.422     -748.91621      0.075435491    42.175         0.0030174197 
   1688000   248.11888     -43826.266     -49884.291     -638.58686      0.063840112    42.2           0.0025536045 
   1689000   248.45281     -43788.103     -49854.281     -888.38278      0.086133171    42.225         0.0034453269 
   1690000   248.17833     -43682.459     -49741.935     -933.70022      0.093211665    42.25          0.0037284666 
   1691000   245.36883     -43771.544     -49762.424     -1109.9694      0.10770772     42.275         0.0043083087 
   1692000   248.09109     -43709.762     -49767.108     -577.07892      0.054181737    42.3           0.0021672695 
   1693000   245.02489     -43889.583     -49872.066     -877.47341      0.086462277    42.325         0.0034584911 
   1694000   248.79123     -43964.86      -50039.301     -659.34264      0.069333701    42.35          0.002773348  
   1695000   246.21852     -43774.373     -49785.998     -953.17082      0.094778413    42.375         0.0037911365 
   1696000   249.15737     -43864.163     -49947.543     -622.49433      0.056787443    42.4           0.0022714977 
   1697000   248.55928     -43842.194     -49910.972     -721.16169      0.070820689    42.425         0.0028328276 
   1698000   245.99328     -43790.023     -49796.149     -260.65365      0.026731766    42.45          0.0010692706 
   1699000   249.91847     -43766.499     -49868.462     -938.46204      0.095494813    42.475         0.0038197925 
   1700000   248.40677     -43820.4       -49885.454     -1116.3188      0.11205825     42.5           0.00448233   
Loop time of 488.659 on 56 procs for 100000 steps with 12288 atoms

Performance: 17.681 ns/day, 1.357 hours/ns, 204.642 timesteps/s, 2.515 Matom-step/s
99.8% CPU use with 56 MPI tasks x no OpenMP threads

MPI task timing breakdown:
Section |  min time  |  avg time  |  max time  |%varavg| %total
---------------------------------------------------------------
Pair    | 189.39     | 194.71     | 200.22     |  18.4 | 39.85
Bond    | 0.019969   | 0.026353   | 0.034792   |   2.1 |  0.01
Kspace  | 149.95     | 156.35     | 163.63     |  22.8 | 32.00
Neigh   | 24.762     | 24.771     | 24.782     |   0.1 |  5.07
Comm    | 15.959     | 17.611     | 19.939     |  23.8 |  3.60
Output  | 0.22571    | 0.39638    | 0.56057    |  15.8 |  0.08
Modify  | 74.186     | 79.83      | 92.445     |  51.5 | 16.34
Other   |            | 14.97      |            |       |  3.06

Nlocal:        219.429 ave         250 max         199 min
Histogram: 3 3 10 13 11 9 4 2 0 1
Nghost:        6854.02 ave        6946 max        6795 min
Histogram: 5 7 12 9 8 5 3 3 3 1
Neighs:        96050.7 ave      111618 max       86011 min
Histogram: 2 5 12 10 13 8 3 1 1 1

Total # of neighbors = 5378840
Ave neighs/atom = 437.73112
Ave special neighs/atom = 2
Neighbor list builds = 2122
Dangerous builds = 0
kspace_style pppm/tip4p 1.0e-5
next nloop
jump SELF loop_start
run 100000 # 100ps
PPPM initialization ...
  extracting TIP4P info from pair style
  using 12-bit tables for long-range coulomb
  G vector (1/distance) = 0.32815664
  grid = 50 50 50
  stencil order = 5
  estimated absolute RMS force accuracy = 0.0035802102
  estimated relative force accuracy = 1.0781697e-05
  using double precision KISS FFT
  3d grid and FFT values/proc = 11424 2800
Generated 0 of 1 mixed pair_coeff terms from geometric mixing rule
Per MPI rank memory allocation (min/avg/max) = 10.92 | 11.04 | 11.12 Mbytes
   Step          Temp          TotEng         PotEng          Pxy           v_sxy         v_strain     v_viscosity  
   1700000   248.40226     -43820.565     -49885.508     -1057.7694      0.10610426     42.5           0.0042441703 
   1701000   248.01965     -43847.346     -49902.948     -786.23934      0.075535199    42.525         0.003021408  
   1702000   247.66852     -43866.262     -49913.291     -721.19984      0.066582813    42.55          0.0026633125 
   1703000   246.4591      -43873.77      -49891.27      -762.47172      0.077889555    42.575         0.0031155822 
   1704000   249.19966     -43821.773     -49906.186     -1023.8607      0.098718891    42.6           0.0039487556 
   1705000   252.16188     -43680.426     -49837.164     -618.23704      0.059006296    42.625         0.0023602518 
   1706000   251.10743     -43813.031     -49944.023     -1105.661       0.10807475     42.65          0.00432299   
   1707000   249.64295     -43810.756     -49905.992     -888.54985      0.089347894    42.675         0.0035739158 
   1708000   248.73225     -43910.192     -49983.193     -822.34845      0.080831763    42.7           0.0032332705 
   1709000   242.62469     -43863.964     -49787.843     -647.05412      0.058696799    42.725         0.002347872  
   1710000   245.0848      -43887.478     -49871.423     -794.48096      0.077871002    42.75          0.0031148401 
   1711000   245.01347     -43910.949     -49893.152     -846.38838      0.081427158    42.775         0.0032570863 
   1712000   249.16306     -43679.708     -49763.227     -706.70655      0.067944667    42.8           0.0027177867 
   1713000   248.91898     -43756.182     -49833.742     -866.24791      0.081656112    42.825         0.0032662445 
   1714000   249.78514     -43686.578     -49785.286     -1197.7816      0.11752899     42.85          0.0047011595 
   1715000   243.96714     -43895.216     -49851.872     -665.65559      0.065153863    42.875         0.0026061545 
   1716000   247.35412     -43806.889     -49846.242     -763.37164      0.076436426    42.9           0.003057457  
   1717000   254.5911      -43517.06      -49733.109     -656.90138      0.063020745    42.925         0.0025208298 
   1718000   240.47323     -44015.838     -49887.188     -621.74506      0.056450384    42.95          0.0022580154 
   1719000   248.18577     -43790.059     -49849.717     -691.55836      0.069440065    42.975         0.0027776026 
   1720000   247.62687     -43876.689     -49922.701     -752.50831      0.073507916    43             0.0029403166 
   1721000   248.25783     -43698.143     -49759.56      -973.47671      0.096769999    43.025         0.0038707999 
   1722000   242.16698     -43934.113     -49846.817     -722.02923      0.071941006    43.05          0.0028776403 
   1723000   248.59903     -43806.946     -49876.694     -780.9301       0.07819958     43.075         0.0031279832 
   1724000   244.73204     -43961.893     -49937.226     -953.05315      0.092680069    43.1           0.0037072028 
   1725000   250.53721     -43706.275     -49823.346     -986.48937      0.10037783     43.125         0.0040151132 
   1726000   245.01019     -43962.291     -49944.415     -865.17124      0.085537933    43.15          0.0034215173 
   1727000   249.33723     -43772.748     -49860.52      -905.00344      0.090219841    43.175         0.0036087936 
   1728000   245.70537     -43978.088     -49977.185     -837.28486      0.080548573    43.2           0.0032219429 
   1729000   253.89756     -43585.193     -49784.309     -971.01506      0.096007123    43.225         0.0038402849 
   1730000   246.82849     -43781.237     -49807.755     -683.76813      0.065716579    43.25          0.0026286631 
   1731000   248.99105     -43913.753     -49993.073     -567.42025      0.056427271    43.275         0.0022570908 
   1732000   251.62597     -43677.327     -49820.98      -1151.4296      0.11512663     43.3           0.0046050653 
   1733000   248.31051     -43692.133     -49754.836     -1034.8646      0.10110806     43.325         0.0040443225 
   1734000   244.80635     -43839.744     -49816.89      -535.73583      0.054073881    43.35          0.0021629552 
   1735000   248.27722     -43741.712     -49803.603     -679.30238      0.068288304    43.375         0.0027315322 
   1736000   247.41375     -43755.53      -49796.339     -760.45353      0.07242413     43.4           0.0028969652 
   1737000   250.27874     -43720.472     -49831.232     -1063.9561      0.10620857     43.425         0.0042483428 
   1738000   246.45073     -43907.946     -49925.241     -1095.2387      0.11045059     43.45          0.0044180236 
   1739000   249.60729     -43772.618     -49866.983     -945.72805      0.091036079    43.475         0.0036414431 
   1740000   251.61628     -43779.362     -49922.778     -773.99647      0.075037926    43.5           0.003001517  
   1741000   248.84878     -43810.133     -49885.979     -853.15241      0.084020956    43.525         0.0033608382 
   1742000   246.52072     -43934.643     -49953.648     -620.06257      0.060970276    43.55          0.002438811  
   1743000   246.90527     -43832.249     -49860.643     -762.30503      0.079728063    43.575         0.0031891225 
   1744000   243.76242     -43912.872     -49864.53      -653.96749      0.06721838     43.6           0.0026887352 
   1745000   250.84423     -43761.188     -49885.755     -982.89409      0.094674431    43.625         0.0037869773 
   1746000   247.45819     -43712.03      -49753.923     -710.108        0.069160574    43.65          0.0027664229 
   1747000   246.32466     -43777.008     -49791.225     -884.23171      0.087659761    43.675         0.0035063904 
   1748000   244.24494     -43856.937     -49820.377     -760.27941      0.076046048    43.7           0.0030418419 
   1749000   250.45135     -43722.182     -49837.156     -726.91601      0.072323951    43.725         0.0028929581 
   1750000   247.35543     -43777.831     -49817.215     -681.59883      0.063842042    43.75          0.0025536817 
   1751000   247.22519     -43781.314     -49817.519     -909.00178      0.090264       43.775         0.00361056   
   1752000   247.47615     -43881.391     -49923.723     -585.81393      0.056517897    43.8           0.0022607159 
   1753000   247.2595      -43777.503     -49814.545     -732.73057      0.073396654    43.825         0.0029358662 
   1754000   247.56982     -43804.362     -49848.981     -835.19385      0.084399381    43.85          0.0033759753 
   1755000   247.43155     -43824.213     -49865.456     -737.79568      0.072859014    43.875         0.0029143606 
   1756000   247.89889     -43792.532     -49845.185     -991.13014      0.099443153    43.9           0.0039777261 
   1757000   244.23112     -43814.079     -49777.181     -504.55401      0.049509132    43.925         0.0019803653 
   1758000   243.32434     -44013.038     -49954         -816.85381      0.080813978    43.95          0.0032325591 
   1759000   247.46141     -43763.826     -49805.798     -817.24838      0.084555099    43.975         0.003382204  
   1760000   245.1016      -43851.126     -49835.482     -1170.9844      0.11177022     44             0.0044708087 
   1761000   249.70807     -43887.2       -49984.026     -705.34075      0.071677975    44.025         0.002867119  
   1762000   252.82819     -43614.684     -49787.69      -810.3346       0.079512359    44.05          0.0031804944 
   1763000   248.09055     -43784.017     -49841.35      -956.8938       0.092386286    44.075         0.0036954514 
   1764000   248.30524     -43785.998     -49848.573     -959.88138      0.093177611    44.1           0.0037271044 
   1765000   249.53969     -43703.884     -49796.599     -648.61876      0.061595181    44.125         0.0024638072 
   1766000   250.87681     -43730.928     -49856.29      -1155.0579      0.11449842     44.15          0.0045799369 
   1767000   246.06626     -43760.527     -49768.435     -831.86954      0.080966936    44.175         0.0032386774 
   1768000   249.32857     -43900.098     -49987.659     -864.86926      0.082549802    44.2           0.0033019921 
   1769000   247.8169      -43768.466     -49819.118     -625.58423      0.057054983    44.225         0.0022821993 
   1770000   245.50604     -43831.086     -49825.316     -939.94458      0.095856288    44.25          0.0038342515 
   1771000   247.66888     -43805.658     -49852.696     -751.71378      0.072253432    44.275         0.0028901373 
   1772000   247.95485     -43772.043     -49826.063     -813.38401      0.081643132    44.3           0.0032657253 
   1773000   247.333       -43861.64      -49900.477     -861.30126      0.084092076    44.325         0.0033636831 
   1774000   247.78645     -43871.057     -49920.965     -912.48315      0.091478177    44.35          0.0036591271 
   1775000   249.0918      -43814.841     -49896.62      -717.66017      0.069854669    44.375         0.0027941868 
   1776000   243.8418      -43909.298     -49862.894     -692.44954      0.066865192    44.4           0.0026746077 
   1777000   248.97278     -43662.319     -49741.193     -689.87885      0.067861911    44.425         0.0027144764 
   1778000   243.70581     -43932.437     -49882.713     -949.38015      0.096235138    44.45          0.0038494055 
   1779000   245.87268     -43935.123     -49938.305     -710.72776      0.068618114    44.475         0.0027447246 
   1780000   247.45088     -43843.357     -49885.072     -833.25761      0.085710833    44.5           0.0034284333 
   1781000   248.54333     -43955.776     -50024.164     -497.95252      0.049293917    44.525         0.0019717567 
   1782000   247.11174     -43815.563     -49848.998     -1059.1727      0.10206103     44.55          0.0040824412 
   1783000   248.1433      -43970.225     -50028.846     -869.97169      0.088149011    44.575         0.0035259604 
   1784000   243.98773     -44108.26      -50065.42      -634.49342      0.06554081     44.6           0.0026216324 
   1785000   246.93553     -43857.306     -49886.439     -614.63617      0.06111488     44.625         0.0024445952 
   1786000   250.27157     -43890.046     -50000.631     -862.06931      0.087849446    44.65          0.0035139778 
   1787000   248.6585      -43863.783     -49934.983     -944.132        0.094704064    44.675         0.0037881625 
   1788000   245.5599      -43989.408     -49984.953     -765.57271      0.075761934    44.7           0.0030304774 
   1789000   249.29964     -43907.516     -49994.37      -974.7736       0.098421451    44.725         0.003936858  
   1790000   250.21228     -43814.615     -49923.752     -1230.1612      0.11983297     44.75          0.0047933188 
   1791000   247.38315     -43937.449     -49977.511     -920.46008      0.089954363    44.775         0.0035981745 
   1792000   248.48936     -43889.806     -49956.876     -688.8567       0.069077955    44.8           0.0027631182 
   1793000   243.23608     -43912.47      -49851.277     -683.95035      0.069104344    44.825         0.0027641738 
   1794000   246.05788     -43814.423     -49822.127     -855.812        0.082740929    44.85          0.0033096371 
   1795000   245.97147     -43854.618     -49860.212     -398.61911      0.040405922    44.875         0.0016162369 
   1796000   248.59213     -43874.661     -49944.241     -615.61294      0.063295089    44.9           0.0025318035 
   1797000   247.52348     -43927.003     -49970.491     -897.80366      0.089148992    44.925         0.0035659597 
   1798000   246.2822      -43946.258     -49959.438     -570.19896      0.05978615     44.95          0.002391446  
   1799000   249.09012     -43752.228     -49833.966     -1012.143       0.10019095     44.975         0.0040076381 
   1800000   247.03963     -43746.322     -49777.996     -858.57025      0.08446931     45             0.0033787724 
Loop time of 418.068 on 56 procs for 100000 steps with 12288 atoms

Performance: 20.667 ns/day, 1.161 hours/ns, 239.196 timesteps/s, 2.939 Matom-step/s
99.8% CPU use with 56 MPI tasks x no OpenMP threads

MPI task timing breakdown:
Section |  min time  |  avg time  |  max time  |%varavg| %total
---------------------------------------------------------------
Pair    | 186.64     | 192.29     | 197.08     |  16.8 | 46.00
Bond    | 0.01697    | 0.022994   | 0.029298   |   1.9 |  0.01
Kspace  | 111.88     | 116.01     | 121.41     |  20.9 | 27.75
Neigh   | 24.638     | 24.646     | 24.654     |   0.1 |  5.90
Comm    | 14.752     | 15.877     | 17.299     |  16.0 |  3.80
Output  | 0.22596    | 0.39837    | 0.56393    |  15.9 |  0.10
Modify  | 51.904     | 56.307     | 66.351     |  45.6 | 13.47
Other   |            | 12.52      |            |       |  2.99

Nlocal:        219.429 ave         236 max         204 min
Histogram: 4 2 6 11 8 6 7 6 4 2
Nghost:        7289.09 ave        7393 max        7186 min
Histogram: 3 2 4 7 12 12 7 7 0 2
Neighs:        96066.7 ave      104895 max       88127 min
Histogram: 3 3 10 9 7 6 7 5 3 3

Total # of neighbors = 5379734
Ave neighs/atom = 437.80387
Ave special neighs/atom = 2
Neighbor list builds = 2115
Dangerous builds = 0
kspace_style pppm/tip4p 1.0e-5
next nloop
jump SELF loop_start
run 100000 # 100ps
PPPM initialization ...
  extracting TIP4P info from pair style
  using 12-bit tables for long-range coulomb
  G vector (1/distance) = 0.32815664
  grid = 50 75 50
  stencil order = 5
  estimated absolute RMS force accuracy = 0.0035802102
  estimated relative force accuracy = 1.0781697e-05
  using double precision KISS FFT
  3d grid and FFT values/proc = 15776 4000
Generated 0 of 1 mixed pair_coeff terms from geometric mixing rule
Per MPI rank memory allocation (min/avg/max) = 11.21 | 11.35 | 11.45 Mbytes
   Step          Temp          TotEng         PotEng          Pxy           v_sxy         v_strain     v_viscosity  
   1800000   247.02811     -43746.351     -49777.744     -814.10577      0.079926578    45             0.0031970631 
   1801000   250.46321     -43809.367     -49924.63      -1191.5433      0.12067208     45.025         0.004826883  
   1802000   248.78432     -43692.597     -49766.869     -827.03123      0.083861258    45.05          0.0033544503 
   1803000   246.46167     -43764.292     -49781.855     -1008.7654      0.098821853    45.075         0.0039528741 
   1804000   246.58228     -43789.483     -49809.991     -839.56435      0.088325863    45.1           0.0035330345 
   1805000   244.04603     -43895.298     -49853.881     -985.6072       0.097240841    45.125         0.0038896336 
   1806000   250.85374     -43852.601     -49977.399     -867.04841      0.088096456    45.15          0.0035238582 
   1807000   249.50106     -43869.129     -49960.901     -930.78633      0.092306835    45.175         0.0036922734 
   1808000   247.71493     -43910.536     -49958.698     -876.89944      0.08353127     45.2           0.0033412508 
   1809000   249.76556     -43942.086     -50040.315     -856.69711      0.086172025    45.225         0.003446881  
   1810000   246.34213     -43724.133     -49738.777     -633.25748      0.061325702    45.25          0.0024530281 
   1811000   244.31013     -44020.998     -49986.029     -672.10035      0.067257991    45.275         0.0026903197 
   1812000   251.25672     -43879.056     -50013.694     -906.80606      0.088466362    45.3           0.0035386545 
   1813000   245.01218     -43952.832     -49935.004     -867.24         0.081969079    45.325         0.0032787631 
   1814000   242.8167      -43941.5       -49870.068     -734.76253      0.078036218    45.35          0.0031214487 
   1815000   249.05477     -43722.574     -49803.449     -960.95074      0.092951638    45.375         0.0037180655 
   1816000   251.53733     -43755.478     -49896.967     -823.44908      0.082179823    45.4           0.0032871929 
   1817000   250.4757      -43756.705     -49872.273     -702.42602      0.066408822    45.425         0.0026563529 
   1818000   247.13495     -43725.726     -49759.728     -748.30886      0.071334887    45.45          0.0028533955 
   1819000   247.27537     -43741.323     -49778.753     -1128.3017      0.11090672     45.475         0.0044362688 
   1820000   252.03219     -43755.996     -49909.568     -1030.1991      0.099153731    45.5           0.0039661493 
   1821000   247.29807     -43809.388     -49847.372     -619.94455      0.061100277    45.525         0.0024440111 
   1822000   249.05926     -43717.031     -49798.016     -636.17646      0.062570041    45.55          0.0025028016 
   1823000   250.4041      -43971.819     -50085.64      -1011.4182      0.10060846     45.575         0.0040243383 
   1824000   249.84983     -43743.934     -49844.222     -963.39268      0.095482392    45.6           0.0038192957 
   1825000   244.40018     -44038.237     -50005.467     -757.15825      0.07258161     45.625         0.0029032644 
   1826000   246.62837     -43942.448     -49964.081     -1012.6326      0.099058145    45.65          0.0039623258 
   1827000   244.41016     -43885.698     -49853.172     -1006.9556      0.098865972    45.675         0.0039546389 
   1828000   244.96419     -43920.799     -49901.8       -1206.4658      0.12085145     45.7           0.0048340578 
   1829000   251.67239     -43735.716     -49880.503     -1028.819       0.10271878     45.725         0.0041087514 
   1830000   243.37615     -44006.766     -49948.993     -592.48652      0.059289577    45.75          0.0023715831 
   1831000   251.04189     -43757.925     -49887.317     -564.29255      0.058530919    45.775         0.0023412367 
   1832000   248.03186     -43866.302     -49922.202     -1016.8916      0.10008896     45.8           0.0040035584 
   1833000   244.5683      -44016.783     -49988.117     -1009.071       0.10125005     45.825         0.0040500018 
   1834000   246.77647     -43825.764     -49851.012     -1059.069       0.10533642     45.85          0.0042134567 
   1835000   250.58125     -43844.794     -49962.939     -1108.9804      0.10630909     45.875         0.0042523638 
   1836000   243.96344     -44040.144     -49996.71      -889.97398      0.091119113    45.9           0.0036447645 
   1837000   251.35896     -43730.834     -49867.968     -1000.0389      0.09971308     45.925         0.0039885232 
   1838000   242.66013     -43860.913     -49785.658     -801.99709      0.079627593    45.95          0.0031851037 
   1839000   249.97427     -43725.597     -49828.922     -860.23581      0.083453466    45.975         0.0033381387 
   1840000   248.04845     -43907.42      -49963.726     -949.9481       0.096329135    46             0.0038531654 
   1841000   249.34963     -43698.873     -49786.948     -761.08875      0.076045524    46.025         0.003041821  
   1842000   247.64531     -43774.858     -49821.32      -1158.2617      0.11382283     46.05          0.0045529133 
   1843000   247.1978      -43977.235     -50012.771     -822.56721      0.085489572    46.075         0.0034195829 
   1844000   251.2341      -43788.561     -49922.646     -580.5262       0.057778593    46.1           0.0023111437 
   1845000   249.09119     -43961.99      -50043.755     -527.49158      0.050667815    46.125         0.0020267126 
   1846000   244.32263     -43918.143     -49883.479     -829.68038      0.082281509    46.15          0.0032912604 
   1847000   243.49132     -43869.948     -49814.987     -904.3886       0.089616648    46.175         0.0035846659 
   1848000   249.3018      -43754.998     -49841.905     -598.73348      0.057024876    46.2           0.002280995  
   1849000   246.37835     -43948.818     -49964.347     -1093.642       0.10842001     46.225         0.0043368003 
   1850000   247.66939     -43705.993     -49753.043     -860.07297      0.086603373    46.25          0.0034641349 
   1851000   246.33019     -43898.267     -49912.62      -938.548        0.096395415    46.275         0.0038558166 
   1852000   245.62793     -43999.57      -49996.776     -615.83553      0.061687415    46.3           0.0024674966 
   1853000   249.245       -43706.037     -49791.557     -1004.9475      0.098691029    46.325         0.0039476412 
   1854000   247.94607     -43791.825     -49845.63      -947.78765      0.097648307    46.35          0.0039059323 
   1855000   247.2591      -43894.479     -49931.512     -932.34684      0.091354818    46.375         0.0036541927 
   1856000   244.8771      -43760.904     -49739.778     -1016.7787      0.10161124     46.4           0.0040644495 
   1857000   246.5317      -43879.924     -49899.196     -916.97741      0.088575662    46.425         0.0035430265 
   1858000   248.83734     -43787.488     -49863.054     -864.5711       0.081863395    46.45          0.0032745358 
   1859000   246.40447     -43902.77      -49918.936     -492.74124      0.050338671    46.475         0.0020135468 
   1860000   244.8276      -43895.557     -49873.222     -847.28761      0.083450595    46.5           0.0033380238 
   1861000   249.34463     -43709.046     -49796.998     -661.31057      0.068568517    46.525         0.0027427407 
   1862000   246.61081     -43792.287     -49813.491     -826.95855      0.078691976    46.55          0.003147679  
   1863000   248.85786     -43731.291     -49807.358     -822.05044      0.08301245     46.575         0.003320498  
   1864000   248.29443     -43961.363     -50023.674     -458.71808      0.045393111    46.6           0.0018157244 
   1865000   247.85486     -43882.081     -49933.66      -694.47951      0.071041506    46.625         0.0028416602 
   1866000   248.83214     -43945.32      -50020.76      -707.30661      0.069198038    46.65          0.0027679215 
   1867000   245.64935     -43927.988     -49925.717     -1142.7509      0.10975629     46.675         0.0043902516 
   1868000   245.28494     -43739.292     -49728.123     -821.66321      0.083779673    46.7           0.0033511869 
   1869000   248.25361     -43815.557     -49876.871     -772.26991      0.077034237    46.725         0.0030813695 
   1870000   251.98064     -43686.068     -49838.381     -533.02225      0.050007912    46.75          0.0020003165 
   1871000   248.16587     -43852.127     -49911.299     -812.22715      0.077981265    46.775         0.0031192506 
   1872000   248.25774     -43857.395     -49918.81      -907.37685      0.089495303    46.8           0.0035798121 
   1873000   249.36492     -43834.592     -49923.04      -788.48264      0.082017216    46.825         0.0032806886 
   1874000   245.82812     -43889.664     -49891.758     -787.78592      0.077158829    46.85          0.0030863532 
   1875000   244.50341     -43972.414     -49942.164     -801.68531      0.079693476    46.875         0.003187739  
   1876000   250.50898     -43744.329     -49860.71      -1049.1327      0.10373005     46.9           0.0041492019 
   1877000   248.71812     -43805.793     -49878.448     -743.65065      0.073088162    46.925         0.0029235265 
   1878000   248.61183     -43815.719     -49885.779     -1029.8661      0.10390432     46.95          0.0041561728 
   1879000   248.83878     -43694.109     -49769.711     -887.63021      0.08262271     46.975         0.0033049084 
   1880000   247.13174     -43716.143     -49750.066     -1014.3253      0.09858396     47             0.0039433584 
   1881000   248.75878     -43603.609     -49677.258     -844.62761      0.08247324     47.025         0.0032989296 
   1882000   250.1026      -43661.859     -49768.318     -809.85629      0.080700919    47.05          0.0032280368 
   1883000   245.27236     -43830.397     -49818.921     -888.13825      0.092399545    47.075         0.0036959818 
   1884000   253.45046     -43696.258     -49884.457     -654.44309      0.063029587    47.1           0.0025211835 
   1885000   243.81178     -44050.086     -50002.949     -835.74913      0.078097977    47.125         0.0031239191 
   1886000   249.19934     -43664.749     -49749.154     -784.43574      0.075217712    47.15          0.0030087085 
   1887000   247.8029      -43899.928     -49950.237     -832.2374       0.081730297    47.175         0.0032692119 
   1888000   244.92321     -43964.256     -49944.256     -421.92819      0.043692068    47.2           0.0017476827 
   1889000   246.70836     -43879.604     -49903.19      -741.50945      0.073784407    47.225         0.0029513763 
   1890000   246.8436      -43849.727     -49876.615     -593.03579      0.058452336    47.25          0.0023380934 
   1891000   247.91045     -43922.719     -49975.654     -941.78192      0.09627805     47.275         0.003851122  
   1892000   247.43016     -43835.306     -49876.515     -826.10532      0.080362204    47.3           0.0032144881 
   1893000   245.77853     -43931.336     -49932.219     -650.22597      0.065320939    47.325         0.0026128376 
   1894000   250.1235      -43732.292     -49839.261     -579.75275      0.058690591    47.35          0.0023476236 
   1895000   251.77093     -43712.162     -49859.354     -655.45076      0.061567207    47.375         0.0024626883 
   1896000   249.53623     -43909.205     -50001.835     -623.10227      0.059990934    47.4           0.0023996374 
   1897000   248.43457     -43862.883     -49928.615     -763.45524      0.080364014    47.425         0.0032145606 
   1898000   247.70526     -43748.724     -49796.65      -801.09739      0.07910279     47.45          0.0031641116 
   1899000   246.84285     -43834.752     -49861.622     -1055.429       0.10699938     47.475         0.0042799751 
   1900000   247.7037      -43944.345     -49992.233     -876.75476      0.086794604    47.5           0.0034717842 
Loop time of 488.081 on 56 procs for 100000 steps with 12288 atoms

Performance: 17.702 ns/day, 1.356 hours/ns, 204.884 timesteps/s, 2.518 Matom-step/s
99.8% CPU use with 56 MPI tasks x no OpenMP threads

MPI task timing breakdown:
Section |  min time  |  avg time  |  max time  |%varavg| %total
---------------------------------------------------------------
Pair    | 190.21     | 194.54     | 200.21     |  15.9 | 39.86
Bond    | 0.018123   | 0.026082   | 0.032517   |   2.1 |  0.01
Kspace  | 150.56     | 155.98     | 161.04     |  20.2 | 31.96
Neigh   | 24.917     | 24.924     | 24.932     |   0.1 |  5.11
Comm    | 15.899     | 17.547     | 19.601     |  22.2 |  3.60
Output  | 0.22494    | 0.3966     | 0.56158    |  15.9 |  0.08
Modify  | 73.984     | 79.754     | 92.254     |  51.7 | 16.34
Other   |            | 14.91      |            |       |  3.06

Nlocal:        219.429 ave         240 max         203 min
Histogram: 4 6 6 5 10 15 4 3 1 2
Nghost:        6844.45 ave        6921 max        6794 min
Histogram: 4 7 3 14 11 10 4 1 1 1
Neighs:        96050.3 ave      105477 max       87555 min
Histogram: 4 2 6 7 6 16 8 4 1 2

Total # of neighbors = 5378819
Ave neighs/atom = 437.72941
Ave special neighs/atom = 2
Neighbor list builds = 2129
Dangerous builds = 0
kspace_style pppm/tip4p 1.0e-5
next nloop
jump SELF loop_start
run 100000 # 100ps
PPPM initialization ...
  extracting TIP4P info from pair style
  using 12-bit tables for long-range coulomb
  G vector (1/distance) = 0.32815664
  grid = 50 50 50
  stencil order = 5
  estimated absolute RMS force accuracy = 0.0035802102
  estimated relative force accuracy = 1.0781697e-05
  using double precision KISS FFT
  3d grid and FFT values/proc = 11424 2800
Generated 0 of 1 mixed pair_coeff terms from geometric mixing rule
Per MPI rank memory allocation (min/avg/max) = 10.92 | 11.04 | 11.12 Mbytes
   Step          Temp          TotEng         PotEng          Pxy           v_sxy         v_strain     v_viscosity  
   1900000   247.69231     -43944.839     -49992.449     -826.68407      0.081649984    47.5           0.0032659994 
   1901000   250.07656     -43800.855     -49906.678     -507.65264      0.050692133    47.525         0.0020276853 
   1902000   248.60438     -43901.933     -49971.812     -1166.158       0.10936624     47.55          0.0043746495 
   1903000   243.90232     -43966.999     -49922.073     -1122.7642      0.11031832     47.575         0.0044127327 
   1904000   250.91973     -43836.372     -49962.781     -844.89525      0.084759081    47.6           0.0033903633 
   1905000   250.5578      -43718.767     -49836.339     -873.77565      0.084378791    47.625         0.0033751517 
   1906000   246.98357     -43746.756     -49777.061     -974.69305      0.09868787     47.65          0.0039475148 
   1907000   247.87868     -43686.323     -49738.483     -798.95312      0.07781718     47.675         0.0031126872 
   1908000   250.74892     -43602.83      -49725.069     -799.25309      0.077453294    47.7           0.0030981317 
   1909000   247.05234     -43804.708     -49836.692     -736.47629      0.07277425     47.725         0.00291097   
   1910000   250.30905     -43674.858     -49786.357     -947.96552      0.089789894    47.75          0.0035915958 
   1911000   247.75332     -43837.084     -49886.184     -585.77481      0.058866455    47.775         0.0023546582 
   1912000   246.41199     -43855.924     -49872.274     -844.61711      0.082448783    47.8           0.0032979513 
   1913000   249.15648     -43803.702     -49887.061     -747.0352       0.074282186    47.825         0.0029712874 
   1914000   249.439       -43779.567     -49869.823     -703.2598       0.07219247     47.85          0.0028876988 
   1915000   247.29727     -43773.128     -49811.093     -983.36677      0.09627238     47.875         0.0038508952 
   1916000   248.8724      -43801.05      -49877.473     -978.67753      0.094723219    47.9           0.0037889288 
   1917000   248.25804     -43792.42      -49853.843     -955.2703       0.090777909    47.925         0.0036311164 
   1918000   247.30567     -43904.785     -49942.955     -855.49109      0.081836851    47.95          0.003273474  
   1919000   248.6811      -43780.764     -49852.515     -1009.8513      0.098250813    47.975         0.0039300325 
   1920000   249.16985     -43689.8       -49773.485     -510.48374      0.048801591    48             0.0019520636 
   1921000   246.14592     -43865.993     -49875.847     -824.08993      0.079191479    48.025         0.0031676592 
   1922000   247.49847     -43807.447     -49850.324     -525.9416       0.050031647    48.05          0.0020012659 
   1923000   248.13911     -43848.765     -49907.283     -719.80563      0.07163446     48.075         0.0028653784 
   1924000   249.02974     -43776.685     -49856.949     -1017.5703      0.10165342     48.1           0.0040661368 
   1925000   245.63724     -43889.102     -49886.535     -748.78671      0.073205297    48.125         0.0029282119 
   1926000   248.14494     -43853.273     -49911.934     -812.61518      0.08154344     48.15          0.0032617376 
   1927000   249.01226     -43765.978     -49845.815     -847.17556      0.087007878    48.175         0.0034803151 
   1928000   249.14617     -43720.322     -49803.429     -919.00362      0.091341836    48.2           0.0036536734 
   1929000   245.65706     -43875.365     -49873.283     -713.87897      0.075144102    48.225         0.0030057641 
   1930000   244.1763      -43933.347     -49895.11      -639.62065      0.061118432    48.25          0.0024447373 
   1931000   246.12836     -43819.487     -49828.912     -636.56629      0.060251885    48.275         0.0024100754 
   1932000   247.16845     -43732.908     -49767.728     -654.18046      0.062713791    48.3           0.0025085516 
   1933000   246.07357     -43766.652     -49774.738     -448.58801      0.041537128    48.325         0.0016614851 
   1934000   246.84237     -43748.567     -49775.425     -830.87113      0.081901113    48.35          0.0032760445 
   1935000   246.53937     -43847.117     -49866.577     -950.67502      0.094646605    48.375         0.0037858642 
   1936000   242.74439     -43936.034     -49862.836     -785.00115      0.076854724    48.4           0.003074189  
   1937000   247.57968     -43834.945     -49879.804     -1029.388       0.10468393     48.425         0.0041873573 
   1938000   248.26926     -43793.73      -49855.427     -864.93037      0.083658107    48.45          0.0033463243 
   1939000   247.79988     -43888.267     -49938.503     -851.26822      0.088911152    48.475         0.0035564461 
   1940000   247.54643     -43785.38      -49829.428     -883.66318      0.087017371    48.5           0.0034806948 
   1941000   250.69925     -43815.31      -49936.337     -1014.1086      0.097716795    48.525         0.0039086718 
   1942000   249.42542     -43788.517     -49878.442     -898.34113      0.090081434    48.55          0.0036032574 
   1943000   247.99777     -43883.932     -49939         -902.16669      0.087828095    48.575         0.0035131238 
   1944000   249.47213     -43794.356     -49885.421     -589.98558      0.057351174    48.6           0.0022940469 
   1945000   248.16342     -43860.077     -49919.189     -805.67853      0.076096208    48.625         0.0030438483 
   1946000   248.42641     -43844.051     -49909.584     -1009.0684      0.099399558    48.65          0.0039759823 
   1947000   245.78012     -43865.946     -49866.868     -886.98638      0.086110475    48.675         0.003444419  
   1948000   247.16242     -43879.686     -49914.358     -725.80949      0.075725023    48.7           0.0030290009 
   1949000   248.60777     -43822.83      -49892.791     -1048.8752      0.10388436     48.725         0.0041553744 
   1950000   251.57363     -43750.562     -49892.937     -733.43298      0.070125698    48.75          0.0028050279 
   1951000   250.42019     -43916.125     -50030.338     -984.97684      0.098729015    48.775         0.0039491606 
   1952000   246.62711     -43820.084     -49841.686     -779.48727      0.077877849    48.8           0.0031151139 
   1953000   251.45735     -43805.112     -49944.648     -775.98276      0.073907827    48.825         0.0029563131 
   1954000   252.49641     -43639.104     -49804.01      -588.59276      0.059702709    48.85          0.0023881084 
   1955000   245.01063     -43868.652     -49850.786     -736.67152      0.071224335    48.875         0.0028489734 
   1956000   244.21312     -43805.275     -49767.938     -607.82149      0.062678599    48.9           0.002507144  
   1957000   247.87218     -43749.8       -49801.802     -188.67206      0.015985249    48.925         0.00063940995
   1958000   243.60357     -43885.776     -49833.556     -912.63556      0.089640171    48.95          0.0035856068 
   1959000   249.49645     -43739.064     -49830.723     -919.299        0.091284803    48.975         0.0036513921 
   1960000   246.54534     -43940.087     -49959.693     -706.03892      0.074500147    49             0.0029800059 
   1961000   248.1144      -43774.612     -49832.527     -827.44388      0.079659905    49.025         0.0031863962 
   1962000   246.57513     -43878.513     -49898.846     -558.07938      0.050226606    49.05          0.0020090643 
   1963000   246.09529     -43844.855     -49853.472     -620.64531      0.067435927    49.075         0.0026974371 
   1964000   246.22222     -43919.797     -49931.513     -799.66443      0.076879604    49.1           0.0030751842 
   1965000   245.48365     -44004.38      -49998.064     -673.66189      0.067870453    49.125         0.0027148181 
   1966000   250.70893     -43754.379     -49875.641     -575.76686      0.056366921    49.15          0.0022546768 
   1967000   246.32362     -43903.822     -49918.014     -403.0494       0.043281434    49.175         0.0017312574 
   1968000   245.78829     -43904.319     -49905.44      -869.13083      0.086078689    49.2           0.0034431476 
   1969000   248.86067     -43749.418     -49825.554     -1054.3777      0.10392265     49.225         0.004156906  
   1970000   245.55785     -43836.533     -49832.029     -987.24066      0.096096431    49.25          0.0038438572 
   1971000   249.13157     -43708.002     -49790.753     -1012.4376      0.09924815     49.275         0.003969926  
   1972000   248.60464     -43755.017     -49824.902     -715.8043       0.071911223    49.3           0.0028764489 
   1973000   246.03652     -43797.877     -49805.059     -947.53014      0.093358943    49.325         0.0037343577 
   1974000   247.81824     -43704.623     -49755.307     -1139.1566      0.11688197     49.35          0.0046752787 
   1975000   244.70795     -43830.567     -49805.311     -600.12196      0.057982919    49.375         0.0023193168 
   1976000   247.30783     -43712.606     -49750.829     -656.01321      0.067540673    49.4           0.0027016269 
   1977000   248.70916     -43713.155     -49785.592     -773.56462      0.076051204    49.425         0.0030420481 
   1978000   251.1154      -43654.654     -49785.841     -636.25916      0.063402248    49.45          0.0025360899 
   1979000   244.32509     -43640.659     -49606.055     -621.98462      0.066191514    49.475         0.0026476606 
   1980000   248.38931     -43806.827     -49871.454     -813.44203      0.076780966    49.5           0.0030712386 
   1981000   247.45526     -43858.527     -49900.349     -766.97774      0.074525214    49.525         0.0029810086 
   1982000   246.1987      -43898.97      -49910.112     -931.05669      0.093849467    49.55          0.0037539787 
   1983000   246.53343     -43837.654     -49856.969     -861.71502      0.084944771    49.575         0.0033977908 
   1984000   248.97512     -43806.427     -49885.358     -1133.4701      0.1086137      49.6           0.0043445479 
   1985000   245.5281      -43886.294     -49881.062     -563.47364      0.055761122    49.625         0.0022304449 
   1986000   251.00391     -43812.971     -49941.436     -388.67866      0.041421659    49.65          0.0016568664 
   1987000   245.56663     -43852.532     -49848.242     -926.73513      0.090267256    49.675         0.0036106903 
   1988000   248.99224     -43826.247     -49905.596     -577.12758      0.056987116    49.7           0.0022794846 
   1989000   242.46107     -44010         -49929.884     -969.03702      0.093227055    49.725         0.0037290822 
   1990000   245.25704     -43958.389     -49946.54      -993.0514       0.095295617    49.75          0.0038118247 
   1991000   247.57286     -43785.824     -49830.517     -1120.0544      0.10816025     49.775         0.0043264099 
   1992000   246.99725     -43749.622     -49780.261     -860.02825      0.084262986    49.8           0.0033705195 
   1993000   245.75655     -43829.342     -49829.688     -833.6945       0.081892531    49.825         0.0032757013 
   1994000   245.79115     -43953.646     -49954.837     -882.57834      0.084066203    49.85          0.0033626481 
   1995000   247.64226     -43818.537     -49864.925     -799.73459      0.081926623    49.875         0.0032770649 
   1996000   246.90833     -43862.998     -49891.466     -1144.535       0.10897824     49.9           0.0043591297 
   1997000   243.87161     -43983.061     -49937.385     -730.43106      0.066774231    49.925         0.0026709692 
   1998000   241.27059     -44008.883     -49899.701     -660.53439      0.065565518    49.95          0.0026226207 
   1999000   248.01922     -43769.761     -49825.353     -730.16015      0.071953859    49.975         0.0028781544 
   2000000   250.01115     -43905.241     -50009.467     -818.53488      0.0796521      50             0.003186084  
Loop time of 417.069 on 56 procs for 100000 steps with 12288 atoms

Performance: 20.716 ns/day, 1.159 hours/ns, 239.768 timesteps/s, 2.946 Matom-step/s
99.8% CPU use with 56 MPI tasks x no OpenMP threads

MPI task timing breakdown:
Section |  min time  |  avg time  |  max time  |%varavg| %total
---------------------------------------------------------------
Pair    | 187.42     | 192.4      | 197.11     |  15.8 | 46.13
Bond    | 0.016986   | 0.022716   | 0.029635   |   1.9 |  0.01
Kspace  | 109.26     | 114.94     | 119.84     |  21.2 | 27.56
Neigh   | 24.681     | 24.69      | 24.702     |   0.1 |  5.92
Comm    | 14.733     | 15.839     | 17.423     |  16.2 |  3.80
Output  | 0.22479    | 0.39692    | 0.56221    |  15.9 |  0.10
Modify  | 52.354     | 56.291     | 66.229     |  45.6 | 13.50
Other   |            | 12.49      |            |       |  3.00

Nlocal:        219.429 ave         237 max         202 min
Histogram: 2 1 6 9 13 5 9 6 3 2
Nghost:        7287.84 ave        7349 max        7197 min
Histogram: 1 0 2 4 3 19 11 13 2 1
Neighs:        96050.6 ave      103960 max       87551 min
Histogram: 2 1 5 9 10 9 8 9 1 2

Total # of neighbors = 5378836
Ave neighs/atom = 437.73079
Ave special neighs/atom = 2
Neighbor list builds = 2127
Dangerous builds = 0
kspace_style pppm/tip4p 1.0e-5
next nloop
jump SELF loop_start
run 100000 # 100ps
PPPM initialization ...
  extracting TIP4P info from pair style
  using 12-bit tables for long-range coulomb
  G vector (1/distance) = 0.32815664
  grid = 50 75 50
  stencil order = 5
  estimated absolute RMS force accuracy = 0.0035802102
  estimated relative force accuracy = 1.0781697e-05
  using double precision KISS FFT
  3d grid and FFT values/proc = 15776 4000
Generated 0 of 1 mixed pair_coeff terms from geometric mixing rule
Per MPI rank memory allocation (min/avg/max) = 11.21 | 11.35 | 11.45 Mbytes
   Step          Temp          TotEng         PotEng          Pxy           v_sxy         v_strain     v_viscosity  
   2000000   250.0226      -43904.786     -50009.292     -774.93392      0.075160017    50             0.0030064007 
   2001000   248.24451     -43816.08      -49877.172     -653.0975       0.065938943    50.025         0.0026375577 
   2002000   245.50538     -43959.27      -49953.484     -781.86948      0.076163246    50.05          0.0030465298 
   2003000   248.7693      -43761.552     -49835.458     -1077.3586      0.10438489     50.075         0.0041753958 
   2004000   250.49666     -43778.147     -49894.227     -982.00206      0.09859748     50.1           0.0039438992 
   2005000   247.48762     -43943.916     -49986.528     -995.79657      0.10289731     50.125         0.0041158922 
   2006000   250.46503     -43829.948     -49945.256     -695.77894      0.066324842    50.15          0.0026529937 
   2007000   246.76911     -43889.846     -49914.915     -1099.4608      0.11009322     50.175         0.0044037287 
   2008000   245.70298     -43782.721     -49781.759     -652.93241      0.066027706    50.2           0.0026411082 
   2009000   247.57745     -43770.91      -49815.715     -961.12416      0.09588511     50.225         0.0038354044 
   2010000   249.77537     -43719.907     -49818.377     -902.19731      0.089047056    50.25          0.0035618822 
   2011000   244.04618     -43907.934     -49866.521     -543.5524       0.053145578    50.275         0.0021258231 
   2012000   247.5275      -44015.824     -50059.409     -890.69762      0.091176298    50.3           0.0036470519 
   2013000   247.05124     -43869.315     -49901.272     -727.70374      0.071193588    50.325         0.0028477435 
   2014000   247.44986     -43863.558     -49905.248     -896.04978      0.08806099     50.35          0.0035224396 
   2015000   247.21874     -43700.936     -49736.983     -876.57659      0.084102698    50.375         0.0033641079 
   2016000   247.35284     -43819.32      -49858.641     -1223.3801      0.12117109     50.4           0.0048468434 
   2017000   249.31752     -43718.259     -49805.549     -1003.209       0.09772775     50.425         0.00390911   
   2018000   247.19388     -43840.293     -49875.733     -1238.9227      0.12152426     50.45          0.0048609704 
   2019000   246.16994     -43801.375     -49811.815     -975.66178      0.096442532    50.475         0.0038577013 
   2020000   249.87003     -43746.785     -49847.565     -703.5568       0.07020532     50.5           0.0028082128 
   2021000   249.17782     -43730.885     -49814.765     -861.22594      0.086711256    50.525         0.0034684502 
   2022000   247.65456     -43832.847     -49879.535     -764.58329      0.075689577    50.55          0.0030275831 
   2023000   249.91955     -43653.356     -49755.346     -759.3265       0.074280608    50.575         0.0029712243 
   2024000   244.75125     -43850.295     -49826.096     -751.52838      0.074999507    50.6           0.0029999803 
   2025000   246.39694     -43892.48      -49908.462     -686.57585      0.066298604    50.625         0.0026519442 
   2026000   249.94854     -43657.312     -49760.01      -751.53789      0.076286114    50.65          0.0030514445 
   2027000   249.59206     -43730.726     -49824.72      -886.28085      0.089143576    50.675         0.003565743  
   2028000   248.72942     -43862.202     -49935.133     -998.60697      0.099878123    50.7           0.0039951249 
   2029000   248.71778     -43723.093     -49795.74      -939.76643      0.094398898    50.725         0.0037759559 
   2030000   246.10933     -43724.406     -49733.366     -664.87071      0.067228524    50.75          0.002689141  
   2031000   242.73843     -43903.046     -49829.702     -802.27459      0.08281038     50.775         0.0033124152 
   2032000   248.61835     -43763.789     -49834.009     -844.6153       0.084136171    50.8           0.0033654469 
   2033000   253.6395      -43529.661     -49722.476     -522.93101      0.055322868    50.825         0.0022129147 
   2034000   247.63927     -43823.868     -49870.182     -585.59234      0.060013516    50.85          0.0024005406 
   2035000   249.90921     -43704.817     -49806.554     -895.69666      0.088152996    50.875         0.0035261198 
   2036000   244.18787     -43839.874     -49801.92      -1019.1979      0.10337367     50.9           0.0041349466 
   2037000   246.59516     -43935.649     -49956.471     -785.33439      0.074845997    50.925         0.0029938399 
   2038000   246.2633      -43882.779     -49895.498     -738.91807      0.07357276     50.95          0.0029429104 
   2039000   251.22843     -43752.077     -49886.024     -863.87211      0.085498967    50.975         0.0034199587 
   2040000   249.94595     -43689.872     -49792.506     -487.11249      0.045832216    51             0.0018332887 
   2041000   245.73807     -43833.61      -49833.506     -594.09763      0.060345351    51.025         0.002413814  
   2042000   246.17485     -43870.575     -49881.135     -673.94064      0.066176867    51.05          0.0026470747 
   2043000   246.12827     -43732.171     -49741.593     -801.34885      0.075332714    51.075         0.0030133086 
   2044000   247.82705     -43636.696     -49687.596     -945.3686       0.094856324    51.1           0.003794253  
   2045000   250.71991     -43572.626     -49694.157     -666.0632       0.067168918    51.125         0.0026867567 
   2046000   247.52361     -43767.504     -49810.995     -550.23359      0.053958883    51.15          0.0021583553 
   2047000   249.88058     -43701.17      -49802.208     -881.42739      0.084012373    51.175         0.0033604949 
   2048000   249.44213     -43591.58      -49681.913     -721.95272      0.073866662    51.2           0.0029546665 
   2049000   246.29501     -43675.306     -49688.799     -559.08857      0.055436948    51.225         0.0022174779 
   2050000   247.81239     -43704.87      -49755.412     -1049.4136      0.10341742     51.25          0.0041366966 
   2051000   246.74435     -43651.316     -49675.78      -667.74757      0.067680201    51.275         0.0027072081 
   2052000   245.04848     -43847.684     -49830.742     -895.17254      0.090319179    51.3           0.0036127672 
   2053000   249.14708     -43522.257     -49605.386     -844.22479      0.083946698    51.325         0.0033578679 
   2054000   247.54782     -43833.601     -49877.682     -782.57482      0.074122786    51.35          0.0029649114 
   2055000   251.74406     -43627.628     -49774.165     -723.07821      0.072876686    51.375         0.0029150674 
   2056000   246.5872      -43768.259     -49788.886     -837.6793       0.085074157    51.4           0.0034029663 
   2057000   244.99366     -43884.826     -49866.546     -995.02959      0.096872194    51.425         0.0038748878 
   2058000   248.57213     -43736.701     -49805.792     -1013.6373      0.10037273     51.45          0.004014909  
   2059000   246.84629     -43810.789     -49837.742     -970.20882      0.096480568    51.475         0.0038592227 
   2060000   248.9885      -43854.561     -49933.818     -727.24222      0.070422866    51.5           0.0028169146 
   2061000   246.14984     -44002.034     -50011.983     -816.7048       0.0836641      51.525         0.003346564  
   2062000   247.19912     -43653.749     -49689.317     -853.54802      0.081740104    51.55          0.0032696041 
   2063000   249.34882     -43843.347     -49931.402     -643.78912      0.06075539     51.575         0.0024302156 
   2064000   251.7629      -43790.905     -49937.901     -988.06426      0.09665982     51.6           0.0038663928 
   2065000   250.03923     -43803.356     -49908.267     -740.73362      0.074428108    51.625         0.0029771243 
   2066000   248.41793     -43811.988     -49877.314     -981.58081      0.096772419    51.65          0.0038708968 
   2067000   247.29553     -43876.227     -49914.149     -1052.5125      0.10683039     51.675         0.0042732155 
   2068000   248.62192     -43740.502     -49810.809     -714.2761       0.06995277     51.7           0.0027981108 
   2069000   249.42008     -43711.287     -49801.082     -1210.6471      0.11871254     51.725         0.0047485017 
   2070000   249.09273     -43737.439     -49819.241     -663.10355      0.065869116    51.75          0.0026347646 
   2071000   247.77053     -43771.038     -49820.557     -707.74012      0.071478125    51.775         0.002859125  
   2072000   249.9338      -43845.072     -49947.409     -624.3404       0.066701314    51.8           0.0026680526 
   2073000   251.58057     -43648.719     -49791.263     -411.69535      0.040503294    51.825         0.0016201317 
   2074000   245.05534     -43851.154     -49834.38      -914.55443      0.089801944    51.85          0.0035920778 
   2075000   249.59741     -43849.966     -49944.09      -589.52641      0.053767266    51.875         0.0021506906 
   2076000   250.77434     -43704.074     -49826.934     -813.05565      0.080322508    51.9           0.0032129003 
   2077000   244.75898     -43861.722     -49837.712     -858.22319      0.083452118    51.925         0.0033380847 
   2078000   247.45499     -43703.459     -49745.274     -659.21211      0.065208401    51.95          0.002608336  
   2079000   247.36566     -43827.802     -49867.436     -822.64967      0.084642748    51.975         0.0033857099 
   2080000   249.82709     -43834.877     -49934.609     -604.34689      0.055500878    52             0.0022200351 
   2081000   246.81521     -43838.322     -49864.516     -773.10509      0.073214286    52.025         0.0029285714 
   2082000   250.03548     -43755.257     -49860.077     -1002.7904      0.096246891    52.05          0.0038498757 
   2083000   246.24286     -43722.63      -49734.85      -708.26975      0.06826654     52.075         0.0027306616 
   2084000   247.55008     -43711.9       -49756.037     -929.28856      0.093823549    52.1           0.003752942  
   2085000   247.25123     -43759.921     -49796.761     -1317.5755      0.13174797     52.125         0.005269919  
   2086000   249.39189     -43750.262     -49839.368     -1071.4779      0.10438617     52.15          0.0041754467 
   2087000   248.58146     -43872.062     -49941.381     -661.7434       0.065776529    52.175         0.0026310612 
   2088000   245.4627      -43877.079     -49870.251     -816.47046      0.08112194     52.2           0.0032448776 
   2089000   248.13461     -43859.46      -49917.868     -776.22938      0.079470593    52.225         0.0031788237 
   2090000   247.66591     -43802.608     -49849.574     -649.05599      0.061194942    52.25          0.0024477977 
   2091000   249.86594     -43800.971     -49901.652     -1142.715       0.11084773     52.275         0.0044339091 
   2092000   244.12759     -44017.091     -49977.665     -1008.6363      0.098480181    52.3           0.0039392072 
   2093000   247.55401     -43626.338     -49670.571     -924.01609      0.089810242    52.325         0.0035924097 
   2094000   249.84064     -43698.2       -49798.263     -751.1262       0.077160909    52.35          0.0030864363 
   2095000   247.96439     -43743.326     -49797.579     -930.79921      0.094407207    52.375         0.0037762883 
   2096000   247.66045     -43729.789     -49776.62      -795.44865      0.080685302    52.4           0.0032274121 
   2097000   251.21956     -43698.597     -49832.328     -914.11437      0.089676397    52.425         0.0035870559 
   2098000   246.39328     -43746.91      -49762.803     -783.02861      0.078349938    52.45          0.0031339975 
   2099000   248.50812     -43907.237     -49974.765     -1068.2488      0.10509729     52.475         0.0042038918 
   2100000   250.294       -43747.818     -49858.95      -893.9333       0.089795103    52.5           0.0035918041 
Loop time of 488.803 on 56 procs for 100000 steps with 12288 atoms

Performance: 17.676 ns/day, 1.358 hours/ns, 204.581 timesteps/s, 2.514 Matom-step/s
99.8% CPU use with 56 MPI tasks x no OpenMP threads

MPI task timing breakdown:
Section |  min time  |  avg time  |  max time  |%varavg| %total
---------------------------------------------------------------
Pair    | 190.29     | 194.55     | 202.65     |  19.2 | 39.80
Bond    | 0.018921   | 0.025895   | 0.032335   |   2.0 |  0.01
Kspace  | 147.77     | 156.49     | 161.69     |  23.8 | 32.01
Neigh   | 25.11      | 25.119     | 25.13      |   0.1 |  5.14
Comm    | 16.049     | 17.578     | 19.257     |  22.0 |  3.60
Output  | 0.22597    | 0.39761    | 0.56269    |  15.8 |  0.08
Modify  | 73.989     | 79.744     | 92.139     |  51.9 | 16.31
Other   |            | 14.9       |            |       |  3.05

Nlocal:        219.429 ave         239 max         202 min
Histogram: 3 3 11 8 5 8 7 6 3 2
Nghost:        6845.41 ave        6891 max        6775 min
Histogram: 2 1 1 6 7 8 10 9 8 4
Neighs:        96054.3 ave      105584 max       87948 min
Histogram: 3 3 9 10 9 4 7 6 4 1

Total # of neighbors = 5379039
Ave neighs/atom = 437.74731
Ave special neighs/atom = 2
Neighbor list builds = 2147
Dangerous builds = 0
kspace_style pppm/tip4p 1.0e-5
next nloop
jump SELF loop_start
run 100000 # 100ps
PPPM initialization ...
  extracting TIP4P info from pair style
  using 12-bit tables for long-range coulomb
  G vector (1/distance) = 0.32815664
  grid = 50 50 50
  stencil order = 5
  estimated absolute RMS force accuracy = 0.0035802102
  estimated relative force accuracy = 1.0781697e-05
  using double precision KISS FFT
  3d grid and FFT values/proc = 11424 2800
Generated 0 of 1 mixed pair_coeff terms from geometric mixing rule
Per MPI rank memory allocation (min/avg/max) = 10.92 | 11.04 | 11.12 Mbytes
   Step          Temp          TotEng         PotEng          Pxy           v_sxy         v_strain     v_viscosity  
   2100000   250.28746     -43748.143     -49859.116     -844.11708      0.084683875    52.5           0.003387355  
   2101000   251.855       -43609.497     -49758.742     -725.86639      0.071799917    52.525         0.0028719967 
   2102000   249.88952     -43812.621     -49913.877     -641.45327      0.063357447    52.55          0.0025342979 
   2103000   246.03207     -43889.762     -49896.835     -894.75469      0.092395494    52.575         0.0036958198 
   2104000   249.51888     -43789.375     -49881.581     -737.00746      0.072641134    52.6           0.0029056453 
   2105000   248.09432     -43895.794     -49953.219     -801.22155      0.080987649    52.625         0.0032395059 
   2106000   248.33221     -43680.762     -49743.995     -470.92516      0.0444097      52.65          0.001776388  
   2107000   245.07867     -43883.608     -49867.404     -838.69822      0.086302222    52.675         0.0034520889 
   2108000   251.51603     -43776.73      -49917.699     -817.18255      0.081117167    52.7           0.0032446867 
   2109000   246.47499     -44001.272     -50019.16      -615.57818      0.064059       52.725         0.00256236   
   2110000   249.78357     -43843.155     -49941.825     -798.42132      0.076792051    52.75          0.003071682  
   2111000   245.74597     -44009.975     -50010.064     -1103.6131      0.11271459     52.775         0.0045085835 
   2112000   252.1685      -43635.56      -49792.459     -1172.3335      0.11417986     52.8           0.0045671946 
   2113000   250.33129     -43762.306     -49874.349     -1051.8777      0.10598531     52.825         0.0042394125 
   2114000   247.20275     -43970.375     -50006.032     -729.43578      0.070240032    52.85          0.0028096013 
   2115000   252.98266     -43807.57      -49984.348     -656.7128       0.065803256    52.875         0.0026321302 
   2116000   244.96291     -43952.916     -49933.885     -790.44352      0.078158465    52.9           0.0031263386 
   2117000   247.99901     -44026.535     -50081.633     -1033.4756      0.10359246     52.925         0.0041436985 
   2118000   248.94544     -43936.047     -50014.253     -745.56501      0.070720625    52.95          0.002828825  
   2119000   252.83274     -43841.012     -50014.129     -832.18916      0.082743014    52.975         0.0033097206 
   2120000   246.01516     -43894.583     -49901.244     -564.89814      0.055909972    53             0.0022363989 
   2121000   248.18398     -43941.962     -50001.576     -1029.2227      0.1008049      53.025         0.0040321961 
   2122000   245.116       -43920.634     -49905.34      -973.27355      0.096089017    53.05          0.0038435607 
   2123000   245.50678     -43892.874     -49887.122     -774.06958      0.075330787    53.075         0.0030132315 
   2124000   249.97757     -43790.551     -49893.957     -758.57638      0.075162676    53.1           0.003006507  
   2125000   249.35514     -43716.474     -49804.684     -971.00196      0.098092068    53.125         0.0039236827 
   2126000   244.73629     -43902.572     -49878.008     -852.8001       0.082432384    53.15          0.0032972954 
   2127000   245.15075     -43920.715     -49906.27      -884.67107      0.091641593    53.175         0.0036656637 
   2128000   248.86855     -43794.831     -49871.16      -853.7268       0.084187631    53.2           0.0033675053 
   2129000   252.32655     -43772.279     -49933.037     -585.22726      0.059978009    53.225         0.0023991204 
   2130000   246.04516     -44038.12      -50045.513     -1035.3114      0.10720831     53.25          0.0042883325 
   2131000   247.44343     -43769.518     -49811.051     -423.95371      0.041090546    53.275         0.0016436218 
   2132000   248.64475     -43847.597     -49918.461     -844.12465      0.08264068     53.3           0.0033056272 
   2133000   246.14511     -43824.216     -49834.049     -989.06686      0.095294696    53.325         0.0038117879 
   2134000   247.4851      -43730.905     -49773.455     -779.51822      0.073767883    53.35          0.0029507153 
   2135000   250.85818     -43841.93      -49966.837     -951.16281      0.093429792    53.375         0.0037371917 
   2136000   247.63226     -43798.043     -49844.187     -618.1926       0.059367342    53.4           0.0023746937 
   2137000   244.80306     -43866.932     -49843.999     -885.57789      0.087549089    53.425         0.0035019636 
   2138000   245.25389     -43911.14      -49899.214     -889.36984      0.086995856    53.45          0.0034798343 
   2139000   251.28415     -43620.152     -49755.459     -712.74904      0.067408862    53.475         0.0026963545 
   2140000   247.19152     -43769.286     -49804.668     -827.94261      0.081874753    53.5           0.0032749901 
   2141000   248.42882     -43695.634     -49761.226     -550.03308      0.051866063    53.525         0.0020746425 
   2142000   245.37154     -43817.66      -49808.606     -550.08235      0.053744602    53.55          0.0021497841 
   2143000   251.5388      -43611.658     -49753.182     -753.94874      0.076284252    53.575         0.0030513701 
   2144000   247.52899     -43856.189     -49899.811     -741.41416      0.068980917    53.6           0.0027592367 
   2145000   249.81656     -43730.127     -49829.602     -480.35306      0.044206406    53.625         0.0017682563 
   2146000   247.05807     -43859.774     -49891.898     -742.9281       0.075132905    53.65          0.0030053162 
   2147000   249.10163     -43641.308     -49723.327     -799.54422      0.075899885    53.675         0.0030359954 
   2148000   244.79043     -43848.988     -49825.746     -810.24291      0.080189766    53.7           0.0032075906 
   2149000   251.32185     -43642.543     -49778.77      -1039.8303      0.10279059     53.725         0.0041116237 
   2150000   248.00478     -43769.615     -49824.854     -818.0493       0.080581858    53.75          0.0032232743 
   2151000   247.05415     -43935.343     -49967.372     -1101.3858      0.11024566     53.775         0.0044098263 
   2152000   253.52236     -43689.606     -49879.561     -824.43479      0.079725236    53.8           0.0031890094 
   2153000   242.34358     -43857.335     -49774.351     -637.76392      0.060263958    53.825         0.0024105583 
   2154000   248.73508     -43849.773     -49922.843     -750.92086      0.078935823    53.85          0.0031574329 
   2155000   249.87985     -43729.373     -49830.393     -981.31328      0.095530534    53.875         0.0038212214 
   2156000   246.89107     -43864.755     -49892.801     -759.05025      0.075289163    53.9           0.0030115665 
   2157000   246.95602     -43813.022     -49842.655     -921.24945      0.092563818    53.925         0.0037025527 
   2158000   247.90595     -43813.544     -49866.37      -843.28132      0.083487465    53.95          0.0033394986 
   2159000   247.67996     -43801.24      -49848.548     -341.00405      0.033935876    53.975         0.001357435  
   2160000   247.51981     -43802.205     -49845.603     -376.45574      0.036111814    54             0.0014444726 
   2161000   250.41467     -43786.671     -49900.749     -939.87709      0.093740188    54.025         0.0037496075 
   2162000   246.4378      -43806.133     -49823.113     -562.69604      0.055937403    54.05          0.0022374961 
   2163000   250.03958     -43696.684     -49801.604     -775.76307      0.075686093    54.075         0.0030274437 
   2164000   246.62241     -43873.483     -49894.971     -864.91821      0.085554051    54.1           0.0034221621 
   2165000   253.14294     -43594.034     -49774.725     -838.0269       0.085955585    54.125         0.0034382234 
   2166000   250.8546      -43809.766     -49934.586     -1251.2167      0.1260313      54.15          0.0050412522 
   2167000   248.86997     -43898.584     -49974.947     -1006.9006      0.10199148     54.175         0.0040796592 
   2168000   246.45446     -43642.454     -49659.84      -936.67412      0.089545404    54.2           0.0035818162 
   2169000   248.19064     -43828.943     -49888.719     -914.6376       0.089556751    54.225         0.0035822701 
   2170000   245.37536     -43890.127     -49881.167     -959.46453      0.092369226    54.25          0.0036947691 
   2171000   253.11517     -43601.666     -49781.679     -874.26916      0.083035963    54.275         0.0033214385 
   2172000   247.02411     -43814.4       -49845.695     -908.98107      0.087426955    54.3           0.0034970782 
   2173000   244.66257     -43842.175     -49815.811     -649.39261      0.066167333    54.325         0.0026466933 
   2174000   254.36556     -43567.407     -49777.95      -837.0521       0.08270784     54.35          0.0033083136 
   2175000   248.66438     -43890.775     -49962.118     -1017.6982      0.099025522    54.375         0.0039610209 
   2176000   248.60851     -43881.802     -49951.781     -704.00826      0.070790248    54.4           0.0028316099 
   2177000   248.99869     -43752.945     -49832.451     -1030.8276      0.096411995    54.425         0.0038564798 
   2178000   243.87022     -43970.656     -49924.946     -646.89525      0.066974381    54.45          0.0026789753 
   2179000   249.13437     -43592.795     -49675.614     -852.40884      0.087353059    54.475         0.0034941223 
   2180000   243.48661     -44022.814     -49967.738     -982.41745      0.09461745     54.5           0.003784698  
   2181000   251.69598     -43694.526     -49839.889     -923.9029       0.090495187    54.525         0.0036198075 
   2182000   246.13616     -43917.716     -49927.332     -644.87253      0.062131588    54.55          0.0024852635 
   2183000   250.1518      -43743.443     -49851.103     -632.36963      0.066616348    54.575         0.0026646539 
   2184000   246.06185     -43842.935     -49850.736     -936.27811      0.094392554    54.6           0.0037757022 
   2185000   249.75734     -43696.424     -49794.453     -730.23062      0.073353828    54.625         0.0029341531 
   2186000   245.20557     -43790.611     -49777.505     -826.20222      0.077909753    54.65          0.0031163901 
   2187000   245.95125     -43687.413     -49692.513     -632.88628      0.062188578    54.675         0.0024875431 
   2188000   243.76997     -43792.867     -49744.709     -697.7917       0.073286164    54.7           0.0029314466 
   2189000   249.17048     -43588.508     -49672.208     -884.49296      0.085985968    54.725         0.0034394387 
   2190000   245.8472      -43812.518     -49815.077     -680.22327      0.066997855    54.75          0.0026799142 
   2191000   247.22869     -43799.308     -49835.598     -867.07984      0.08833781     54.775         0.0035335124 
   2192000   248.54481     -43796.055     -49864.479     -551.58864      0.057388363    54.8           0.0022955345 
   2193000   249.25817     -43809.809     -49895.65      -988.70846      0.093125994    54.825         0.0037250398 
   2194000   247.0068      -43700.778     -49731.65      -1084.6306      0.10482281     54.85          0.0041929125 
   2195000   245.10128     -43809.001     -49793.349     -851.93826      0.082510123    54.875         0.0033004049 
   2196000   245.03993     -43827.609     -49810.459     -759.93206      0.075058853    54.9           0.0030023541 
   2197000   248.45926     -43778.201     -49844.536     -604.88155      0.062130133    54.925         0.0024852053 
   2198000   245.3381      -43852.786     -49842.915     -927.57117      0.09266515     54.95          0.003706606  
   2199000   250.45047     -43631.578     -49746.53      -908.99049      0.088430705    54.975         0.0035372282 
   2200000   246.0641      -43972.458     -49980.314     -796.19883      0.075807207    55             0.0030322883 
Loop time of 417.841 on 56 procs for 100000 steps with 12288 atoms

Performance: 20.678 ns/day, 1.161 hours/ns, 239.325 timesteps/s, 2.941 Matom-step/s
99.8% CPU use with 56 MPI tasks x no OpenMP threads

MPI task timing breakdown:
Section |  min time  |  avg time  |  max time  |%varavg| %total
---------------------------------------------------------------
Pair    | 185.27     | 192.13     | 197.57     |  17.5 | 45.98
Bond    | 0.01758    | 0.022913   | 0.031408   |   1.9 |  0.01
Kspace  | 111.06     | 115.6      | 122.05     |  22.9 | 27.67
Neigh   | 24.937     | 24.946     | 24.956     |   0.1 |  5.97
Comm    | 14.814     | 15.85      | 17.247     |  15.3 |  3.79
Output  | 0.22473    | 0.3962     | 0.5608     |  15.8 |  0.09
Modify  | 51.746     | 56.192     | 66.368     |  46.3 | 13.45
Other   |            | 12.71      |            |       |  3.04

Nlocal:        219.429 ave         237 max         203 min
Histogram: 3 2 9 9 7 4 14 2 3 3
Nghost:        7266.54 ave        7313 max        7189 min
Histogram: 1 0 6 2 10 6 7 8 8 8
Neighs:        96051.2 ave      105410 max       88785 min
Histogram: 4 8 6 8 8 9 5 3 4 1

Total # of neighbors = 5378867
Ave neighs/atom = 437.73332
Ave special neighs/atom = 2
Neighbor list builds = 2130
Dangerous builds = 0
kspace_style pppm/tip4p 1.0e-5
next nloop
jump SELF loop_start
run 100000 # 100ps
PPPM initialization ...
  extracting TIP4P info from pair style
  using 12-bit tables for long-range coulomb
  G vector (1/distance) = 0.32815664
  grid = 50 75 50
  stencil order = 5
  estimated absolute RMS force accuracy = 0.0035802102
  estimated relative force accuracy = 1.0781697e-05
  using double precision KISS FFT
  3d grid and FFT values/proc = 15776 4000
Generated 0 of 1 mixed pair_coeff terms from geometric mixing rule
Per MPI rank memory allocation (min/avg/max) = 11.21 | 11.35 | 11.45 Mbytes
   Step          Temp          TotEng         PotEng          Pxy           v_sxy         v_strain     v_viscosity  
   2200000   246.05584     -43972.746     -49980.4       -744.15258      0.070495407    55             0.0028198163 
   2201000   247.52306     -43708.491     -49751.968     -741.2849       0.079576354    55.025         0.0031830542 
   2202000   247.83243     -43705.434     -49756.465     -895.22966      0.088632662    55.05          0.0035453065 
   2203000   245.65868     -43772.175     -49770.132     -414.51907      0.041006915    55.075         0.0016402766 
   2204000   243.30043     -43911.341     -49851.72      -876.19688      0.088197686    55.1           0.0035279074 
   2205000   248.79566     -43764.782     -49839.331     -963.75575      0.09580233     55.125         0.0038320932 
   2206000   250.37927     -43686.969     -49800.183     -717.77479      0.069506906    55.15          0.0027802762 
   2207000   244.17612     -43872.602     -49834.361     -466.58306      0.043836185    55.175         0.0017534474 
   2208000   246.03525     -43763.943     -49771.094     -503.84207      0.044788516    55.2           0.0017915406 
   2209000   251.47465     -43783.895     -49923.853     -635.03141      0.063948609    55.225         0.0025579444 
   2210000   247.04615     -43789.344     -49821.177     -781.43284      0.080199356    55.25          0.0032079743 
   2211000   247.012       -43605.481     -49636.48      -787.56378      0.076324897    55.275         0.0030529959 
   2212000   245.60772     -43858.576     -49855.289     -650.98577      0.061498799    55.3           0.0024599519 
   2213000   249.55549     -43734.762     -49827.863     -942.49442      0.093806       55.325         0.00375224   
   2214000   249.24956     -43737.1       -49822.731     -801.58293      0.07932918     55.35          0.0031731672 
   2215000   250.1534      -43747.642     -49855.341     -991.52041      0.095501919    55.375         0.0038200768 
   2216000   250.61516     -43659.139     -49778.112     -942.73072      0.095071839    55.4           0.0038028736 
   2217000   247.86884     -43717.692     -49769.612     -1158.8528      0.11163873     55.425         0.0044655493 
   2218000   248.10245     -43610.374     -49667.998     -887.74665      0.087997481    55.45          0.0035198992 
   2219000   250.0286      -43702.701     -49807.353     -530.05741      0.047774616    55.475         0.0019109847 
   2220000   245.91755     -43833.674     -49837.952     -690.49523      0.068367018    55.5           0.0027346807 
   2221000   249.05327     -43722.583     -49803.421     -513.41119      0.050740612    55.525         0.0020296245 
   2222000   244.53442     -43809.382     -49779.889     -951.36094      0.090877496    55.55          0.0036350998 
   2223000   245.02004     -43780.128     -49762.492     -830.09836      0.083408582    55.575         0.0033363433 
   2224000   246.23434     -43745.581     -49757.594     -1006.217       0.098395519    55.6           0.0039358207 
   2225000   248.16681     -43918.786     -49977.981     -602.55818      0.060749056    55.625         0.0024299622 
   2226000   249.01439     -43941.927     -50021.816     -877.80876      0.08662747     55.65          0.0034650988 
   2227000   248.16577     -43887.324     -49946.494     -979.40438      0.097675017    55.675         0.0039070007 
   2228000   249.64804     -43793.679     -49889.04      -891.99083      0.087462244    55.7           0.0034984898 
   2229000   246.47603     -43873.922     -49891.835     -885.39927      0.080597809    55.725         0.0032239123 
   2230000   247.41291     -43746.999     -49787.787     -841.24594      0.083397224    55.75          0.0033358889 
   2231000   244.10168     -43828.78      -49788.722     -618.63145      0.056855111    55.775         0.0022742044 
   2232000   248.44669     -43606.766     -49672.795     -837.68569      0.086372629    55.8           0.0034549052 
   2233000   246.59523     -43840.604     -49861.428     -1263.7784      0.12813273     55.825         0.0051253092 
   2234000   252.71174     -43688.515     -49858.678     -1108.9175      0.10856088     55.85          0.004342435  
   2235000   249.60729     -43651.001     -49745.367     -739.74227      0.070144639    55.875         0.0028057856 
   2236000   246.76247     -43902.524     -49927.431     -862.94125      0.087340382    55.9           0.0034936153 
   2237000   248.73253     -43713.391     -49786.399     -1038.011       0.099704347    55.925         0.0039881739 
   2238000   249.15125     -43788.677     -49871.908     -652.61681      0.063688661    55.95          0.0025475464 
   2239000   244.23875     -43875.473     -49838.761     -455.59319      0.047516135    55.975         0.0019006454 
   2240000   245.77071     -43709.647     -49710.34      -859.67119      0.084336047    56             0.0033734419 
   2241000   250.51384     -43762.347     -49878.847     -641.48148      0.065325221    56.025         0.0026130088 
   2242000   247.65644     -43660.328     -49707.062     -813.12762      0.081663865    56.05          0.0032665546 
   2243000   249.63788     -43730.932     -49826.044     -440.94513      0.045042702    56.075         0.0018017081 
   2244000   246.12288     -43717.597     -49726.888     -604.87661      0.06020066     56.1           0.0024080264 
   2245000   248.65513     -43554.021     -49625.139     -714.10955      0.070378289    56.125         0.0028151316 
   2246000   249.58767     -43693.29      -49787.176     -721.75357      0.077231966    56.15          0.0030892786 
   2247000   250.85681     -43562.816     -49687.69      -649.17185      0.063574523    56.175         0.0025429809 
   2248000   249.8393      -43716.863     -49816.893     -862.90397      0.081459702    56.2           0.0032583881 
   2249000   245.79892     -43736.779     -49738.16      -1034.0059      0.10444665     56.225         0.0041778658 
   2250000   247.86925     -43775.296     -49827.226     -886.64055      0.08838897     56.25          0.0035355588 
   2251000   246.58322     -43787.088     -49807.618     -592.88378      0.058169028    56.275         0.0023267611 
   2252000   247.51706     -43785.272     -49828.603     -763.50638      0.072462721    56.3           0.0028985088 
   2253000   247.76712     -43720.413     -49769.85      -812.18823      0.077622457    56.325         0.0031048983 
   2254000   248.27425     -43824.627     -49886.445     -870.24879      0.086806588    56.35          0.0034722635 
   2255000   250.77876     -43671.058     -49794.026     -647.93518      0.06565122     56.375         0.0026260488 
   2256000   251.98609     -43568.408     -49720.854     -694.46208      0.065865268    56.4           0.0026346107 
   2257000   245.22911     -43832.175     -49819.644     -596.00929      0.062204941    56.425         0.0024881976 
   2258000   248.77548     -43599.436     -49673.493     -677.26807      0.066651141    56.45          0.0026660457 
   2259000   245.06742     -44008.703     -49992.223     -1186.5013      0.12021224     56.475         0.0048084896 
   2260000   247.18657     -43714.036     -49749.298     -756.57648      0.075174513    56.5           0.0030069805 
   2261000   250.34322     -43732.039     -49844.373     -793.5194       0.078259677    56.525         0.0031303871 
   2262000   249.51536     -43665.965     -49758.086     -788.67496      0.082207752    56.55          0.0032883101 
   2263000   248.42462     -43852.525     -49918.014     -1135.5836      0.10996591     56.575         0.0043986364 
   2264000   245.22828     -43915.43      -49902.879     -965.42455      0.088873569    56.6           0.0035549428 
   2265000   242.48689     -43936.031     -49856.546     -1039.7839      0.10511228     56.625         0.004204491  
   2266000   246.68146     -43854.901     -49877.83      -640.80747      0.062900972    56.65          0.0025160389 
   2267000   247.58424     -43780.081     -49825.052     -1216.0743      0.12116468     56.675         0.0048465872 
   2268000   250.57278     -43801.402     -49919.341     -1074.7464      0.10368052     56.7           0.0041472207 
   2269000   249.70201     -43762.707     -49859.385     -961.73126      0.09574343     56.725         0.0038297372 
   2270000   247.52467     -43854.367     -49897.883     -749.07824      0.074358376    56.75          0.002974335  
   2271000   248.96637     -43795.152     -49873.869     -639.40723      0.061890591    56.775         0.0024756236 
   2272000   248.5264      -43861.646     -49929.621     -991.25031      0.095302908    56.8           0.0038121163 
   2273000   248.88519     -43781.114     -49857.849     -1030.8496      0.10337996     56.825         0.0041351982 
   2274000   245.57513     -43959.104     -49955.021     -923.30969      0.090998889    56.85          0.0036399556 
   2275000   248.74401     -43863.108     -49936.396     -882.06944      0.088486023    56.875         0.0035394409 
   2276000   245.39427     -43813.865     -49805.366     -815.78503      0.081504505    56.9           0.0032601802 
   2277000   248.32251     -43741.007     -49804.004     -712.00572      0.069599031    56.925         0.0027839612 
   2278000   249.26715     -43897.109     -49983.169     -798.57931      0.083376364    56.95          0.0033350546 
   2279000   248.79454     -44021.274     -50095.796     -1007.0381      0.099444095    56.975         0.0039777638 
   2280000   247.64089     -44043.56      -50089.914     -818.02749      0.076095665    57             0.0030438266 
   2281000   249.08276     -43882.602     -49964.161     -1038.4097      0.10239287     57.025         0.0040957148 
   2282000   241.94877     -43920.803     -49828.179     -727.46875      0.069329529    57.05          0.0027731811 
   2283000   248.41312     -43802.996     -49868.204     -839.33748      0.081309368    57.075         0.0032523747 
   2284000   247.13305     -43917.701     -49951.656     -1061.0712      0.10813443     57.1           0.0043253771 
   2285000   245.23551     -43865.121     -49852.745     -1089.1199      0.1068621      57.125         0.0042744839 
   2286000   246.63736     -43699.141     -49720.993     -924.05825      0.088959583    57.15          0.0035583833 
   2287000   248.86608     -43846.648     -49922.917     -948.49772      0.091695627    57.175         0.0036678251 
   2288000   245.41542     -43917.226     -49909.243     -875.2659       0.084564495    57.2           0.0033825798 
   2289000   245.5494      -43859.096     -49854.385     -935.49859      0.090102711    57.225         0.0036041085 
   2290000   245.63563     -43850.499     -49847.893     -1119.5948      0.10377187     57.25          0.0041508747 
   2291000   249.19329     -43663.425     -49747.682     -866.52536      0.085496285    57.275         0.0034198514 
   2292000   247.12181     -43730.82      -49764.5       -694.7728       0.073174093    57.3           0.0029269637 
   2293000   250.26216     -43643.422     -49753.777     -850.3126       0.082480222    57.325         0.0032992089 
   2294000   247.43443     -43752.583     -49793.897     -553.41013      0.05245485     57.35          0.002098194  
   2295000   245.04338     -43794.723     -49777.657     -569.66309      0.052812172    57.375         0.0021124869 
   2296000   245.7681      -43637.29      -49637.919     -1082.4093      0.10725738     57.4           0.0042902951 
   2297000   249.18859     -43687.901     -49772.044     -935.0182       0.088774663    57.425         0.0035509865 
   2298000   251.38787     -43589.942     -49727.782     -729.15597      0.068986834    57.45          0.0027594734 
   2299000   246.0173      -43790.704     -49797.417     -753.35457      0.072581714    57.475         0.0029032686 
   2300000   248.09729     -43691.945     -49749.443     -774.62711      0.074596008    57.5           0.0029838403 
Loop time of 488.025 on 56 procs for 100000 steps with 12288 atoms

Performance: 17.704 ns/day, 1.356 hours/ns, 204.907 timesteps/s, 2.518 Matom-step/s
99.8% CPU use with 56 MPI tasks x no OpenMP threads

MPI task timing breakdown:
Section |  min time  |  avg time  |  max time  |%varavg| %total
---------------------------------------------------------------
Pair    | 189.02     | 194.39     | 200.56     |  17.6 | 39.83
Bond    | 0.02024    | 0.025791   | 0.035185   |   2.1 |  0.01
Kspace  | 149.28     | 156.33     | 161.73     |  22.5 | 32.03
Neigh   | 24.811     | 24.822     | 24.834     |   0.1 |  5.09
Comm    | 15.86      | 17.513     | 19.481     |  22.2 |  3.59
Output  | 0.22782    | 0.39868    | 0.56286    |  15.7 |  0.08
Modify  | 73.977     | 79.754     | 92.053     |  51.3 | 16.34
Other   |            | 14.78      |            |       |  3.03

Nlocal:        219.429 ave         240 max         201 min
Histogram: 1 4 8 7 10 11 7 5 1 2
Nghost:        6852.86 ave        6919 max        6781 min
Histogram: 1 3 5 6 7 16 9 4 3 2
Neighs:        96030.7 ave      105244 max       88059 min
Histogram: 4 2 8 8 8 12 5 6 1 2

Total # of neighbors = 5377718
Ave neighs/atom = 437.63981
Ave special neighs/atom = 2
Neighbor list builds = 2123
Dangerous builds = 0
kspace_style pppm/tip4p 1.0e-5
next nloop
jump SELF loop_start
run 100000 # 100ps
PPPM initialization ...
  extracting TIP4P info from pair style
  using 12-bit tables for long-range coulomb
  G vector (1/distance) = 0.32815664
  grid = 50 50 50
  stencil order = 5
  estimated absolute RMS force accuracy = 0.0035802102
  estimated relative force accuracy = 1.0781697e-05
  using double precision KISS FFT
  3d grid and FFT values/proc = 11424 2800
Generated 0 of 1 mixed pair_coeff terms from geometric mixing rule
Per MPI rank memory allocation (min/avg/max) = 10.92 | 11.04 | 11.12 Mbytes
   Step          Temp          TotEng         PotEng          Pxy           v_sxy         v_strain     v_viscosity  
   2300000   248.09815     -43691.777     -49749.295     -733.70784      0.0703651      57.5           0.002814604  
   2301000   246.56033     -43939.01      -49958.981     -739.67207      0.075704868    57.525         0.0030281947 
   2302000   248.22344     -43767.082     -49827.66      -870.41355      0.087616341    57.55          0.0035046537 
   2303000   247.43527     -43831.366     -49872.7       -748.07032      0.073910218    57.575         0.0029564087 
   2304000   249.94549     -43686.584     -49789.207     -677.20263      0.066776382    57.6           0.0026710553 
   2305000   244.16465     -43882.285     -49843.764     -992.56961      0.099407156    57.625         0.0039762862 
   2306000   245.68248     -43790.072     -49788.61      -953.30205      0.09672709     57.65          0.0038690836 
   2307000   247.57549     -43953.77      -49998.527     -1082.2275      0.1063145      57.675         0.0042525799 
   2308000   248.4363      -43822.509     -49888.284     -1023.2886      0.097622877    57.7           0.0039049151 
   2309000   249.28916     -43750.875     -49837.473     -1107.5777      0.11060026     57.725         0.0044240105 
   2310000   246.3699      -43943.925     -49959.247     -843.49274      0.08339311     57.75          0.0033357244 
   2311000   243.20748     -43654.598     -49592.707     -861.14394      0.088104129    57.775         0.0035241652 
   2312000   244.47276     -43900.858     -49869.859     -894.55603      0.088331891    57.8           0.0035332756 
   2313000   248.69891     -43920.02      -49992.206     -728.72462      0.073381333    57.825         0.0029352533 
   2314000   247.72731     -43724.154     -49772.618     -763.5364       0.077026703    57.85          0.0030810681 
   2315000   247.36206     -43926.302     -49965.848     -339.23065      0.036289261    57.875         0.0014515704 
   2316000   250.56707     -43757.234     -49875.033     -833.3513       0.082794404    57.9           0.0033117762 
   2317000   245.56685     -43847.326     -49843.041     -864.04859      0.085112831    57.925         0.0034045133 
   2318000   248.06533     -43734.524     -49791.241     -602.23448      0.059716535    57.95          0.0023886614 
   2319000   250.94538     -43664.248     -49791.284     -975.04621      0.09719464     57.975         0.0038877856 
   2320000   246.23431     -43833.073     -49845.085     -1081.6842      0.10924853     58             0.0043699413 
   2321000   245.3772      -43802.915     -49793.999     -929.06058      0.091905224    58.025         0.003676209  
   2322000   247.71331     -43793.47      -49841.592     -652.45245      0.064630208    58.05          0.0025852083 
   2323000   248.29743     -43897.85      -49960.235     -1007.1698      0.099321465    58.075         0.0039728586 
   2324000   250.21362     -43917.27      -50026.439     -841.92848      0.081844963    58.1           0.0032737985 
   2325000   247.33889     -43837.117     -49876.097     -931.65945      0.096604709    58.125         0.0038641884 
   2326000   248.14663     -43717.728     -49776.43      -759.31745      0.073212908    58.15          0.0029285163 
   2327000   249.45264     -43678.328     -49768.917     -825.66128      0.083186017    58.175         0.0033274407 
   2328000   243.30556     -43923.059     -49863.562     -737.49069      0.069920322    58.2           0.0027968129 
   2329000   248.25917     -43774.12      -49835.57      -1105.1437      0.10365967     58.225         0.0041463867 
   2330000   245.64443     -43944.198     -49941.807     -753.91934      0.073052255    58.25          0.0029220902 
   2331000   253.08887     -43682.839     -49862.21      -523.18089      0.049239742    58.275         0.0019695897 
   2332000   246.51852     -43884.339     -49903.29      -552.34551      0.054871575    58.3           0.002194863  
   2333000   247.86729     -43872.256     -49924.138     -941.73663      0.092245775    58.325         0.003689831  
   2334000   245.59541     -43964.454     -49960.867     -928.68339      0.088902294    58.35          0.0035560918 
   2335000   243.8092      -43856.815     -49809.615     -1116.9833      0.10966989     58.375         0.0043867957 
   2336000   247.72165     -43853.421     -49901.747     -956.62727      0.095927226    58.4           0.003837089  
   2337000   249.91199     -43952.701     -50054.506     -1144.8101      0.11192186     58.425         0.0044768746 
   2338000   247.19837     -43814.289     -49849.839     -708.74931      0.071638421    58.45          0.0028655368 
   2339000   247.80869     -43835.629     -49886.08      -956.89329      0.092605839    58.475         0.0037042336 
   2340000   244.66425     -43829.378     -49803.055     -1065.6916      0.10531899     58.5           0.0042127595 
   2341000   249.2149      -43662.113     -49746.898     -724.32099      0.070034234    58.525         0.0028013694 
   2342000   245.00154     -43873.537     -49855.449     -1103.0942      0.11164069     58.55          0.0044656274 
   2343000   248.63773     -43989.077     -50059.77      -638.40136      0.062646391    58.575         0.0025058557 
   2344000   254.14298     -43688.793     -49893.9       -707.89235      0.070461068    58.6           0.0028184427 
   2345000   245.80348     -43854.2       -49855.693     -1049.5934      0.10470524     58.625         0.0041882098 
   2346000   253.15946     -43769.98      -49951.075     -1177.9015      0.11529329     58.65          0.0046117317 
   2347000   251.07262     -43823.996     -49954.139     -645.3354       0.061926739    58.675         0.0024770696 
   2348000   242.39414     -44040.465     -49958.716     -967.10151      0.091028037    58.7           0.0036411215 
   2349000   250.58579     -43583.14      -49701.396     -1166.0891      0.1139386      58.725         0.0045575441 
   2350000   245.68591     -43936.575     -49935.196     -1038.3379      0.099595167    58.75          0.0039838067 
   2351000   253.62778     -43605.783     -49798.312     -795.85279      0.073702009    58.775         0.0029480804 
   2352000   248.95672     -43745.186     -49823.667     -1213.0013      0.11859811     58.8           0.0047439243 
   2353000   252.4247      -43770.742     -49933.897     -879.07968      0.086658166    58.825         0.0034663266 
   2354000   247.38501     -43959.535     -49999.642     -932.65512      0.091803729    58.85          0.0036721492 
   2355000   248.63692     -43730.702     -49801.375     -569.29731      0.059174699    58.875         0.002366988  
   2356000   248.85347     -43951.077     -50027.037     -679.89779      0.066964473    58.9           0.0026785789 
   2357000   245.87929     -43863.563     -49866.906     -447.98733      0.042373319    58.925         0.0016949328 
   2358000   248.4822      -43773.563     -49840.459     -769.76356      0.076673244    58.95          0.0030669298 
   2359000   245.46121     -43765.106     -49758.242     -766.18396      0.07423626     58.975         0.0029694504 
   2360000   246.66425     -43577.499     -49600.008     -539.2294       0.054533637    59             0.0021813455 
   2361000   248.35333     -43763.811     -49827.56      -1095.5066      0.10859507     59.025         0.0043438027 
   2362000   251.89794     -43748.138     -49898.431     -789.72003      0.079185297    59.05          0.0031674119 
   2363000   247.0855      -43754.912     -49787.706     -598.15491      0.062905136    59.075         0.0025162055 
   2364000   249.75323     -43852.548     -49950.477     -963.73307      0.093145635    59.1           0.0037258254 
   2365000   249.76647     -43756.55      -49854.802     -944.88918      0.09540604     59.125         0.0038162416 
   2366000   248.40019     -43670.438     -49735.331     -899.45533      0.090697136    59.15          0.0036278855 
   2367000   248.36507     -43651.093     -49715.128     -456.70793      0.045144571    59.175         0.0018057828 
   2368000   251.44285     -43608.807     -49747.989     -833.10044      0.080417858    59.2           0.0032167143 
   2369000   247.98163     -43801.299     -49855.973     -515.60833      0.047611004    59.225         0.0019044401 
   2370000   245.57648     -43835.933     -49831.883     -677.70901      0.07039149     59.25          0.0028156596 
   2371000   248.78453     -43742.945     -49817.222     -404.67235      0.039251701    59.275         0.001570068  
   2372000   248.64891     -43822.593     -49893.558     -941.84492      0.093276459    59.3           0.0037310584 
   2373000   250.09336     -43733.408     -49839.641     -548.24431      0.052630012    59.325         0.0021052005 
   2374000   250.84962     -43779.247     -49903.945     -1065.117       0.10417891     59.35          0.0041671565 
   2375000   245.24967     -43838.729     -49826.7       -1000.5309      0.098425717    59.375         0.0039370287 
   2376000   244.30622     -43890.011     -49854.946     -748.99097      0.072329381    59.4           0.0028931752 
   2377000   250.95209     -43560.734     -49687.934     -869.90542      0.084749118    59.425         0.0033899647 
   2378000   247.99272     -43767.38      -49822.325     -816.84686      0.080226902    59.45          0.0032090761 
   2379000   249.67415     -43736.006     -49832.004     -955.53191      0.097206983    59.475         0.0038882793 
   2380000   248.08928     -43804.823     -49862.125     -609.68795      0.061877716    59.5           0.0024751086 
   2381000   242.22057     -43793.027     -49707.039     -1116.9461      0.10973747     59.525         0.0043894987 
   2382000   249.30449     -43762.408     -49849.38      -915.23634      0.087341699    59.55          0.003493668  
   2383000   247.52737     -43716.255     -49759.837     -594.80614      0.058796779    59.575         0.0023518712 
   2384000   243.89284     -43816.565     -49771.408     -1128.6431      0.11423825     59.6           0.00456953   
   2385000   248.53359     -43575.755     -49643.906     -1209.8008      0.12210996     59.625         0.0048843982 
   2386000   245.92131     -43621.852     -49626.222     -871.36812      0.084106165    59.65          0.0033642466 
   2387000   247.57586     -43777.346     -49822.112     -419.59543      0.042401497    59.675         0.0016960599 
   2388000   249.84123     -43720.843     -49820.921     -782.34399      0.079397376    59.7           0.003175895  
   2389000   246.00081     -43771.194     -49777.505     -337.35152      0.032703242    59.725         0.0013081297 
   2390000   245.56256     -43883.352     -49878.962     -774.17464      0.076073192    59.75          0.0030429277 
   2391000   245.65359     -43714.767     -49712.6       -794.81348      0.075310576    59.775         0.003012423  
   2392000   246.42586     -43782.693     -49799.381     -945.22316      0.095107835    59.8           0.0038043134 
   2393000   247.71932     -43676.001     -49724.27      -728.44202      0.073488784    59.825         0.0029395513 
   2394000   246.05779     -43792.312     -49800.014     -862.10606      0.088534049    59.85          0.0035413619 
   2395000   249.64982     -43709.268     -49804.672     -657.78206      0.065090824    59.875         0.002603633  
   2396000   247.16852     -43911.202     -49946.023     -403.89998      0.041488513    59.9           0.0016595405 
   2397000   248.77795     -43868.721     -49942.837     -850.00896      0.08426021     59.925         0.0033704084 
   2398000   247.12899     -43727.8       -49761.656     -724.9497       0.07332085     59.95          0.002932834  
   2399000   249.48652     -43763.55      -49854.966     -827.73028      0.07850831     59.975         0.0031403324 
   2400000   247.63175     -43858.739     -49904.87      -645.97731      0.064730817    60             0.0025892327 
Loop time of 418.003 on 56 procs for 100000 steps with 12288 atoms

Performance: 20.670 ns/day, 1.161 hours/ns, 239.233 timesteps/s, 2.940 Matom-step/s
99.8% CPU use with 56 MPI tasks x no OpenMP threads

MPI task timing breakdown:
Section |  min time  |  avg time  |  max time  |%varavg| %total
---------------------------------------------------------------
Pair    | 185.75     | 192.01     | 196.31     |  16.9 | 45.93
Bond    | 0.017363   | 0.022542   | 0.029759   |   1.9 |  0.01
Kspace  | 111.45     | 116.15     | 122.5      |  22.4 | 27.79
Neigh   | 24.745     | 24.753     | 24.761     |   0.1 |  5.92
Comm    | 14.901     | 15.834     | 17.299     |  15.9 |  3.79
Output  | 0.22516    | 0.39674    | 0.56203    |  15.8 |  0.09
Modify  | 52.136     | 56.237     | 66.398     |  45.9 | 13.45
Other   |            | 12.61      |            |       |  3.02

Nlocal:        219.429 ave         244 max         187 min
Histogram: 1 0 1 6 8 15 13 7 4 1
Nghost:        7271.96 ave        7372 max        7178 min
Histogram: 2 7 5 7 9 11 5 3 3 4
Neighs:        96090.1 ave      109362 max       80431 min
Histogram: 1 0 1 9 12 14 10 7 1 1

Total # of neighbors = 5381048
Ave neighs/atom = 437.91081
Ave special neighs/atom = 2
Neighbor list builds = 2120
Dangerous builds = 0
kspace_style pppm/tip4p 1.0e-5
next nloop
jump SELF loop_start
run 100000 # 100ps
PPPM initialization ...
  extracting TIP4P info from pair style
  using 12-bit tables for long-range coulomb
  G vector (1/distance) = 0.32815664
  grid = 50 75 50
  stencil order = 5
  estimated absolute RMS force accuracy = 0.0035802102
  estimated relative force accuracy = 1.0781697e-05
  using double precision KISS FFT
  3d grid and FFT values/proc = 15776 4000
Generated 0 of 1 mixed pair_coeff terms from geometric mixing rule
Per MPI rank memory allocation (min/avg/max) = 11.21 | 11.35 | 11.45 Mbytes
   Step          Temp          TotEng         PotEng          Pxy           v_sxy         v_strain     v_viscosity  
   2400000   247.6338      -43858.585     -49904.766     -585.45854      0.058585778    60             0.0023434311 
   2401000   252.14032     -43727.654     -49883.865     -910.27699      0.089924947    60.025         0.0035969979 
   2402000   250.58462     -43707.64      -49825.868     -723.73317      0.073150107    60.05          0.0029260043 
   2403000   244.52627     -43889.204     -49859.512     -995.07247      0.099441363    60.075         0.0039776545 
   2404000   248.17322     -43798.128     -49857.479     -665.00282      0.063623901    60.1           0.002544956  
   2405000   245.37485     -43852.767     -49843.794     -977.07725      0.10066724     60.125         0.0040266894 
   2406000   249.44506     -43921.4       -50011.804     -693.03535      0.065787004    60.15          0.0026314802 
   2407000   245.40355     -44050.277     -50042.005     -573.11942      0.057168367    60.175         0.0022867347 
   2408000   247.20276     -43938.216     -49973.873     -659.15603      0.06900502     60.2           0.0027602008 
   2409000   248.34571     -43810.245     -49873.808     -648.1238       0.061630616    60.225         0.0024652247 
   2410000   243.85375     -44095.714     -50049.602     -763.56789      0.07756343     60.25          0.0031025372 
   2411000   251.49149     -43728.004     -49868.374     -591.9673       0.056582151    60.275         0.002263286  
   2412000   247.41297     -43924.108     -49964.897     -1167.8883      0.11299161     60.3           0.0045196644 
   2413000   248.81713     -43784.646     -49859.719     -1078.3481      0.10641656     60.325         0.0042566622 
   2414000   249.78127     -43876.203     -49974.817     -1125.0364      0.10704265     60.35          0.0042817062 
   2415000   244.43901     -43873.775     -49841.953     -1237.5042      0.12266541     60.375         0.0049066165 
   2416000   249.8831      -43850.97      -49952.07      -793.23977      0.079106789    60.4           0.0031642716 
   2417000   246.57986     -43885.2       -49905.648     -790.23722      0.077749559    60.425         0.0031099824 
   2418000   248.00008     -43828.911     -49884.035     -757.11003      0.072238281    60.45          0.0028895312 
   2419000   249.8082      -43771.008     -49870.278     -595.0339       0.056454251    60.475         0.00225817   
   2420000   245.4007      -43926.154     -49917.812     -751.73698      0.070330876    60.5           0.0028132351 
   2421000   248.7312      -43676.394     -49749.369     -740.89836      0.075189276    60.525         0.003007571  
   2422000   246.35019     -43837.884     -49852.725     -656.84598      0.06063179     60.55          0.0024252716 
   2423000   248.8067      -43853.528     -49928.346     -642.4095       0.061151051    60.575         0.002446042  
   2424000   247.32985     -43751.876     -49790.636     -653.95249      0.065784479    60.6           0.0026313792 
   2425000   250.44319     -43716.907     -49831.682     -1090.4598      0.11020152     60.625         0.0044080609 
   2426000   245.24672     -44020.903     -50008.801     -731.00477      0.070327455    60.65          0.0028130982 
   2427000   248.84507     -43735.796     -49811.552     -792.00766      0.073599196    60.675         0.0029439678 
   2428000   246.20141     -43811.965     -49823.173     -878.73691      0.090654698    60.7           0.0036261879 
   2429000   244.13278     -43743.361     -49704.062     -721.68573      0.072058733    60.725         0.0028823493 
   2430000   250.31358     -43625.423     -49737.033     -928.9814       0.088609199    60.75          0.0035443679 
   2431000   248.45936     -43851.166     -49917.503     -678.19065      0.067258652    60.775         0.0026903461 
   2432000   249.23234     -43906.373     -49991.584     -613.2763       0.060817402    60.8           0.0024326961 
   2433000   245.55073     -43919.535     -49914.857     -830.62709      0.08288407     60.825         0.0033153628 
   2434000   251.18559     -43778.59      -49911.491     -822.07786      0.082218446    60.85          0.0032887378 
   2435000   248.19336     -43999.133     -50058.976     -957.75086      0.094355849    60.875         0.003774234  
   2436000   251.66547     -43827.871     -49972.488     -1088.3325      0.10716218     60.9           0.0042864871 
   2437000   245.34916     -43863.696     -49854.096     -713.56784      0.072685738    60.925         0.0029074295 
   2438000   248.7535      -43814.641     -49888.16      -830.81325      0.080246257    60.95          0.0032098503 
   2439000   250.13013     -43868.644     -49975.775     -704.91066      0.069925547    60.975         0.0027970219 
   2440000   247.37306     -43861.524     -49901.339     -913.1663       0.089824195    61             0.0035929678 
   2441000   247.44808     -43920.787     -49962.433     -607.70606      0.057279328    61.025         0.0022911731 
   2442000   249.51091     -43869.045     -49961.057     -1236.1005      0.12289886     61.05          0.0049159544 
   2443000   250.91879     -43782.318     -49908.705     -627.73149      0.064594676    61.075         0.0025837871 
   2444000   245.04372     -43937.153     -49920.095     -444.68331      0.045277642    61.1           0.0018111057 
   2445000   245.77932     -43989.47      -49990.373     -631.20729      0.063816016    61.125         0.0025526407 
   2446000   248.00297     -44026.756     -50081.951     -908.72758      0.087346431    61.15          0.0034938572 
   2447000   247.0706      -43974.197     -50006.627     -706.86208      0.068771191    61.175         0.0027508476 
   2448000   242.5766      -43985.48      -49908.185     -663.27523      0.062937516    61.2           0.0025175006 
   2449000   248.63705     -43929.37      -50000.047     -636.48196      0.058500038    61.225         0.0023400015 
   2450000   247.12985     -43809.071     -49842.948     -806.97588      0.078365195    61.25          0.0031346078 
   2451000   245.02355     -43987.091     -49969.54      -645.77777      0.060789921    61.275         0.0024315968 
   2452000   246.93386     -43960.754     -49989.845     -737.88602      0.074179856    61.3           0.0029671942 
   2453000   247.71225     -43934.164     -49982.26      -1006.7333      0.098650801    61.325         0.003946032  
   2454000   245.42413     -43795.373     -49787.603     -893.00059      0.084526581    61.35          0.0033810633 
   2455000   247.88553     -43834.718     -49887.045     -865.66092      0.08488428     61.375         0.0033953712 
   2456000   245.59754     -43878.192     -49874.657     -811.11954      0.07243019     61.4           0.0028972076 
   2457000   252.47171     -43592.122     -49756.424     -841.36291      0.081203666    61.425         0.0032481467 
   2458000   243.95328     -43918.34      -49874.658     -1006.3991      0.097972462    61.45          0.0039188985 
   2459000   249.26334     -43882.855     -49968.822     -921.15802      0.091376091    61.475         0.0036550436 
   2460000   246.93303     -43782.958     -49812.029     -898.35616      0.087445398    61.5           0.0034978159 
   2461000   246.92141     -43823.293     -49852.08      -458.95439      0.044803627    61.525         0.0017921451 
   2462000   248.60658     -43741.639     -49811.571     -1098.0252      0.11134506     61.55          0.0044538024 
   2463000   246.08664     -43740.923     -49749.329     -579.491        0.056477388    61.575         0.0022590955 
   2464000   249.77781     -43659.995     -49758.524     -773.49849      0.078130548    61.6           0.0031252219 
   2465000   245.82161     -43849.853     -49851.788     -757.01034      0.073623621    61.625         0.0029449449 
   2466000   242.66656     -43936.399     -49861.301     -858.6988       0.082851191    61.65          0.0033140476 
   2467000   244.70277     -43760.655     -49735.273     -651.13918      0.05907831     61.675         0.0023631324 
   2468000   250.03265     -43583.127     -49687.878     -687.3834       0.069271829    61.7           0.0027708732 
   2469000   246.66557     -43683.35      -49705.891     -951.01744      0.091866827    61.725         0.0036746731 
   2470000   246.70938     -43725.26      -49748.871     -665.11759      0.066942778    61.75          0.0026777111 
   2471000   252.90161     -43723.208     -49898.007     -892.71411      0.085039872    61.775         0.0034015949 
   2472000   245.74859     -43877.491     -49877.643     -734.72151      0.075573854    61.8           0.0030229542 
   2473000   248.75498     -43735.443     -49808.999     -877.61011      0.086618592    61.825         0.0034647437 
   2474000   248.1465      -43787.483     -49846.182     -626.90883      0.062297909    61.85          0.0024919164 
   2475000   246.20496     -43945.533     -49956.828     -535.42289      0.04842033     61.875         0.0019368132 
   2476000   250.8385      -43711.003     -49835.429     -809.58753      0.079983088    61.9           0.0031993235 
   2477000   247.88308     -43830.149     -49882.417     -858.57994      0.084014464    61.925         0.0033605786 
   2478000   251.16186     -43751.306     -49883.627     -639.2484       0.066729564    61.95          0.0026691826 
   2479000   247.12186     -43876.189     -49909.871     -599.84803      0.06085129     61.975         0.0024340516 
   2480000   249.90374     -43687.77      -49789.373     -531.69583      0.051636087    62             0.0020654435 
   2481000   246.63498     -43928.828     -49950.622     -495.31993      0.050893629    62.025         0.0020357451 
   2482000   249.36874     -43705.15      -49793.691     -771.13739      0.071331058    62.05          0.0028532423 
   2483000   246.69483     -43925.656     -49948.911     -777.40126      0.074312417    62.075         0.0029724967 
   2484000   250.84594     -43758.116     -49882.724     -817.09263      0.080933157    62.1           0.0032373263 
   2485000   249.20585     -43720.178     -49804.742     -510.17963      0.048761908    62.125         0.0019504763 
   2486000   243.79602     -43819.333     -49771.811     -909.48052      0.091542049    62.15          0.003661682  
   2487000   251.6239      -43723.132     -49866.735     -834.39032      0.085773848    62.175         0.0034309539 
   2488000   246.71765     -43805.336     -49829.149     -699.16986      0.069331831    62.2           0.0027732732 
   2489000   247.45245     -43697.613     -49739.366     -897.63039      0.088018348    62.225         0.0035207339 
   2490000   247.49189     -43851.287     -49894.003     -573.1863       0.054537136    62.25          0.0021814854 
   2491000   247.57725     -43771.306     -49816.106     -785.66136      0.080935198    62.275         0.0032374079 
   2492000   246.08718     -43939.446     -49947.865     -982.64239      0.095853893    62.3           0.0038341557 
   2493000   249.50914     -43757.888     -49849.857     -839.88454      0.08243171     62.325         0.0032972684 
   2494000   241.49978     -43909.616     -49806.03      -834.45919      0.083093828    62.35          0.0033237531 
   2495000   247.32529     -43877.036     -49915.685     -977.5345       0.098526094    62.375         0.0039410438 
   2496000   246.94894     -43761.991     -49791.451     -1269.3808      0.12292237     62.4           0.0049168946 
   2497000   252.40478     -43740.178     -49902.846     -1126.8422      0.11315014     62.425         0.0045260056 
   2498000   248.5538      -43690.785     -49759.428     -683.3945       0.065943886    62.45          0.0026377554 
   2499000   249.84986     -43747.43      -49847.718     -613.51925      0.061204506    62.475         0.0024481802 
   2500000   244.32135     -43952.094     -49917.399     -531.83454      0.053591285    62.5           0.0021436514 
Loop time of 487.19 on 56 procs for 100000 steps with 12288 atoms

Performance: 17.734 ns/day, 1.353 hours/ns, 205.259 timesteps/s, 2.522 Matom-step/s
99.8% CPU use with 56 MPI tasks x no OpenMP threads

MPI task timing breakdown:
Section |  min time  |  avg time  |  max time  |%varavg| %total
---------------------------------------------------------------
Pair    | 189.02     | 194.44     | 198.64     |  15.6 | 39.91
Bond    | 0.019843   | 0.025686   | 0.034875   |   2.0 |  0.01
Kspace  | 149.71     | 155.53     | 161.97     |  20.5 | 31.92
Neigh   | 24.646     | 24.656     | 24.666     |   0.1 |  5.06
Comm    | 15.761     | 17.576     | 19.682     |  23.0 |  3.61
Output  | 0.22609    | 0.39698    | 0.56085    |  15.7 |  0.08
Modify  | 73.795     | 79.729     | 92.095     |  52.0 | 16.37
Other   |            | 14.84      |            |       |  3.05

Nlocal:        219.429 ave         245 max         205 min
Histogram: 2 10 8 12 10 8 3 2 0 1
Nghost:         6850.8 ave        6917 max        6790 min
Histogram: 1 4 11 8 10 5 4 8 2 3
Neighs:        96049.7 ave      108509 max       89397 min
Histogram: 3 10 13 7 12 6 2 2 0 1

Total # of neighbors = 5378783
Ave neighs/atom = 437.72648
Ave special neighs/atom = 2
Neighbor list builds = 2122
Dangerous builds = 0
kspace_style pppm/tip4p 1.0e-5
next nloop
jump SELF loop_start
# run ${Ttotal}
# variable nloop loop ${nloops}
# label loop_start
# run ${stepsPerReset}
# kspace_style pppm/tip4p 1.0e-5
# next nloop
# jump SELF loop_start
Total wall time: 3:02:50
