LAMMPS (22 Jul 2025 - Update 1)
units real
atom_style full
boundary p p p

pair_style lj/cut/tip4p/long 1 2 1 1 0.1546 9.5
bond_style zero
angle_style zero
pair_modify tail yes

read_data data_225.data
Reading data file ...
  triclinic box = (-0.20081916 -0.20081916 -0.20081916) to (49.991339 49.991339 49.991339) with tilt (0 0 0)
  2 by 4 by 7 MPI processor grid
  reading atoms ...
  12288 atoms
  reading velocities ...
  12288 velocities
  scanning bonds ...
  2 = max bonds/atom
  scanning angles ...
  1 = max angles/atom
  triclinic box = (-0.20081916 -0.20081916 -0.20081916) to (49.991339 49.991339 49.991339) with tilt (0 0 0)
  2 by 4 by 7 MPI processor grid
  reading bonds ...
  8192 bonds
  reading angles ...
  4096 angles
Finding 1-2 1-3 1-4 neighbors ...
  special bond factors lj:    0        0        0       
  special bond factors coul:  0        0        0       
     2 = max # of 1-2 neighbors
     1 = max # of 1-3 neighbors
     1 = max # of 1-4 neighbors
     2 = max # of special neighbors
  special bonds CPU = 0.005 seconds
  read_data CPU = 0.176 seconds
print "Equilibrium configuration loaded from NPT run"
Equilibrium configuration loaded from NPT run

kspace_style pppm/tip4p 1.0e-5
pair_coeff 1 1 0.18521 3.1589 #O-O
pair_coeff * 2 0.0 0.0 #O-H/H-H
bond_coeff 1 0.9572 #O-H
angle_coeff 1 104.52 #H-O-H

group gH2O type 1 2
12288 atoms in group gH2O
group gO type 1
4096 atoms in group gO

neighbor 3.0 bin
neigh_modify delay 0 every 1 check yes

timestep 1.0
fix 1 gH2O shake 1.0e-4 100 0 b 1 a 1
Finding SHAKE clusters ...
       0 = # of size 2 clusters
       0 = # of size 3 clusters
       0 = # of size 4 clusters
    4096 = # of frozen angles
  find clusters CPU = 0.004 seconds


variable massAll equal mass(all)/6.022e23
variable volCm3 equal vol*1.0e-24
variable density_sys equal v_massAll/v_volCm3
variable tmp equal temp


thermo 1000
thermo_style custom step temp vol etotal pe lx v_density_sys
thermo_modify flush yes

fix fnpt all npt temp 225.0 225.0 100.0 iso 0.9869 0.9869 1000.0
dump dH2O gH2O custom 200 dump_H2O_225.lammpstrj id type xu yu zu # 间隔0.2ps采样
dump_modify dH2O sort id
run 2000000 # 2ns
PPPM initialization ...
  extracting TIP4P info from pair style
  using 12-bit tables for long-range coulomb
  G vector (1/distance) = 0.32754946
  grid = 50 50 50
  stencil order = 5
  estimated absolute RMS force accuracy = 0.0036668591
  estimated relative force accuracy = 1.1042637e-05
  using double precision KISS FFT
  3d grid and FFT values/proc = 11424 2800
WARNING: Communication cutoff 0 is shorter than a bond length based estimate of 4.4358. This may lead to errors. (../comm.cpp:743)
WARNING: Increasing communication cutoff to 13.6118 for TIP4P pair style (../pair_lj_cut_tip4p_long.cpp:497)
Generated 0 of 1 mixed pair_coeff terms from geometric mixing rule
Neighbor list info ...
  update: every = 1 steps, delay = 0 steps, check = yes
  max neighbors/atom: 2000, page size: 100000
  master list distance cutoff = 12.8092
  ghost atom cutoff = 13.6118
  binsize = 6.4046, bins = 8 8 8
  1 neighbor lists, perpetual/occasional/extra = 1 0 0
  (1) pair lj/cut/tip4p/long, perpetual
      attributes: half, newton on
      pair build: half/bin/newton/tri
      stencil: half/bin/3d/tri
      bin: standard
Per MPI rank memory allocation (min/avg/max) = 9.175 | 9.299 | 9.657 Mbytes
   Step          Temp          Volume         TotEng         PotEng           Lx       v_density_sys 
         0   226.11034      126446.73     -46573.443     -52094.111      50.192158      0.96906001   
      1000   224.94675      126679.7      -46532.014     -52024.272      50.222964      0.96727792   
      2000   223.795        126866.4      -46495.019     -51959.157      50.247626      0.96585438   
      3000   227.16942      126705.9      -46433.234     -51979.761      50.226427      0.96707785   
      4000   227.36407      127017.39     -46488.406     -52039.685      50.267551      0.96470629   
      5000   225.80834      126877.16     -46427.466     -51940.761      50.249046      0.96577247   
      6000   225.19636      126418.79     -46561.051     -52059.404      50.18846       0.96927424   
      7000   227.3056       126527.77     -46522.02      -52071.872      50.202879      0.96843934   
      8000   224.19352      126491.16     -46567.293     -52041.16       50.198036      0.96871965   
      9000   223.45155      126630.58     -46585.056     -52040.808      50.216472      0.9676531    
     10000   223.41557      126570.52     -46605.373     -52060.247      50.208532      0.96811226   
     11000   223.04127      126563.79     -46542.885     -51988.62       50.207641      0.96816377   
     12000   223.95274      126120.24     -46680.246     -52148.234      50.148922      0.97156863   
     13000   225.58953      126822.39     -46616.755     -52124.707      50.241814      0.96618956   
     14000   225.63251      127148.02     -46536.584     -52045.585      50.284778      0.96371514   
     15000   221.99961      126654.47     -46730.012     -52150.313      50.21963       0.96747054   
     16000   225.31822      127114        -46534.135     -52035.463      50.280293      0.96397304   
     17000   225.00934      126717.24     -46513.137     -52006.924      50.227925      0.96699133   
     18000   223.88567      127121.11     -46589.64      -52055.991      50.28123       0.96391917   
     19000   225.18046      126592.97     -46553.091     -52051.055      50.2115        0.96794058   
     20000   224.99011      126478.1      -46575.017     -52068.334      50.196308      0.96881971   
     21000   223.23987      126701.33     -46612.073     -52062.657      50.225822      0.96711279   
     22000   228.24781      126976.91     -46466.773     -52039.629      50.26221       0.96501385   
     23000   222.84014      126180.87     -46547.392     -51988.216      50.156957      0.97110179   
     24000   223.77318      126271.85     -46527.604     -51991.209      50.169008      0.97040212   
     25000   224.80368      126850.24     -46569.863     -52058.628      50.245492      0.96597742   
     26000   225.40035      127225.93     -46534.824     -52038.157      50.295046      0.96312502   
     27000   221.80865      126956.24     -46699.701     -52115.34       50.259483      0.96517092   
     28000   228.29179      126581.87     -46541.197     -52115.127      50.210032      0.96802547   
     29000   225.10475      126603.83     -46581.562     -52077.678      50.212936      0.96785756   
     30000   223.36652      126469.94     -46547.635     -52001.31       50.195229      0.96888218   
     31000   224.59324      126732.99     -46471.25      -51954.877      50.230006      0.96687116   
     32000   226.82577      126611.57     -46442.029     -51980.165      50.213959      0.96779839   
     33000   223.58739      126397.57     -46532.504     -51991.572      50.185652      0.96943696   
     34000   226.56829      126741.96     -46455.192     -51987.042      50.23119       0.96680276   
     35000   227.88639      126723.11     -46379.012     -51943.044      50.2287        0.96694653   
     36000   226.73485      127246.88     -46481.525     -52017.441      50.297807      0.9629664    
     37000   224.22743      126612.01     -46571.54      -52046.235      50.214017      0.96779503   
     38000   229.34951      126510.59     -46493.424     -52093.179      50.200606      0.96857087   
     39000   227.8478       126681.89     -46407.979     -51971.069      50.223253      0.96726119   
     40000   225.08808      126363.31     -46606.074     -52101.783      50.181118      0.96969975   
     41000   225.0402       126756.82     -46535.503     -52030.043      50.233154      0.96668935   
     42000   226.48756      126754.26     -46477.471     -52007.349      50.232815      0.96670895   
     43000   226.24397      126589.59     -46477.041     -52000.972      50.211053      0.96796641   
     44000   223.65767      126602.02     -46508.538     -51969.322      50.212696      0.96787141   
     45000   226.09487      126697.5      -46514.996     -52035.286      50.225317      0.96714196   
     46000   226.96415      126740.42     -46442.301     -51983.816      50.230988      0.96681446   
     47000   223.2754       126743.28     -46542.917     -51994.368      50.231365      0.96679266   
     48000   228.72761      126919.73     -46374.489     -51959.061      50.254665      0.96544854   
     49000   224.13523      126957.21     -46529.683     -52002.128      50.259611      0.96516358   
     50000   221.29562      126574.65     -46589.742     -51992.855      50.209077      0.9680807    
     51000   227.53238      126741.16     -46439.625     -51995.013      50.231085      0.96680881   
     52000   224.67195      126580.93     -46571.178     -52056.727      50.209908      0.96803266   
     53000   229.52756      127024.41     -46335.723     -51939.825      50.268477      0.96465298   
     54000   225.76596      126521.49     -46629.613     -52141.873      50.202048      0.9684874    
     55000   227.02958      126849.15     -46481.431     -52024.544      50.245347      0.96598578   
     56000   229.23391      126839.21     -46449.105     -52046.037      50.244035      0.96606144   
     57000   226.04294      126527.82     -46571.923     -52090.946      50.202885      0.96843899   
     58000   224.15573      126658.67     -46596.379     -52069.323      50.220185      0.96743848   
     59000   226.58184      126799.55     -46526.9       -52059.08       50.238797      0.96636365   
     60000   224.38433      126436.1      -46550.387     -52028.914      50.190751      0.96914152   
     61000   226.74122      126533.03     -46461.31      -51997.382      50.203574      0.96839908   
     62000   222.56796      126816.88     -46614.941     -52049.12       50.241087      0.96623153   
     63000   225.08049      126977.79     -46510.664     -52006.188      50.262327      0.9650071    
     64000   227.08925      126996.36     -46401.361     -51945.93       50.264776      0.96486605   
     65000   225.70051      127306.71     -46433.797     -51944.459      50.305688      0.96251386   
     66000   227.97498      126461.91     -46597.222     -52163.417      50.194166      0.96894374   
     67000   222.74617      126617.42     -46638.172     -52076.701      50.214732      0.96775368   
     68000   226.10025      126624.25     -46559.893     -52080.315      50.215635      0.9677015    
     69000   226.84135      126198.46     -46532.603     -52071.12       50.159286      0.9709665    
     70000   224.18808      126402.33     -46558.278     -52032.013      50.186282      0.96940044   
     71000   227.61978      126545.07     -46300.578     -51858.1        50.205166      0.96830698   
     72000   224.70651      127045.68     -46488.823     -51975.216      50.271283      0.96449146   
     73000   222.55142      126512.47     -46561.14      -51994.914      50.200854      0.9685565    
     74000   224.97307      126296.84     -46557.16      -52050.061      50.172318      0.97021011   
     75000   224.73286      127141.53     -46569.381     -52056.417      50.283923      0.9637643    
     76000   225.05302      126974.12     -46504.16      -51999.013      50.261842      0.96503504   
     77000   227.8619       126664.34     -46507.115     -52070.549      50.220934      0.96739521   
     78000   224.12969      126855        -46538.737     -52011.046      50.24612       0.96594121   
     79000   222.75132      126796.45     -46610.654     -52049.309      50.238388      0.96638727   
     80000   223.45805      126540.54     -46494.928     -51950.839      50.204567      0.96834162   
     81000   228.60732      126893.82     -46359.634     -51941.268      50.251245      0.96564571   
     82000   227.63015      126820.8      -46453.244     -52011.019      50.241604      0.96620172   
     83000   222.0781       126792.17     -46593.99      -52016.207      50.237823      0.96641988   
     84000   222.75174      126834.56     -46527.309     -51965.974      50.243421      0.96609689   
     85000   222.43587      126928.85     -46680.104     -52111.057      50.255868      0.96537924   
     86000   225.21074      126466.93     -46501.446     -52000.15       50.194831      0.96890523   
     87000   225.04         126098.79     -46471.856     -51966.391      50.146078      0.97173394   
     88000   226.44014      126441.72     -46419.348     -51948.069      50.191495      0.96909842   
     89000   226.33176      126197.34     -46530         -52056.074      50.159139      0.97097505   
     90000   224.63632      126910.45     -46546.409     -52031.088      50.253439      0.96551919   
     91000   227.38239      126950.47     -46398.854     -51950.581      50.258722      0.96521479   
     92000   222.62822      126520.56     -46552.533     -51988.183      50.201925      0.96849453   
     93000   226.00647      126485.48     -46494.674     -52012.806      50.197284      0.96876318   
     94000   225.16827      126614.66     -46488.388     -51986.055      50.214367      0.96777478   
     95000   226.75518      126313.5      -46504.973     -52041.386      50.174524      0.97008213   
     96000   224.44841      126520.07     -46427.128     -51907.219      50.20186       0.96849828   
     97000   225.85237      126581.14     -46627.091     -52141.461      50.209936      0.96803103   
     98000   225.73581      126351.59     -46502.021     -52013.545      50.179566      0.96978973   
     99000   225.47748      126541.14     -46607.808     -52113.025      50.204646      0.96833704   
    100000   225.60313      126371.33     -46453.873     -51962.157      50.18218       0.9696382    
    101000   226.35302      126353.04     -46465.735     -51992.329      50.179759      0.96977856   
    102000   225.90801      126033.87     -46406.925     -51922.653      50.137471      0.97223444   
    103000   225.2872       126252.07     -46576.976     -52077.547      50.166389      0.97055415   
    104000   227.27405      126491.26     -46452.685     -52001.766      50.198049      0.96871888   
    105000   221.24014      126171.36     -46524.042     -51925.8        50.155696      0.97117503   
    106000   223.0121       126787.32     -46542.836     -51987.858      50.237182      0.96645684   
    107000   226.07784      126905.5      -46418.203     -51938.078      50.252786      0.96555684   
    108000   222.26372      126507.97     -46536.559     -51963.309      50.20026       0.9685909    
    109000   225.0938       126627.91     -46436.222     -51932.071      50.216119      0.96767352   
    110000   221.65864      126177.55     -46573.256     -51985.233      50.156517      0.97112734   
    111000   222.8006       126424.75     -46612.363     -52052.221      50.18925       0.9692285    
    112000   226.96249      126384.13     -46534.345     -52075.819      50.183873      0.96954006   
    113000   229.16005      126618.12     -46435.599     -52030.729      50.214825      0.96774832   
    114000   225.58092      126501.84     -46528.9       -52036.642      50.199449      0.96863784   
    115000   227.80797      126860.95     -46432.62      -51994.738      50.246905      0.96589594   
    116000   223.06226      126564.68     -46522.568     -51968.815      50.20776       0.96815692   
    117000   222.42246      126206.16     -46542.026     -51972.651      50.160307      0.97090722   
    118000   224.49037      126613.26     -46446.555     -51927.67       50.214183      0.96778546   
    119000   222.81844      126783.88     -46648.171     -52088.465      50.236727      0.9664831    
    120000   225.83406      126533.48     -46478.782     -51992.705      50.203634      0.96839563   
    121000   222.28338      126332.86     -46675.449     -52102.679      50.177086      0.96993352   
    122000   226.35658      126490.27     -46487.035     -52013.715      50.197918      0.96872647   
    123000   222.96249      126978.18     -46552.872     -51996.683      50.262379      0.96500413   
    124000   226.04194      126194.15     -46546.806     -52065.804      50.158716      0.97099962   
    125000   229.47744      126716.26     -46420.845     -52023.724      50.227795      0.96699884   
    126000   225.50799      126499.2      -46519.146     -52025.107      50.199099      0.96865811   
    127000   226.78067      126117.17     -46423.44      -51960.475      50.148514      0.97159232   
    128000   226.20964      126166.84     -46499.331     -52022.424      50.155097      0.97120984   
    129000   228.08004      126566.41     -46443.075     -52011.835      50.207989      0.96814366   
    130000   222.10543      126151.23     -46666.44      -52089.326      50.153029      0.97132996   
    131000   227.64359      126621.41     -46420.866     -51978.97       50.21526       0.96772314   
    132000   225.37313      126852.71     -46601.268     -52103.936      50.245817      0.96595867   
    133000   224.22781      126270.15     -46588.339     -52063.043      50.168783      0.97041519   
    134000   226.15361      126263.28     -46539.755     -52061.48       50.167873      0.97046801   
    135000   223.0405       126401.89     -46539.309     -51985.024      50.186224      0.96940381   
    136000   225.85538      126154.27     -46505.838     -52020.281      50.153432      0.97130654   
    137000   225.05242      126407.55     -46579.435     -52074.273      50.186974      0.96936037   
    138000   225.59373      126368.27     -46561.773     -52069.828      50.181775      0.96966168   
    139000   222.5384       126744.4      -46613.684     -52047.14       50.231513      0.96678409   
    140000   225.53137      126654.98     -46485.405     -51991.937      50.219697      0.96746668   
    141000   222.47898      126219.42     -46610.96      -52042.966      50.162063      0.97080526   
    142000   222.29312      126635.42     -46585.13      -52012.597      50.217113      0.96761607   
    143000   224.6668       126330.59     -46506.234     -51991.657      50.176786      0.96995091   
    144000   226.0106       126209.59     -46408.451     -51926.685      50.160762      0.9708808    
    145000   227.02405      126445.2      -46315.663     -51858.64       50.191956      0.96907175   
    146000   222.57426      126156.15     -46550.759     -51985.091      50.15368       0.97129213   
    147000   226.90221      126580.07     -46469.349     -52009.352      50.209795      0.96803921   
    148000   226.0464       126424.95     -46440.709     -51959.816      50.189276      0.96922697   
    149000   226.2653       126258.96     -46468.736     -51993.187      50.167301      0.97050119   
    150000   226.6249       125920.71     -46500.485     -52033.716      50.122461      0.9731082    
    151000   224.99379      126135.72     -46423.574     -51916.98       50.150973      0.97144941   
    152000   224.32138      126116.22     -46491.776     -51968.765      50.148388      0.97159966   
    153000   228.13395      126559.73     -46325.604     -51895.68       50.207105      0.96819482   
    154000   223.66584      126631.32     -46588.407     -52049.391      50.21657       0.96764741   
    155000   224.6912       126585.71     -46311.561     -51797.58       50.21054       0.96799608   
    156000   225.36533      127086.22     -46494.901     -51997.379      50.27663       0.96418376   
    157000   222.12061      126679.47     -46605.167     -52028.423      50.222934      0.96727966   
    158000   222.73852      126771.18     -46526.327     -51964.669      50.23505       0.96657991   
    159000   225.85343      126128.47     -46421.054     -51935.449      50.150012      0.9715053    
    160000   223.82812      126026.02     -46563.147     -52028.093      50.13643       0.97229506   
    161000   225.39599      126384.98     -46475.905     -51979.132      50.183987      0.96953347   
    162000   226.46515      126263.27     -46595.314     -52124.646      50.167872      0.97046808   
    163000   224.57688      126669.97     -46476.829     -51960.057      50.221679      0.96735218   
    164000   223.00668      126734.9      -46548.569     -51993.459      50.230257      0.96685662   
    165000   227.0593       126131.65     -46426.763     -51970.601      50.150434      0.97148075   
    166000   226.44386      126503.94     -46479.634     -52008.446      50.199727      0.96862176   
    167000   225.23515      126255.44     -46512.211     -52011.51       50.166835      0.97052826   
    168000   226.73389      126402.75     -46574.461     -52110.354      50.186337      0.96939724   
    169000   227.26139      126183.44     -46536.023     -52084.796      50.157296      0.97108206   
    170000   227.27436      126303.95     -46581.033     -52130.122      50.173259      0.97015553   
    171000   223.61921      126108.91     -46685.483     -52145.329      50.147419      0.97165596   
    172000   225.78925      126482.19     -46510.895     -52023.723      50.196849      0.96878836   
    173000   222.96277      126278.92     -46618.562     -52062.38       50.169944      0.97034781   
    174000   226.99178      126339.19     -46562.622     -52104.811      50.177924      0.96988491   
    175000   222.80217      126415.9      -46578.902     -52018.799      50.188079      0.96929634   
    176000   226.14271      126509.67     -46509.844     -52031.302      50.200484      0.96857795   
    177000   225.53614      126341.84     -46490.171     -51996.819      50.178276      0.96986454   
    178000   225.31849      126333.59     -46554.876     -52056.211      50.177183      0.96992788   
    179000   222.58282      125997.58     -46525.766     -51960.307      50.132658      0.9725145    
    180000   223.40639      126020.19     -46601.045     -52055.694      50.135656      0.97234004   
    181000   227.3998       126195.51     -46563.891     -52116.043      50.158896      0.97098913   
    182000   225.83989      126109.65     -46534.833     -52048.898      50.147518      0.97165023   
    183000   222.39077      126542.92     -46560.036     -51989.888      50.204882      0.96832343   
    184000   222.72194      126476.64     -46581.602     -52019.539      50.196115      0.96883089   
    185000   225.19054      125935.76     -46579.142     -52077.353      50.124458      0.97299186   
    186000   222.58901      126066.19     -46564.6       -51999.292      50.141756      0.97198523   
    187000   224.93156      126295.6      -46569.138     -52061.026      50.172153      0.97021964   
    188000   223.82616      126613.78     -46507.554     -51972.452      50.214251      0.96778152   
    189000   225.19612      126337        -46503.928     -52002.274      50.177634      0.96990175   
    190000   224.00747      126023.73     -46697.07      -52166.395      50.136126      0.9723127    
    191000   230.08051      126077.97     -46494.349     -52111.952      50.143318      0.97189443   
    192000   226.03561      125928.59     -46646.536     -52165.379      50.123507      0.97304727   
    193000   226.16944      126577.14     -46562.339     -52084.45       50.209408      0.96806159   
    194000   223.48594      126692.37     -46615.851     -52072.442      50.224638      0.96718116   
    195000   224.20746      126698.16     -46720.429     -52194.637      50.225403      0.96713699   
    196000   226.70143      126860.28     -46606.495     -52141.595      50.246816      0.96590104   
    197000   220.45236      126452.52     -46719.796     -52102.32       50.192924      0.96901568   
    198000   222.48715      126703.32     -46523.433     -51955.638      50.226085      0.96709758   
    199000   223.35053      126783.76     -46630.053     -52083.338      50.236712      0.966484     
    200000   223.20343      126621.78     -46753.754     -52203.448      50.215309      0.96772034   
    201000   224.2385       126397.64     -46544.973     -52019.939      50.185662      0.96943638   
    202000   225.89259      126476.86     -46634.294     -52149.646      50.196144      0.96882919   
    203000   226.47431      126952.81     -46577.265     -52106.82       50.259031      0.96519699   
    204000   222.57669      126294.09     -46685.275     -52119.666      50.171953      0.97023127   
    205000   223.7079       126092.44     -46568.894     -52030.905      50.145237      0.97178285   
    206000   230.01787      125873.17     -46428.084     -52044.157      50.116153      0.9734757    
    207000   222.66982      125736.49     -46639.297     -52075.962      50.098006      0.97453391   
    208000   223.26708      126076.43     -46715.851     -52167.098      50.143114      0.97190624   
    209000   224.24059      126379.47     -46619.61      -52094.627      50.183257      0.96957574   
    210000   222.9178       125923.64     -46604.306     -52047.026      50.12285       0.97308551   
    211000   225.83881      126124.75     -46518.069     -52032.107      50.14952       0.97153389   
    212000   223.6416       126349.31     -46655.828     -52116.22       50.179264      0.96980723   
    213000   223.63483      126622.8      -46733.394     -52193.62       50.215444      0.96771254   
    214000   224.27179      126197.04     -46662.08      -52137.858      50.159099      0.97097739   
    215000   225.90893      125912.46     -46583.129     -52098.88       50.121366      0.97317195   
    216000   226.33966      125823.84     -46554.644     -52080.911      50.109605      0.97385735   
    217000   224.64477      126368.1      -46695.805     -52180.69       50.181752      0.96966302   
    218000   225.5274       126460.37     -46550.952     -52057.388      50.193963      0.9689555    
    219000   224.9771       126293.94     -46608.222     -52101.221      50.171933      0.97023243   
    220000   222.54554      126221.41     -46617.605     -52051.236      50.162327      0.9707899    
    221000   223.66257      126460.82     -46723.268     -52184.172      50.194023      0.96895203   
    222000   222.89709      125840.76     -46642.949     -52085.163      50.111851      0.97372639   
    223000   224.50907      126454.35     -46674.949     -52156.521      50.193166      0.96900164   
    224000   226.47144      126820.47     -46483.654     -52013.139      50.241561      0.96620421   
    225000   222.50733      126511.21     -46690.505     -52123.203      50.200688      0.96856613   
    226000   222.14366      126432.2      -46626.609     -52050.428      50.190235      0.96917141   
    227000   226.15154      126382.71     -46611.522     -52133.196      50.183686      0.96955092   
    228000   224.77896      126417.36     -46678.296     -52166.458      50.188272      0.96928514   
    229000   225.25565      125821.96     -46720.59      -52220.391      50.109355      0.97387191   
    230000   224.0239       126520.1      -46651.435     -52121.161      50.201865      0.96849803   
    231000   225.01121      126345.4      -46719.208     -52213.04       50.178746      0.96983726   
    232000   225.11671      126583.38     -46550.327     -52046.736      50.210233      0.96801388   
    233000   222.85056      125915.73     -46697.51      -52138.588      50.121801      0.97314663   
    234000   229.87416      126126.19     -46549.216     -52161.781      50.14971       0.97152284   
    235000   225.60803      126392.25     -46491.851     -52000.255      50.184949      0.96947772   
    236000   226.98145      126371.3      -46399.896     -51941.833      50.182176      0.96963843   
    237000   227.53644      126020.27     -46569.157     -52124.644      50.135667      0.9723394    
    238000   222.47262      125825.97     -46704.746     -52136.597      50.109888      0.97384084   
    239000   225.80454      126351.31     -46457.683     -51970.885      50.179529      0.96979186   
    240000   229.11559      126537.86     -46409.357     -52003.401      50.204213      0.96836212   
    241000   225.73401      126400.36     -46397.008     -51908.488      50.186022      0.96941551   
    242000   223.50047      126508.47     -46524.191     -51981.138      50.200326      0.96858711   
    243000   222.86948      126511.72     -46615.199     -52056.739      50.200756      0.96856219   
    244000   223.27858      125846.97     -46631.201     -52082.73       50.112676      0.97367834   
    245000   224.78135      125798.26     -46521.469     -52009.689      50.106209      0.97405537   
    246000   226.12911      126072.66     -46424.43      -51945.556      50.142614      0.97193534   
    247000   227.89248      125885.97     -46392.958     -51957.138      50.117852      0.97337671   
    248000   222.49675      125633.41     -46605.48      -52037.919      50.084312      0.9753335    
    249000   227.14643      125470.33     -46429.172     -51975.137      50.062632      0.97660117   
    250000   220.26274      125788.14     -46560.735     -51938.629      50.104865      0.97413374   
    251000   225.69305      126177.88     -46447.18      -51957.66       50.15656       0.97112483   
    252000   224.61472      126424.86     -46442.578     -51926.73       50.189264      0.96922767   
    253000   226.18001      126008.27     -46584.078     -52106.448      50.134077      0.97243195   
    254000   223.33048      125474.66     -46575.498     -52028.294      50.063208      0.9765675    
    255000   228.4708       125692.62     -46505.344     -52083.645      50.092179      0.97487406   
    256000   225.58409      125719.02     -46543.928     -52051.747      50.095686      0.97466934   
    257000   223.84871      125580.5      -46620.908     -52086.356      50.07728       0.97574446   
    258000   222.78949      125830.97     -46600.919     -52040.506      50.110551      0.9738022    
    259000   224.3497       125949.71     -46477.812     -51955.492      50.126309      0.97288411   
    260000   222.29484      126131.94     -46618.938     -52046.448      50.150472      0.97147854   
    261000   224.13842      126028.27     -46591.237     -52063.76       50.136729      0.97227763   
    262000   226.95039      126643.68     -46506.301     -52047.48       50.218204      0.96755299   
    263000   225.99111      125666.28     -46566         -52083.757      50.08868       0.9750784    
    264000   221.95931      126160.31     -46588.956     -52008.274      50.154232      0.97126007   
    265000   229.12848      126253.48     -46343.699     -51938.058      50.166576      0.9705433    
    266000   221.85598      125972.28     -46659.498     -52076.292      50.129303      0.97270979   
    267000   227.00176      126099.19     -46414.528     -51956.961      50.146131      0.97173088   
    268000   224.665        125779.99     -46498.934     -51984.313      50.103783      0.9741969    
    269000   225.94073      125604.41     -46434.985     -51951.512      50.080459      0.97555866   
    270000   227.76217      126231.58     -46448.017     -52009.016      50.163675      0.97071168   
    271000   226.37348      125581.14     -46548.887     -52075.98       50.077365      0.97573946   
    272000   225.73807      126349.57     -46422.967     -51934.546      50.179298      0.96980525   
    273000   220.77274      126064.29     -46627.875     -52018.221      50.141505      0.97199983   
    274000   228.2456       125833.73     -46474.166     -52046.968      50.110918      0.97378079   
    275000   226.80662      126282.5      -46349.16      -51886.828      50.170418      0.97032032   
    276000   226.77969      126293.33     -46442.705     -51979.716      50.171852      0.9702371    
    277000   227.26248      126440.31     -46428.485     -51977.284      50.191308      0.96910926   
    278000   225.55332      126792.4      -46459.278     -51966.346      50.237854      0.96641808   
    279000   223.83348      126262.74     -46630.895     -52095.972      50.167802      0.97047212   
    280000   220.2901       126182.3      -46727.585     -52106.147      50.157146      0.9710908    
    281000   224.2149       126417.18     -46523.906     -51998.296      50.188248      0.96928655   
    282000   228.10712      125971.9      -46460.871     -52030.292      50.129252      0.97271275   
    283000   224.87588      126490.92     -46562.769     -52053.297      50.198004      0.9687215    
    284000   225.10073      126056.37     -46476.618     -51972.636      50.140454      0.97206093   
    285000   226.17401      126810.49     -46587.734     -52109.957      50.240243      0.96628023   
    286000   224.17871      126376.28     -46540.515     -52014.021      50.182834      0.96960026   
    287000   224.329        126356.9      -46608.062     -52085.237      50.180269      0.96974898   
    288000   224.45068      126142.89     -46491.669     -51971.816      50.151923      0.97139424   
    289000   224.42388      125694.66     -46597.784     -52077.276      50.09245       0.97485822   
    290000   225.96049      126130.14     -46352.987     -51869.996      50.150233      0.97149241   
    291000   225.5267       125776.35     -46574.994     -52081.413      50.103299      0.97422509   
    292000   223.98732      125860.7      -46447.235     -51916.068      50.114497      0.97357216   
    293000   223.50299      126406.08     -46558.619     -52015.627      50.186778      0.9693717    
    294000   224.37471      126531.78     -46562.612     -52040.904      50.203409      0.96840863   
    295000   227.71153      126002.99     -46397.184     -51956.947      50.133375      0.97247276   
    296000   225.20645      126277.28     -46469.597     -51968.196      50.169727      0.9703604    
    297000   220.76755      126038.79     -46675.414     -52065.634      50.138123      0.97219654   
    298000   224.18614      125924.86     -46476.879     -51950.566      50.123011      0.97307613   
    299000   223.11814      126882.9      -46363.183     -51810.794      50.249803      0.96572883   
    300000   223.65269      126606.1      -46566.24      -52026.903      50.213236      0.96784022   
    301000   227.99596      126418.92     -46469.117     -52035.825      50.188478      0.96927319   
    302000   224.45524      126215.9      -46479.733     -51959.991      50.161597      0.97083232   
    303000   224.63957      126449.19     -46505.81      -51990.568      50.192484      0.96904115   
    304000   223.07431      126897.61     -46497.069     -51943.61       50.251745      0.96561687   
    305000   225.259        126204.06     -46447.038     -51946.92       50.160029      0.97092336   
    306000   227.68564      126850.74     -46454.18      -52013.311      50.245557      0.96597368   
    307000   223.26316      126884.43     -46495.996     -51947.148      50.250005      0.96571716   
    308000   223.22994      126442.5      -46526.956     -51977.298      50.191598      0.96909245   
    309000   225.50279      126424.38     -46409.69      -51915.525      50.189201      0.96923132   
    310000   222.82037      126651.55     -46499.738     -51940.078      50.219244      0.96749286   
    311000   229.11993      126389.77     -46409.633     -52003.783      50.18462       0.96949676   
    312000   227.25706      127071.36     -46516.95      -52065.616      50.27467       0.96429655   
    313000   223.75647      126467.98     -46528.613     -51991.81       50.194969      0.96889724   
    314000   226.29907      126934.53     -46355.387     -51880.663      50.256618      0.96533599   
    315000   225.36554      126445.77     -46421.503     -51923.986      50.192031      0.96906737   
    316000   224.498        126388.33     -46522.737     -52004.039      50.184429      0.96950784   
    317000   225.1369       126294.6      -46540.779     -52037.68       50.172021      0.9702273    
    318000   226.01595      126595.2      -46432.079     -51950.443      50.211795      0.96792351   
    319000   223.6693       126780.44     -46585.158     -52046.226      50.236273      0.96650931   
    320000   223.6999       126455.27     -46553.446     -52015.261      50.193287      0.96899462   
    321000   223.54329      126274.66     -46419.053     -51877.045      50.16938       0.97038056   
    322000   226.85156      126342.72     -46548.502     -52087.268      50.178391      0.96985783   
    323000   225.27306      125954.08     -46552.097     -52052.322      50.126889      0.97285034   
    324000   222.96802      126694.94     -46533.744     -51977.69       50.224978      0.96716157   
    325000   226.90255      126381.19     -46392.124     -51932.134      50.183485      0.96956256   
    326000   225.53458      126235.66     -46517.662     -52024.273      50.164215      0.97068032   
    327000   226.61128      126565.76     -46429.888     -51962.787      50.207902      0.96814866   
    328000   225.64527      126587.68     -46492.946     -52002.259      50.210801      0.96798102   
    329000   222.86819      126385.14     -46506.262     -51947.771      50.184007      0.9695323    
    330000   228.30086      125966.06     -46453.767     -52027.918      50.128477      0.97275785   
    331000   228.23327      126476.31     -46452.175     -52024.676      50.196071      0.9688334    
    332000   226.99867      126871.36     -46410.262     -51952.62       50.24828       0.96581662   
    333000   224.24735      126508.47     -46515.939     -51991.121      50.200325      0.96858713   
    334000   222.79173      126622.9      -46564.207     -52003.849      50.215457      0.96771176   
    335000   223.66892      126509.25     -46606.141     -52067.2        50.200429      0.96858113   
    336000   226.57592      126209.86     -46485.07      -52017.106      50.160797      0.97087875   
    337000   225.54227      126346.44     -46383.441     -51890.239      50.178885      0.96982922   
    338000   223.17402      126447.18     -46653.553     -52102.529      50.192218      0.96905658   
    339000   226.19446      126652.52     -46469.717     -51992.439      50.219372      0.96748548   
    340000   224.47744      126288.29     -46628.237     -52109.036      50.171185      0.97027584   
    341000   225.03311      126635.4      -46357.372     -51851.739      50.217109      0.96761626   
    342000   224.89874      126420.02     -46527.89      -52018.976      50.188624      0.96926474   
    343000   221.97857      126782.64     -46527.269     -51947.057      50.236564      0.96649251   
    344000   224.51491      126282.39     -46462.864     -51944.579      50.170404      0.97032115   
    345000   226.3404       126080.45     -46596.62      -52122.905      50.143647      0.97187529   
    346000   226.50972      126262.34     -46476.221     -52006.64       50.167749      0.97047519   
    347000   220.7308       125824.08     -46708.621     -52097.943      50.109637      0.97385551   
    348000   229.74327      126407.05     -46480.026     -52089.396      50.186908      0.9693642    
    349000   222.10842      126523.32     -46662.37      -52085.328      50.20229       0.96847338   
    350000   226.65063      126751.26     -46542.977     -52076.836      50.232419      0.96673178   
    351000   224.68311      126776.78     -46398.037     -51883.859      50.23579       0.96653721   
    352000   226.01297      126816.43     -46453.193     -51971.484      50.241027      0.96623497   
    353000   222.19023      126500.44     -46670.976     -52095.932      50.199263      0.9686486    
    354000   226.96819      126712.98     -46463.566     -52005.18       50.227362      0.96702382   
    355000   231.11544      126127.27     -46490.481     -52133.353      50.149853      0.97151449   
    356000   223.78474      126260.73     -46590.903     -52054.79       50.167535      0.97048761   
    357000   225.93759      126136.16     -46574.114     -52090.565      50.151032      0.97144601   
    358000   226.72035      126939.63     -46531.613     -52067.175      50.257291      0.96529722   
    359000   225.43838      126337.58     -46601.766     -52106.028      50.177712      0.96989723   
    360000   225.0509       126910.92     -46492.983     -51987.784      50.253502      0.96551557   
    361000   221.8138       127127.15     -46590.563     -52006.327      50.282026      0.96387337   
    362000   227.25526      126251.25     -46535.778     -52084.4        50.16628       0.97056045   
    363000   226.08315      126702.36     -46522.739     -52042.743      50.225959      0.96710489   
    364000   224.22538      126892.67     -46618.14      -52092.785      50.251092      0.96565449   
    365000   223.65039      127093.92     -46532.437     -51993.044      50.277645      0.96412535   
    366000   224.60862      126825.74     -46570.442     -52054.444      50.242257      0.96616404   
    367000   221.76343      126642.47     -46528.196     -51942.731      50.218044      0.96756223   
    368000   222.80692      126928.69     -46505.714     -51945.727      50.255848      0.9653804    
    369000   230.1478       126583.86     -46529.818     -52149.064      50.210296      0.96801022   
    370000   224.02506      126806.67     -46650.126     -52119.881      50.239738      0.96630937   
    371000   226.5208       126634.29     -46551.753     -52082.443      50.216963      0.96762473   
    372000   225.22988      126870.44     -46616.554     -52115.725      50.248158      0.96582368   
    373000   224.01508      127283.28     -46534.147     -52003.658      50.302602      0.96269106   
    374000   222.52085      126692.17     -46612.628     -52045.656      50.224613      0.96718265   
    375000   227.20129      126863.57     -46509.363     -52056.668      50.247251      0.96587595   
    376000   225.2593       126787.68     -46634.859     -52134.749      50.237229      0.96645412   
    377000   222.96433      126974.11     -46638.942     -52082.797      50.261841      0.96503511   
    378000   223.70216      126769.05     -46697.23      -52159.101      50.23477       0.9665961    
    379000   223.94808      127173.49     -46595.593     -52063.468      50.288135      0.96352212   
    380000   222.06458      126753.68     -46783.102     -52204.99       50.232738      0.96671336   
    381000   223.70796      127064.44     -46654.165     -52116.177      50.273757      0.96434907   
    382000   227.0794       127724.5      -46520.999     -52065.327      50.360659      0.95936542   
    383000   226.36208      126635.76     -46639.54      -52166.355      50.217157      0.96761351   
    384000   227.56495      127086.46     -46608.631     -52164.815      50.276661      0.96418197   
    385000   220.53964      126656.28     -46679.167     -52063.822      50.219869      0.96745676   
    386000   222.72575      127157.46     -46621.983     -52060.014      50.286022      0.9636436    
    387000   226.87009      127020.15     -46596.311     -52135.529      50.267915      0.96468532   
    388000   226.55564      127180.1      -46639.7       -52171.24       50.289006      0.96347209   
    389000   223.63868      127329.51     -46659.989     -52120.31       50.308692      0.96234149   
    390000   227.3219       127240.55     -46487.395     -52037.644      50.296972      0.96301435   
    391000   221.62311      127146.56     -46717.292     -52128.401      50.284586      0.96372618   
    392000   227.43469      127599.08     -46546.976     -52099.979      50.344169      0.96030844   
    393000   229.18767      127752.27     -46525.174     -52120.977      50.364309      0.9591569    
    394000   221.54229      127237.44     -46700.045     -52109.181      50.296563      0.96303785   
    395000   224.8203       127282.28     -46587.581     -52076.752      50.302471      0.96269857   
    396000   225.76201      127071.98     -46737.09      -52249.254      50.274752      0.96429181   
    397000   221.93965      127377.19     -46692.367     -52111.205      50.31497       0.96198131   
    398000   224.0278       127555        -46644.011     -52113.833      50.338371      0.96064032   
    399000   227.46382      126873.98     -46571.246     -52124.96       50.248625      0.96579673   
    400000   222.12912      127338.18     -46718.655     -52142.118      50.309833      0.96227602   
    401000   223.47484      127407.86     -46546.408     -52002.729      50.319009      0.9617497    
    402000   222.50198      126916.76     -46695.143     -52127.711      50.254272      0.96547119   
    403000   223.51554      126928.51     -46710.793     -52168.107      50.255824      0.96538179   
    404000   224.40461      126871.8      -46662.249     -52141.271      50.248338      0.96581327   
    405000   221.75312      127643.91     -46687.322     -52101.605      50.350064      0.95997119   
    406000   227.03489      126975.19     -46609.218     -52152.46       50.261983      0.96502691   
    407000   226.64452      126963.48     -46488.312     -52022.023      50.260439      0.96511588   
    408000   223.04733      127002.18     -46649.487     -52095.369      50.265545      0.96482178   
    409000   229.34086      127026.35     -46455.982     -52055.526      50.268733      0.96463825   
    410000   225.15319      127411.73     -46537.889     -52035.188      50.319518      0.96172047   
    411000   225.43735      127050.97     -46661.205     -52165.442      50.271981      0.96445127   
    412000   224.11806      127354.29     -46623.213     -52095.238      50.311955      0.96215423   
    413000   224.74126      127479.44     -46525.68      -52012.922      50.328431      0.96120965   
    414000   224.97111      126928.18     -46658.564     -52151.417      50.25578       0.96538432   
    415000   224.32298      126951.02     -46605.139     -52082.167      50.258795      0.96521058   
    416000   226.94782      127430.16     -46615.241     -52156.357      50.321944      0.96158141   
    417000   229.65525      127533.93     -46447.219     -52054.439      50.3356        0.960799     
    418000   224.83254      127317.65     -46608.099     -52097.569      50.307129      0.96243119   
    419000   224.34502      127341.83     -46492.902     -51970.468      50.310315      0.96224837   
    420000   226.13144      127804.46     -46568.358     -52089.542      50.371165      0.95876527   
    421000   223.59031      127155.02     -46744.584     -52203.723      50.285701      0.96366206   
    422000   221.26765      127143.99     -46713.65      -52116.08       50.284247      0.96374568   
    423000   227.50094      127402.62     -46564.5       -52119.121      50.318319      0.96178925   
    424000   224.52449      127498.75     -46620.767     -52102.715      50.330971      0.96106412   
    425000   222.66294      127084.71     -46656.595     -52093.092      50.27643       0.96419527   
    426000   225.36383      127515.19     -46550.744     -52053.186      50.333134      0.9609402    
    427000   224.78741      126905.62     -46713.278     -52201.646      50.252803      0.9655559    
    428000   221.50371      127093.97     -46705.475     -52113.669      50.277652      0.96412496   
    429000   224.19823      127251.68     -46708.203     -52182.186      50.29844       0.96293007   
    430000   225.32774      127635.4      -46608.986     -52110.547      50.348945      0.96003518   
    431000   223.68369      127720.01     -46724.358     -52185.777      50.360068      0.95939921   
    432000   223.86327      127002.42     -46739.076     -52204.88       50.265576      0.96482001   
    433000   226.71014      127430.58     -46538.217     -52073.53       50.321999      0.96157827   
    434000   226.55804      126990.67     -46555.847     -52087.446      50.264026      0.96490925   
    435000   222.43705      126960.98     -46620.785     -52051.767      50.260108      0.96513491   
    436000   227.03285      127020.94     -46575.452     -52118.644      50.268019      0.96467934   
    437000   224.41656      127141.41     -46530.654     -52009.967      50.283906      0.96376525   
    438000   224.90645      127098.78     -46715.233     -52206.507      50.278285      0.96408851   
    439000   224.01741      127414.09     -46633.436     -52103.004      50.319828      0.96170269   
    440000   227.41082      126988.9      -46472.417     -52024.838      50.263792      0.96492274   
    441000   222.9387       127114.18     -46635.521     -52078.751      50.280316      0.96397171   
    442000   224.04649      126985.56     -46696.373     -52166.651      50.263351      0.96494811   
    443000   223.87712      127333.74     -46561.806     -52027.949      50.309249      0.96230954   
    444000   224.16491      126833.46     -46699.294     -52172.463      50.243275      0.96610528   
    445000   227.8431       127030.82     -46493.684     -52056.659      50.269323      0.96460427   
    446000   225.82435      127121.11     -46700.361     -52214.047      50.281229      0.96391918   
    447000   225.44663      126954.87     -46669.994     -52174.457      50.259303      0.96518131   
    448000   227.99174      127193.6      -46531.238     -52097.843      50.290785      0.96336982   
    449000   224.33517      127084.5      -46642.453     -52119.779      50.276403      0.96419682   
    450000   221.09071      126961.93     -46657.687     -52055.797      50.260234      0.96512766   
    451000   225.25128      127095.35     -46472.784     -51972.478      50.277834      0.96411449   
    452000   221.02056      126743.89     -46722.382     -52118.779      50.231446      0.96678798   
    453000   224.07238      126712.39     -46490.486     -51961.396      50.227284      0.96702835   
    454000   224.45278      126815.6      -46702.058     -52182.256      50.240917      0.96624131   
    455000   224.85731      126899.72     -46630.77      -52120.844      50.252023      0.96560082   
    456000   224.1717       126785.4      -46589.776     -52063.111      50.236928      0.96647149   
    457000   222.02703      126808.73     -46663.848     -52084.819      50.24001       0.96629367   
    458000   223.44933      126933.16     -46657.789     -52113.486      50.256437      0.96534645   
    459000   224.88638      126681.31     -46509.27      -52000.054      50.223177      0.96726562   
    460000   224.86413      126491.29     -46614.879     -52105.12       50.198053      0.96871868   
    461000   226.86752      126603.36     -46574.538     -52113.694      50.212874      0.96786111   
    462000   227.68801      126889.49     -46503.806     -52062.994      50.250673      0.96567869   
    463000   222.35693      126569.22     -46710.76      -52139.786      50.20836       0.96812219   
    464000   226.63399      126327.78     -46495.282     -52028.736      50.176415      0.96997247   
    465000   226.61934      126554.69     -46612.365     -52145.461      50.206438      0.96823337   
    466000   228.12432      126916.12     -46433.025     -52002.866      50.254188      0.96547604   
    467000   226.25581      126867.45     -46527.17      -52051.39       50.247764      0.96584639   
    468000   227.5692       126361.87     -46565.272     -52121.559      50.180927      0.96971085   
    469000   225.531        126616.94     -46595.174     -52101.697      50.214669      0.96775735   
    470000   225.51482      126470.25     -46618.199     -52124.327      50.195269      0.96887983   
    471000   226.19564      126988.08     -46578.234     -52100.985      50.263685      0.96492889   
    472000   221.90502      126722.28     -46586.667     -52004.659      50.228591      0.96695287   
    473000   228.02032      126464.14     -46459.838     -52027.14       50.194461      0.96892666   
    474000   226.6224       126717.55     -46561.323     -52094.493      50.227966      0.96698893   
    475000   223.32504      126595.72     -46570.333     -52022.996      50.211864      0.96791952   
    476000   227.63881      126161.16     -46593.024     -52151.011      50.154344      0.97125356   
    477000   221.46664      126732.55     -46591.704     -51998.993      50.229948      0.96687447   
    478000   224.59998      126755.77     -46623.775     -52107.566      50.233016      0.96669736   
    479000   225.70784      126241.82     -46619.782     -52130.623      50.165031      0.97063298   
    480000   224.54794      126555.97     -46651.07      -52133.591      50.206608      0.96822356   
    481000   224.95999      126740.15     -46588.539     -52081.121      50.230951      0.96681657   
    482000   228.31098      126199.21     -46556.277     -52130.676      50.159386      0.97096068   
    483000   224.4946       126460.83     -46591.345     -52072.564      50.194023      0.96895199   
    484000   225.96803      126743.83     -46621.41      -52138.603      50.231437      0.9667885    
    485000   222.385        126713.84     -46633.363     -52063.074      50.227476      0.96701725   
    486000   228.23737      126809.15     -46538.298     -52110.899      50.240065      0.96629048   
    487000   224.56881      126593.5      -46608.999     -52092.029      50.211571      0.9679365    
    488000   225.5672       126594.6      -46591.78      -52099.187      50.211716      0.96792808   
    489000   223.87074      126242.41     -46625.418     -52091.404      50.165109      0.97062841   
    490000   226.04941      126853.72     -46592.379     -52111.56       50.245951      0.96595094   
    491000   226.11356      126761.8      -46554.996     -52075.743      50.233812      0.96665139   
    492000   224.25011      126414.76     -46635.287     -52110.536      50.187927      0.96930512   
    493000   228.39034      126562.07     -46458.016     -52034.352      50.207415      0.96817687   
    494000   225.91175      126638.72     -46569.268     -52085.088      50.217548      0.96759088   
    495000   224.30598      126678.42     -46556.868     -52033.482      50.222796      0.96728763   
    496000   222.3601       126539.58     -46612.849     -52041.952      50.204441      0.96834895   
    497000   219.7497       126635.33     -46701.348     -52066.716      50.2171        0.96761681   
    498000   222.43783      126667.01     -46553.363     -51984.364      50.221287      0.96737478   
    499000   227.7274       126474.01     -46664.08      -52224.23       50.195767      0.968851     
    500000   226.97834      127259.6      -46514.689     -52056.55       50.299482      0.96287018   
    501000   224.13213      126513.85     -46606.839     -52079.208      50.201038      0.96854589   
    502000   226.8268       126704        -46615.344     -52153.505      50.226176      0.96709235   
    503000   226.35705      126936.54     -46645.16      -52171.852      50.256884      0.96532069   
    504000   224.77731      126676.02     -46618.177     -52106.298      50.222478      0.96730596   
    505000   223.402        126784.21     -46751.121     -52205.663      50.236772      0.96648052   
    506000   224.29689      126907.05     -46610.451     -52086.842      50.252991      0.96554504   
    507000   225.37184      126970.04     -46701.974     -52204.611      50.261303      0.96506606   
    508000   224.0827       127171.71     -46658.328     -52129.49       50.2879        0.96353565   
    509000   224.04606      126982.99     -46699.819     -52170.086      50.263013      0.96496762   
    510000   225.63427      126997.97     -46608.513     -52117.558      50.264989      0.96485378   
    511000   224.08039      126898.55     -46639.172     -52110.278      50.251869      0.96560974   
    512000   222.50997      126785.93     -46765.734     -52198.497      50.236999      0.96646745   
    513000   222.57686      127165.35     -46764.247     -52198.642      50.287062      0.96358381   
    514000   221.19727      126331.94     -46793.066     -52193.777      50.176965      0.96994053   
    515000   224.72852      126917.61     -46686.569     -52173.499      50.254384      0.96546473   
    516000   224.47647      127291.78     -46693.638     -52174.414      50.303722      0.96262674   
    517000   225.17994      126721.57     -46566.785     -52064.737      50.228497      0.96695829   
    518000   222.7209       126889.32     -46598.554     -52036.466      50.25065       0.96567998   
    519000   226.85208      126763.52     -46493.467     -52032.245      50.234039      0.96663828   
    520000   230.5218       127013.99     -46461.881     -52090.259      50.267103      0.96473209   
    521000   223.92052      126803.09     -46661.851     -52129.053      50.239265      0.96633668   
    522000   224.89525      127528.36     -46630.115     -52121.116      50.334868      0.96084093   
    523000   221.84199      127217.09     -46782.054     -52198.507      50.293882      0.96319188   
    524000   227.23341      127690.14     -46491.098     -52039.187      50.356142      0.95962362   
    525000   225.11626      126852.98     -46557.947     -52054.344      50.245853      0.96595659   
    526000   223.01788      126732.58     -46657.923     -52103.087      50.229951      0.9668743    
    527000   224.78508      126948.02     -46585.559     -52073.87       50.258398      0.96523345   
    528000   226.87147      126541.96     -46687.247     -52226.499      50.204756      0.96833072   
    529000   225.97912      126952.45     -46456.481     -51973.945      50.258983      0.96519973   
    530000   224.12793      126888.35     -46665.18      -52137.446      50.250523      0.96568733   
    531000   224.74168      126626.13     -46576.515     -52063.766      50.215884      0.96768711   
    532000   225.50273      127228.92     -46584.05      -52089.883      50.295441      0.96310233   
    533000   224.17567      126974.42     -46597.714     -52071.146      50.261882      0.96503276   
    534000   226.05259      127195.01     -46587.478     -52106.736      50.290971      0.96335912   
    535000   224.44178      127502.32     -46740.183     -52220.112      50.331441      0.96103719   
    536000   226.58022      126729.14     -46603.858     -52135.999      50.229498      0.96690049   
    537000   223.87192      127111.28     -46739.377     -52205.392      50.279934      0.96399369   
    538000   226.50916      127296.88     -46674.849     -52205.255      50.304394      0.96258817   
    539000   225.94517      126802.31     -46631.856     -52148.492      50.239162      0.96634259   
    540000   225.99139      127575.67     -46729.475     -52247.239      50.341091      0.96048462   
    541000   224.66964      127386.59     -46531.938     -52017.43       50.316209      0.96191027   
    542000   223.63791      127406.02     -46628.407     -52088.709      50.318765      0.96176364   
    543000   225.00593      127330.07     -46676.037     -52169.74       50.308765      0.96233728   
    544000   222.9195       126771.91     -46804.503     -52247.264      50.235147      0.96657431   
    545000   226.37924      126656.91     -46600.972     -52128.206      50.219952      0.96745193   
    546000   223.06304      126347.08     -46665.702     -52111.968      50.17897       0.9698243    
    547000   224.58501      126674.31     -46544.132     -52027.558      50.222251      0.96731907   
    548000   222.61603      126920.2      -46554.017     -51989.369      50.254727      0.96544496   
    549000   226.67191      126966.99     -46633.971     -52168.35       50.260902      0.9650892    
    550000   223.65286      127038.89     -46659.876     -52120.543      50.270387      0.96454303   
    551000   228.28478      126624.18     -46495.382     -52069.141      50.215627      0.96770196   
    552000   227.74453      126747.61     -46660.54      -52221.108      50.231938      0.9667596    
    553000   227.27832      126638.32     -46506.212     -52055.398      50.217495      0.96759397   
    554000   224.90154      126983.99     -46651.22      -52142.374      50.263145      0.96496001   
    555000   225.84435      126952.94     -46589.269     -52103.443      50.259048      0.96519598   
    556000   225.24047      127027.06     -46527.601     -52027.03       50.268826      0.96463284   
    557000   227.03714      127228.94     -46587.802     -52131.099      50.295443      0.96310218   
    558000   224.86541      126780.71     -46691.623     -52181.895      50.23631       0.9665072    
    559000   225.55067      126515.77     -46603.447     -52110.451      50.201291      0.96853125   
    560000   226.7969       126973.76     -46561.473     -52098.904      50.261795      0.96503777   
    561000   225.9351       126611.38     -46706.538     -52222.928      50.213934      0.9677998    
    562000   223.61252      126874.11     -46671.384     -52131.066      50.248642      0.96579574   
    563000   225.20355      126978.69     -46715.562     -52214.091      50.262446      0.96500025   
    564000   220.50076      126888.61     -46616.279     -51999.985      50.250557      0.96568535   
    565000   227.0738       126539.48     -46502.777     -52046.969      50.204427      0.96834973   
    566000   221.98585      126768.27     -46648.731     -52068.696      50.234666      0.96660211   
    567000   223.51253      126623.29     -46512.793     -51970.033      50.215508      0.96770884   
    568000   225.59628      127258.9      -46547.476     -52055.593      50.29939       0.96287549   
    569000   226.67266      127008.53     -46596.414     -52130.812      50.266383      0.96477353   
    570000   224.77914      127178.31     -46691.639     -52179.804      50.28877       0.96348565   
    571000   225.76358      126190.1      -46741.635     -52253.837      50.15818       0.97103076   
    572000   221.63162      127073.69     -46743.351     -52154.668      50.274977      0.96427887   
    573000   221.36413      126868.97     -46806.141     -52210.927      50.247965      0.96583481   
    574000   225.81367      126847.65     -46598.932     -52112.356      50.245149      0.96599721   
    575000   222.14824      127060.54     -46692.624     -52116.555      50.273243      0.96437864   
    576000   227.01253      127074.37     -46671.167     -52213.863      50.275066      0.96427371   
    577000   224.31661      127355.91     -46606.532     -52083.405      50.312169      0.962142     
    578000   224.40486      127257.88     -46574.784     -52053.812      50.299256      0.96288315   
    579000   221.47079      127261.8      -46728.489     -52135.879      50.299772      0.96285354   
    580000   225.19766      126968.16     -46689.777     -52188.161      50.261056      0.96508033   
    581000   225.8378       126695.5      -46608.064     -52122.078      50.225052      0.96715727   
    582000   220.77224      127073.99     -46769.326     -52159.66       50.275017      0.96427655   
    583000   222.44462      127091.55     -46683.471     -52114.638      50.277333      0.96414332   
    584000   223.1643       126993.54     -46608.824     -52057.562      50.264404      0.96488746   
    585000   227.29876      127430.8      -46613.665     -52163.349      50.322028      0.96157656   
    586000   221.11087      127233.24     -46791.003     -52189.605      50.29601       0.96306962   
    587000   224.22478      127260.78     -46685.308     -52159.939      50.299639      0.96286121   
    588000   225.77649      127280.79     -46615.455     -52127.972      50.302274      0.96270988   
    589000   229.65955      127374.39     -46498.962     -52106.287      50.314602      0.96200241   
    590000   226.66517      126720        -46682.397     -52216.612      50.22829       0.96697024   
    591000   224.74834      126807.16     -46768.108     -52255.521      50.239803      0.9663056    
    592000   222.76029      127025.73     -46696.918     -52135.793      50.268652      0.96464291   
    593000   227.10884      127205.59     -46581.233     -52126.281      50.292365      0.96327903   
    594000   224.04363      126806.26     -46727.992     -52198.2        50.239684      0.96631248   
    595000   223.29179      126914.39     -46661.282     -52113.133      50.25396       0.96548921   
    596000   225.97796      127321.85     -46657.539     -52174.975      50.307682      0.96239943   
    597000   225.72961      127582.15     -46702.09      -52213.462      50.341942      0.9604359    
    598000   223.34482      127930.25     -46679.695     -52132.841      50.387686      0.95782253   
    599000   225.51654      127301.64     -46736.722     -52242.892      50.305021      0.96255217   
    600000   227.11519      127417.32     -46614.674     -52159.877      50.320253      0.96167834   
    601000   223.60211      127916.93     -46780.745     -52240.173      50.385938      0.95792223   
    602000   224.51171      126843.59     -46643.037     -52124.673      50.244613      0.96602813   
    603000   224.95856      127288.3      -46606.289     -52098.836      50.303264      0.96265306   
    604000   223.99407      127047.79     -46691.093     -52160.091      50.271561      0.96447544   
    605000   225.95787      126459.79     -46618.244     -52135.189      50.193886      0.96895994   
    606000   224.66659      126778.24     -46693.256     -52178.674      50.235984      0.96652603   
    607000   226.12012      127005.48     -46660.325     -52181.232      50.265979      0.96479677   
    608000   227.9728       127299.4      -46442.305     -52008.446      50.304725      0.96256915   
    609000   223.83801      127101.19     -46731.37      -52196.557      50.278603      0.96407023   
    610000   230.06598      126851.46     -46546.161     -52163.409      50.245653      0.96596814   
    611000   226.48507      126993.74     -46620.584     -52150.402      50.264432      0.96488589   
    612000   226.21244      127235.34     -46547.546     -52070.707      50.296286      0.96305378   
    613000   223.61418      126990.16     -46597.708     -52057.431      50.263959      0.96491309   
    614000   222.76193      126322.65     -46761.683     -52200.597      50.175734      0.97001192   
    615000   222.81594      127107.58     -46632.077     -52072.31       50.279446      0.96402177   
    616000   224.95715      127257.53     -46573.901     -52066.414      50.29921       0.96288585   
    617000   224.96062      127210.6      -46640.182     -52132.779      50.293027      0.96324102   
    618000   224.74714      126778.17     -46798.83      -52286.214      50.235974      0.96652656   
    619000   225.20794      126517.78     -46804.401     -52303.036      50.201557      0.96851584   
    620000   228.81383      127017.81     -46601.405     -52188.081      50.267606      0.9647031    
    621000   224.1519       126474.94     -46652.118     -52124.969      50.19589       0.96884387   
    622000   224.56541      126894.01     -46736.203     -52219.151      50.251269      0.96564429   
    623000   223.48738      127295.97     -46745.673     -52202.299      50.304274      0.96259506   
    624000   225.93028      126882.24     -46747.223     -52263.494      50.249716      0.96573383   
    625000   220.47122      126727.92     -46712.49      -52095.475      50.229336      0.96690984   
    626000   225.42727      126707.3      -46675.21      -52179.201      50.226611      0.96706721   
    627000   224.58449      126788.54     -46706.367     -52189.781      50.237343      0.96644755   
    628000   224.297        126928.35     -46669.622     -52146.016      50.255802      0.96538301   
    629000   222.61716      127071        -46847.874     -52283.253      50.274622      0.96429928   
    630000   225.95668      127664.48     -46631.442     -52148.359      50.352769      0.95981651   
    631000   223.31084      127244.8      -46818.046     -52270.363      50.297533      0.96298216   
    632000   225.95185      127262.71     -46731.388     -52248.187      50.299892      0.96284666   
    633000   221.90692      127269.96     -46795.429     -52213.467      50.300847      0.96279179   
    634000   224.14203      127340.15     -46728.252     -52200.862      50.310093      0.96226106   
    635000   226.72552      127160.84     -46568.774     -52104.462      50.286468      0.96361796   
    636000   224.12116      127428.34     -46714.055     -52186.156      50.321704      0.96159513   
    637000   224.66697      126836.98     -46601.071     -52086.498      50.24374       0.96607845   
    638000   226.41665      127518.13     -46558.4       -52086.548      50.333521      0.96091803   
    639000   223.19839      127688.03     -46798.929     -52248.499      50.355865      0.95963948   
    640000   227.54504      127200.49     -46638.209     -52193.907      50.291694      0.96331761   
    641000   225.62507      127251.29     -46645.637     -52154.457      50.298388      0.96293302   
    642000   222.46876      127390.26     -46672.943     -52104.699      50.316692      0.96188254   
    643000   222.38641      127206        -46740.35      -52170.095      50.292419      0.96327592   
    644000   222.56453      127206.64     -46782.496     -52216.591      50.292504      0.96327107   
    645000   224.73152      127729.49     -46621.202     -52108.206      50.361315      0.95932798   
    646000   222.62139      127780.17     -46877.209     -52312.692      50.367974      0.9589475    
    647000   225.30934      127510.76     -46712.711     -52213.823      50.332552      0.96097357   
    648000   222.83157      127516.22     -46822.724     -52263.339      50.33327       0.96093241   
    649000   227.67424      127227.48     -46638.588     -52197.44       50.295251      0.96311324   
    650000   223.51079      127923.63     -46745.238     -52202.436      50.386818      0.95787204   
    651000   223.34034      127145.41     -46809.914     -52262.95       50.284433      0.96373493   
    652000   222.73727      127357.33     -46731.471     -52169.783      50.312356      0.96213126   
    653000   227.67376      126936.79     -46703.915     -52262.756      50.256917      0.96531879   
    654000   227.55965      127047.43     -46753.012     -52309.066      50.271514      0.96447814   
    655000   225.41307      127204.45     -46765.117     -52268.761      50.292215      0.96328765   
    656000   227.65972      127051.21     -46631.306     -52189.804      50.272012      0.96444947   
    657000   223.78564      127010.42     -46711.224     -52175.133      50.266631      0.96475923   
    658000   225.52242      127075.89     -46703.168     -52209.481      50.275268      0.96426213   
    659000   228.0604       127468.88     -46657.898     -52226.179      50.32704       0.96128933   
    660000   225.35046      127496.03     -46825.469     -52327.584      50.330613      0.96108459   
    661000   225.5012       127507.82     -46673.454     -52179.249      50.332165      0.96099573   
    662000   226.92684      127012.11     -46750.391     -52290.995      50.266855      0.96474637   
    663000   221.84056      127323.08     -46779.824     -52196.242      50.307845      0.96239007   
    664000   223.55739      127557.91     -46707.465     -52165.801      50.338755      0.96061836   
    665000   223.34192      127120.61     -46876.134     -52329.209      50.281164      0.96392297   
    666000   224.36422      126849.53     -46792.555     -52270.59       50.245397      0.96598287   
    667000   223.81849      127061.49     -46775.638     -52240.349      50.273368      0.96437145   
    668000   222.21598      127015.71     -46723.866     -52149.45       50.26733       0.96471903   
    669000   225.29047      126863.64     -46636.807     -52137.458      50.247261      0.96587542   
    670000   226.36498      127069.83     -46693.606     -52220.492      50.274468      0.96430814   
    671000   223.79714      127108.88     -46738.726     -52202.915      50.279617      0.96401192   
    672000   228.23571      126823.26     -46858.824     -52431.384      50.241929      0.96618295   
    673000   225.83877      127087.29     -46691.633     -52205.671      50.276771      0.96417566   
    674000   221.97061      126806.49     -46847.192     -52266.786      50.239714      0.96631074   
    675000   225.39378      127357.49     -46574.428     -52077.6        50.312376      0.96213011   
    676000   225.88434      127036.22     -46670.271     -52185.422      50.270035      0.96456325   
    677000   222.5809       127382.81     -46762.542     -52197.036      50.31571       0.96193887   
    678000   224.48133      127458.43     -46674.422     -52155.317      50.325665      0.96136811   
    679000   223.63889      127291.98     -46745.502     -52205.827      50.303748      0.96262524   
    680000   222.28021      127042.31     -46653.078     -52080.23       50.270839      0.964517     
    681000   224.9122       126873.75     -46625.361     -52116.775      50.248596      0.96579843   
    682000   226.93677      127109.93     -46619.601     -52160.447      50.279756      0.96400392   
    683000   225.26617      127014.26     -46785.948     -52286.005      50.267138      0.96473005   
    684000   227.34767      126759.46     -46709.171     -52260.05       50.233502      0.96666926   
    685000   221.98299      126689.33     -46726.214     -52146.11       50.224237      0.96720433   
    686000   225.92199      126761.4      -46809.882     -52325.952      50.233759      0.96665447   
    687000   228.50522      126843.57     -46537.821     -52116.963      50.244611      0.96602824   
    688000   224.529        127351.27     -46737.107     -52219.166      50.311558      0.96217704   
    689000   224.81058      126986.15     -46642.955     -52131.888      50.26343       0.96494357   
    690000   228.70971      127019.59     -46708.008     -52292.142      50.267841      0.9646896    
    691000   231.9215       127204.77     -46584.159     -52246.712      50.292258      0.96328517   
    692000   223.90709      127035.76     -46775.892     -52242.766      50.269974      0.9645668    
    693000   224.6511       126933.62     -46752.033     -52237.072      50.256499      0.96534289   
    694000   226.79708      126885.65     -46634.153     -52171.589      50.250166      0.96570791   
    695000   224.95515      127078.25     -46723.784     -52216.248      50.275579      0.96424422   
    696000   223.8019       126895.4      -46663.262     -52127.568      50.251454      0.96563366   
    697000   227.19188      126499.08     -46745.656     -52292.731      50.199083      0.96865904   
    698000   224.58082      126777.13     -46738.272     -52221.596      50.235836      0.96653455   
    699000   224.90191      126963.47     -46750.968     -52242.131      50.260438      0.96511594   
    700000   225.27613      127099.85     -46642.024     -52142.325      50.278427      0.96408039   
    701000   221.93014      126561.47     -46709.906     -52128.511      50.207335      0.96818147   
    702000   225.07184      127056.38     -46823.83      -52319.143      50.272693      0.96441026   
    703000   225.19796      126858.76     -46669.99      -52168.382      50.246616      0.9659126    
    704000   225.8439       126680.79     -46752.339     -52266.502      50.223108      0.96726957   
    705000   222.11888      126877.79     -46832.143     -52255.357      50.249128      0.96576773   
    706000   226.6888       127129.7      -46668.275     -52203.067      50.282363      0.96385401   
    707000   224.77564      126999.14     -46622.576     -52110.656      50.265144      0.96484488   
    708000   228.55525      127077.51     -46486.917     -52067.28       50.275481      0.96424986   
    709000   225.14042      127133.44     -46661.571     -52158.558      50.282855      0.96382567   
    710000   227.40108      126884.17     -46874.46      -52426.643      50.249971      0.96571913   
    711000   225.43331      126723.02     -46850.938     -52355.076      50.228688      0.96694724   
    712000   226.88422      126589.6      -46726.083     -52265.646      50.211054      0.96796638   
    713000   222.46246      126430.24     -46873.255     -52304.857      50.189976      0.96918645   
    714000   227.34067      127247.98     -46659.878     -52210.586      50.297952      0.96295808   
    715000   226.42789      126965.65     -46656.048     -52184.469      50.260724      0.96509942   
    716000   228.65578      126480.15     -46524.547     -52107.364      50.196579      0.96880399   
    717000   223.63679      126438.88     -46769.819     -52230.093      50.191119      0.96912018   
    718000   225.36615      126193.95     -46714.396     -52216.894      50.15869       0.97100114   
    719000   225.22333      126411.95     -46627.983     -52126.995      50.187555      0.96932669   
    720000   225.54715      126890.21     -46614.48      -52121.398      50.250768      0.96567319   
    721000   222.03917      126520.04     -46760.322     -52181.589      50.201855      0.96849856   
    722000   221.99318      126950.26     -46631.595     -52051.74       50.258694      0.96521638   
    723000   224.25026      126507.59     -46706.945     -52182.198      50.200209      0.96859384   
    724000   225.97956      127126.48     -46664.917     -52182.392      50.281938      0.96387841   
    725000   226.44797      127117.77     -46526.011     -52054.923      50.28079       0.96394445   
    726000   226.49163      126445.56     -46647.141     -52177.118      50.192003      0.96906902   
    727000   223.94725      126881.77     -46712.928     -52180.783      50.249654      0.96573744   
    728000   222.93246      126809.44     -46613.783     -52056.861      50.240103      0.96628828   
    729000   224.47895      127468.23     -46592.689     -52073.525      50.326955      0.96129422   
    730000   221.42363      127247.14     -46714.487     -52120.726      50.297841      0.96296444   
    731000   226.14901      127088.39     -46677.873     -52199.485      50.276916      0.9641673    
    732000   229.2647       127099.12     -46580.783     -52178.467      50.27833       0.96408593   
    733000   224.31764      127047.44     -46711.89      -52188.788      50.271515      0.9644781    
    734000   226.47372      127312.54     -46585.99      -52115.53       50.306456      0.9624698    
    735000   225.34459      127222.58     -46652.537     -52154.509      50.294604      0.96315038   
    736000   226.31184      127012.04     -46627.125     -52152.713      50.266845      0.96474691   
    737000   221.24956      126961.05     -46748.857     -52150.845      50.260118      0.96513437   
    738000   221.71237      126996.8      -46734.802     -52148.09       50.264835      0.96486265   
    739000   224.79449      127129.75     -46688.753     -52177.293      50.282369      0.96385363   
    740000   225.85211      126905.35     -46746.45      -52260.813      50.252767      0.96555797   
    741000   225.9587       127259.77     -46605.775     -52122.741      50.299505      0.96286889   
    742000   223.64314      126991.58     -46769.724     -52230.153      50.264147      0.96490231   
    743000   222.56491      127232.72     -46805.142     -52239.245      50.295941      0.96307357   
    744000   224.52266      126955.27     -46656.655     -52138.558      50.259355      0.96517831   
    745000   227.07366      126714.7      -46486.639     -52030.827      50.227589      0.96701071   
    746000   223.49087      126646.93     -46727.689     -52184.401      50.218633      0.96752816   
    747000   226.87076      126650.78     -46559.524     -52098.759      50.219142      0.96749879   
    748000   229.97683      127090.79     -46510.514     -52125.585      50.277232      0.96414908   
    749000   227.16276      127526.73     -46658.023     -52204.387      50.334652      0.96085327   
    750000   222.22649      126997.39     -46684.836     -52110.677      50.264913      0.96485817   
    751000   224.09903      127100.68     -46667.008     -52138.569      50.278536      0.96407408   
    752000   225.18051      126976.79     -46628.67      -52126.635      50.262195      0.96501469   
    753000   224.20013      127389.88     -46529.998     -52004.027      50.316642      0.96188542   
    754000   222.77449      127075.49     -46701.705     -52140.926      50.275214      0.96426521   
    755000   222.83506      127158.81     -46677.625     -52118.324      50.2862        0.96363335   
    756000   224.60366      126805.41     -46728.808     -52212.689      50.239572      0.96631894   
    757000   224.41007      127404.89     -46615.644     -52094.799      50.318617      0.96177215   
    758000   225.64153      127259.96     -46639.695     -52148.917      50.29953       0.96286745   
    759000   223.40815      127030.54     -46776.807     -52231.499      50.269285      0.96460644   
    760000   224.9309       127057.83     -46611.016     -52102.888      50.272886      0.96439919   
    761000   224.46137      127570.96     -46687.888     -52168.295      50.340471      0.9605201    
    762000   222.67231      127352.88     -46759.52      -52196.245      50.311769      0.96216493   
    763000   225.80067      127244.91     -46552.239     -52065.346      50.297547      0.96298133   
    764000   223.47016      127363.28     -46702.265     -52158.472      50.313139      0.96208632   
    765000   227.61627      127154.07     -46574.177     -52131.614      50.285575      0.96366927   
    766000   226.2543       126942.3      -46563.182     -52087.365      50.257644      0.96527691   
    767000   226.4175       127572.23     -46593.067     -52121.235      50.340638      0.96051056   
    768000   226.07019      127192.62     -46612.601     -52132.289      50.290657      0.96337719   
    769000   223.06409      127292.76     -46711.16      -52157.452      50.303851      0.96261933   
    770000   224.13062      127225.51     -46695.917     -52168.249      50.29499       0.9631282    
    771000   228.86809      127706.16     -46536.263     -52124.264      50.358248      0.95950324   
    772000   225.1663       127708.47     -46719.278     -52216.896      50.358551      0.9594859    
    773000   222.99907      127201.64     -46701.246     -52145.95       50.291845      0.96330892   
    774000   228.92276      127108.83     -46478.127     -52067.463      50.279611      0.96401227   
    775000   226.49193      127249.03     -46655.082     -52185.068      50.29809       0.96295017   
    776000   225.3561       126934.64     -46655.581     -52157.834      50.256633      0.96533514   
    777000   224.53159      127244.01     -46661.6       -52143.722      50.297429      0.96298811   
    778000   225.80714      127654.67     -46514.147     -52027.412      50.35148       0.95989023   
    779000   222.12616      127389.3      -46674.359     -52097.75       50.316565      0.96188984   
    780000   225.91885      126913.69     -46602.846     -52118.839      50.253868      0.9654945    
    781000   228.1234       127038.11     -46696.698     -52266.517      50.270284      0.96454893   
    782000   225.12291      126854.92     -46681.415     -52177.975      50.246109      0.96594183   
    783000   229.65082      127181.64     -46613.297     -52220.409      50.28921       0.96346035   
    784000   222.60906      127503.45     -46709.238     -52144.419      50.331589      0.96102868   
    785000   224.55289      126953.09     -46704.396     -52187.038      50.259067      0.96519489   
    786000   221.75647      126885.33     -46753.147     -52167.512      50.250124      0.96571033   
    787000   225.15649      126942.17     -46777.252     -52274.631      50.257626      0.96527791   
    788000   225.01084      127137.49     -46672.95      -52166.773      50.283389      0.96379496   
    789000   224.63941      127715.93     -46712.443     -52197.197      50.359533      0.9594298    
    790000   224.66259      126948.2      -46697.199     -52182.519      50.258422      0.96523206   
    791000   223.85334      127094.21     -46736.318     -52201.88       50.277683      0.96412314   
    792000   221.82398      126669.28     -46712.059     -52128.072      50.221587      0.96735748   
    793000   226.33082      127213.69     -46670.861     -52196.913      50.293433      0.96321767   
    794000   220.4641       126850.06     -46777.848     -52160.659      50.245467      0.96597886   
    795000   228.16829      126654.42     -46572.089     -52143.004      50.219623      0.96747098   
    796000   225.71595      126626.46     -46651.328     -52162.367      50.215928      0.96768455   
    797000   222.94786      126689.04     -46671.505     -52114.959      50.224199      0.96720654   
    798000   226.00261      126877.25     -46656.513     -52174.55       50.249057      0.96577184   
    799000   226.86069      127155.74     -46685.246     -52224.235      50.285796      0.96365661   
    800000   224.25686      127095.65     -46671.631     -52147.045      50.277873      0.96411223   
    801000   223.07052      127204.76     -46800.438     -52246.886      50.292257      0.96328526   
    802000   224.27072      127324        -46704.44      -52180.192      50.307966      0.96238312   
    803000   226.81255      127626.06     -46634.214     -52172.027      50.347718      0.96010542   
    804000   225.31387      127228.71     -46712.426     -52213.648      50.295412      0.96310398   
    805000   222.27761      127141.87     -46877.617     -52304.706      50.283968      0.96376172   
    806000   223.31091      127378        -46655.948     -52108.266      50.315077      0.96197517   
    807000   221.65797      127221.09     -46663.907     -52075.867      50.294408      0.96316166   
    808000   223.37585      127569.77     -46753.731     -52207.635      50.340315      0.96052905   
    809000   227.56905      127783.89     -46650.094     -52206.378      50.368464      0.95891956   
    810000   223.5508       127331.06     -46651.837     -52110.012      50.308895      0.96232981   
    811000   225.40162      127211.57     -46693.265     -52196.63       50.293154      0.96323372   
    812000   225.46681      126857.61     -46588.565     -52093.521      50.246465      0.96592131   
    813000   223.74066      127076.35     -46572.546     -52035.357      50.275327      0.96425869   
    814000   223.81742      127257.6      -46669.603     -52134.288      50.299219      0.96288532   
    815000   224.14893      126968.19     -46625.556     -52098.335      50.26106       0.96508006   
    816000   228.00168      126256.39     -46656.695     -52223.542      50.166961      0.97052094   
    817000   221.9942       126421.43     -46752.683     -52172.852      50.18881       0.96925396   
    818000   222.30648      126945.17     -46645.786     -52073.58       50.258022      0.96525508   
    819000   224.60946      126986.55     -46517.625     -52001.649      50.263483      0.96494052   
    820000   223.71666      126524.93     -46675.398     -52137.623      50.202503      0.96846108   
    821000   228.08847      126996.27     -46479.578     -52048.544      50.264765      0.96486668   
    822000   227.89116      126624.32     -46602.081     -52166.23       50.215645      0.96770093   
    823000   220.72053      127091.16     -46692.87      -52081.942      50.277281      0.96414627   
    824000   228.2082       127119.13     -46558.168     -52130.057      50.280969      0.96393415   
    825000   229.9917       126676.72     -46447.176     -52062.611      50.22257       0.96730065   
    826000   222.74557      127319.88     -46675.458     -52113.973      50.307423      0.96241432   
    827000   228.54535      127122.96     -46470.533     -52050.654      50.281473      0.96390515   
    828000   228.19605      126894.56     -46664.069     -52235.662      50.251342      0.96564009   
    829000   225.31426      126712.93     -46533.515     -52034.746      50.227355      0.96702423   
    830000   224.78281      126449.43     -46589.031     -52077.287      50.192515      0.96903934   
    831000   226.34689      127191.76     -46457.04      -51983.484      50.290542      0.96338377   
    832000   223.63552      126916.42     -46587.2       -52047.444      50.254227      0.96547378   
    833000   221.80471      126750.01     -46642.03      -52057.573      50.232254      0.96674135   
    834000   223.07477      127000.21     -46697.385     -52143.938      50.265285      0.96483676   
    835000   227.34092      127367.01     -46560.195     -52110.909      50.313629      0.9620582    
    836000   225.38357      127589.23     -46621.662     -52124.586      50.342875      0.96038253   
    837000   226.66263      127474.82     -46680.941     -52215.094      50.327822      0.96124452   
    838000   223.0427       127127.55     -46709.318     -52155.088      50.282079      0.96387033   
    839000   228.65201      127054.83     -46612.869     -52195.595      50.272489      0.96442202   
    840000   227.42589      126830.46     -46610.819     -52163.608      50.242879      0.96612812   
    841000   226.98184      127153.8      -46658.849     -52200.795      50.285539      0.96367137   
    842000   222.37399      127492.1      -46749.685     -52179.127      50.330096      0.96111422   
    843000   225.43002      127426        -46638.607     -52142.665      50.321396      0.96161283   
    844000   225.25697      127842.25     -46789.114     -52288.947      50.37613       0.95848182   
    845000   224.55779      127054.86     -46695.007     -52177.768      50.272493      0.9644218    
    846000   224.98438      127447.24     -46627.484     -52120.661      50.324192      0.96145252   
    847000   224.08075      127474.4      -46734.671     -52205.785      50.327767      0.96124769   
    848000   225.15027      127176.8      -46830.037     -52327.264      50.288572      0.96349704   
    849000   224.36216      127093.54     -46696.93      -52174.915      50.277594      0.96412826   
    850000   224.14833      126971.6      -46768.146     -52240.91       50.26151       0.96505417   
    851000   225.12306      127103.22     -46740.831     -52237.394      50.27887       0.96405486   
    852000   226.18867      127216.61     -46618.184     -52140.765      50.293818      0.96319556   
    853000   228.58113      126719.24     -46604.769     -52185.764      50.228189      0.96697605   
    854000   224.01167      127079.14     -46681.142     -52150.569      50.275696      0.9642375    
    855000   225.68029      127379.12     -46665.746     -52175.914      50.315225      0.9619667    
    856000   224.41084      126966.9      -46745.647     -52224.82       50.26089       0.96508988   
    857000   223.62011      127038.64     -46751.403     -52211.27       50.270354      0.9645449    
    858000   225.44026      127323.17     -46721.081     -52225.389      50.307857      0.9623894    
    859000   224.83822      127085.63     -46682.693     -52172.301      50.276552      0.96418822   
    860000   224.80194      126888.57     -46669.573     -52158.295      50.250551      0.96568568   
    861000   225.89375      127072        -46745.539     -52260.919      50.274754      0.96429168   
    862000   226.49967      126693.64     -46683.515     -52213.69       50.224806      0.96717148   
    863000   226.32621      126918.31     -46739.979     -52265.917      50.254477      0.96545939   
    864000   224.59477      127697.22     -46584.826     -52068.49       50.357074      0.95957036   
    865000   225.28048      127162.62     -46695.061     -52195.468      50.286703      0.96360447   
    866000   227.06589      127682.56     -46649.485     -52193.484      50.355147      0.95968054   
    867000   223.82591      126873.37     -46719.088     -52183.98       50.248545      0.96580137   
    868000   223.7565       126755.24     -46704.367     -52167.565      50.232945      0.96670145   
    869000   225.64607      127267.85     -46694.526     -52203.858      50.30057       0.96280775   
    870000   223.8881       126442.12     -46707.51      -52173.921      50.191548      0.96909535   
    871000   224.68381      126900.06     -46615.682     -52101.52       50.252068      0.96559825   
    872000   222.18856      126696.01     -46705.357     -52130.271      50.22512       0.96715333   
    873000   227.73064      127105.68     -46577.786     -52138.015      50.279196      0.96403614   
    874000   224.91662      126879.48     -46691.503     -52183.026      50.249352      0.96575482   
    875000   229.23295      127241.07     -46608.349     -52205.259      50.297041      0.9630104    
    876000   223.25613      127215.61     -46674.542     -52125.523      50.293686      0.96320315   
    877000   226.61594      126706.38     -46588.992     -52122.005      50.22649       0.9670742    
    878000   225.60318      127195.94     -46709.383     -52217.668      50.291094      0.96335207   
    879000   220.42343      127110.47     -46934.541     -52316.359      50.279826      0.96399987   
    880000   223.81812      127139.3      -46750.056     -52214.758      50.283628      0.96378125   
    881000   224.77874      127419.46     -46599.239     -52087.395      50.320535      0.96166219   
    882000   221.44569      127387.35     -46771.827     -52178.604      50.316308      0.96190456   
    883000   224.74595      127194.46     -46674.814     -52162.17       50.290899      0.9633633    
    884000   223.31411      127343.24     -46790.819     -52243.215      50.310499      0.96223778   
    885000   227.67739      127774.26     -46628.687     -52187.616      50.367198      0.95899182   
    886000   222.08437      127487.26     -46772.953     -52195.324      50.329459      0.96115074   
    887000   224.2827       127290.63     -46666.78      -52142.825      50.303571      0.96263541   
    888000   226.74095      127455.24     -46612.757     -52148.823      50.325245      0.9613922    
    889000   225.83569      127500.8      -46637.769     -52151.732      50.331241      0.96104865   
    890000   222.77894      127226.9      -46592.762     -52032.091      50.295174      0.96311764   
    891000   223.98192      127059.57     -46723.021     -52191.722      50.273115      0.96438599   
    892000   226.95864      127452.95     -46681.647     -52223.027      50.324944      0.96140944   
    893000   222.45365      127533.25     -46816.408     -52247.795      50.33551       0.96080412   
    894000   224.40106      127451.01     -46676.634     -52155.569      50.324688      0.96142413   
    895000   226.4962       127114.74     -46656.075     -52186.164      50.28039       0.96396748   
    896000   223.10113      127495.54     -46663.384     -52110.58       50.330548      0.96108832   
    897000   221.22386      127479.34     -46598.208     -51999.569      50.328417      0.96121043   
    898000   224.81804      127544.19     -46751.653     -52240.768      50.33695       0.96072171   
    899000   227.60116      127943.06     -46581.278     -52138.345      50.389367      0.95772663   
    900000   226.8315       127201.27     -46667.046     -52205.322      50.291797      0.9633117    
    901000   228.58678      127525.21     -46667.761     -52248.893      50.334452      0.96086471   
    902000   223.91679      127199.26     -46756.587     -52223.698      50.291531      0.96332695   
    903000   224.79943      127720.74     -46727.787     -52216.448      50.360165      0.95939367   
    904000   225.39396      127487.14     -46749.092     -52252.269      50.329443      0.96115164   
    905000   225.2669       127569.58     -46736.941     -52237.016      50.34029       0.96053049   
    906000   226.22291      127627.15     -46719.619     -52243.036      50.347861      0.96009724   
    907000   222.5488       127477.48     -46616.03      -52049.74       50.328173      0.96122444   
    908000   223.28584      127169.41     -46688.953     -52140.658      50.287597      0.96355304   
    909000   226.54083      127274.69     -46623.249     -52154.428      50.301471      0.96275599   
    910000   222.39222      127363.12     -46626.26      -52056.147      50.313117      0.96208758   
    911000   225.28742      127561.45     -46732.439     -52233.015      50.339219      0.96059175   
    912000   226.76793      127600.8      -46626.47      -52163.194      50.344396      0.96029548   
    913000   226.00272      127079.34     -46624.585     -52142.626      50.275723      0.96423596   
    914000   222.73301      127449.75     -46630.887     -52069.095      50.324522      0.96143362   
    915000   225.9486       127685.02     -46621.791     -52138.51       50.355469      0.9596621    
    916000   226.37351      127301.23     -46584.981     -52112.075      50.304967      0.96255529   
    917000   224.32875      127422.36     -46677.864     -52155.034      50.320918      0.96164023   
    918000   228.01059      127390.6      -46662.242     -52229.307      50.316735      0.96188005   
    919000   223.73074      127558.5      -46728.177     -52190.745      50.338831      0.96061397   
    920000   224.94474      127266.81     -46685         -52177.21       50.300433      0.96281561   
    921000   225.33935      127493.54     -46691.316     -52193.16       50.330285      0.96110341   
    922000   223.64045      126734.19     -46706.189     -52166.553      50.230164      0.96686203   
    923000   222.44629      127342.9      -46712.567     -52143.774      50.310455      0.96224034   
    924000   224.34074      127489.84     -46704.551     -52182.013      50.329799      0.96113126   
    925000   224.83434      128003.34     -46581.902     -52071.416      50.397281      0.95727555   
    926000   224.30623      128118.86     -46698.293     -52174.912      50.412437      0.95641242   
    927000   226.0434       127657.6      -46578.877     -52097.911      50.351865      0.95986822   
    928000   224.92306      128161.53     -46598.204     -52089.883      50.418032      0.95609405   
    929000   221.90801      127224.55     -46670.994     -52089.059      50.294864      0.96313543   
    930000   226.22509      127485.49     -46527.141     -52050.611      50.329227      0.96116403   
    931000   226.73281      127451.08     -46666.169     -52202.036      50.324697      0.96142358   
    932000   223.52871      127711.49     -46623.81      -52081.446      50.358949      0.95946318   
    933000   227.6309       127144.84     -46644.022     -52201.816      50.284359      0.96373924   
    934000   225.51627      127058.06     -46551.403     -52057.566      50.272915      0.96439749   
    935000   223.33237      126887.16     -46775.132     -52227.974      50.250365      0.96569641   
    936000   227.48226      127204.32     -46618.6       -52172.765      50.292198      0.96328861   
    937000   226.527        127657.45     -46551.573     -52082.414      50.351845      0.95986935   
    938000   226.48235      127006.89     -46596.514     -52126.265      50.266166      0.96478602   
    939000   223.8457       127032.89     -46692.68      -52158.055      50.269595      0.96458858   
    940000   226.36049      127177.21     -46698.302     -52225.078      50.288625      0.96349397   
    941000   223.12731      127308.39     -46821.169     -52269.004      50.30591       0.96250117   
    942000   225.51126      127070.52     -46618.778     -52124.819      50.274559      0.96430291   
    943000   226.27237      126641.35     -46608.388     -52133.012      50.217896      0.96757078   
    944000   229.18622      127542.58     -46496.573     -52092.341      50.336738      0.96073384   
    945000   224.12156      127093.03     -46661.559     -52133.67       50.277528      0.96413211   
    946000   229.03358      127110.06     -46588.689     -52180.731      50.279773      0.96400294   
    947000   225.73924      127401.83     -46598.775     -52110.383      50.318215      0.96179521   
    948000   225.20012      127783.84     -46642.216     -52140.66       50.368457      0.95891994   
    949000   227.80405      127633.61     -46577.817     -52139.839      50.34871       0.96004863   
    950000   224.26013      126784.28     -46691.899     -52167.393      50.236781      0.96648      
    951000   225.86645      127143.97     -46582.148     -52096.862      50.284244      0.96374581   
    952000   229.26284      127627.47     -46551.771     -52149.41       50.347904      0.96009478   
    953000   223.55238      127023.91     -46614.882     -52073.096      50.268411      0.96465678   
    954000   224.71319      127627.39     -46713.583     -52200.139      50.347892      0.96009544   
    955000   227.60864      127195.73     -46517.396     -52074.647      50.291066      0.96335369   
    956000   226.05379      127475.47     -46621.024     -52140.312      50.327908      0.96123959   
    957000   222.12956      126981.59     -46757.307     -52180.781      50.262828      0.96497827   
    958000   229.15262      126979.73     -46546.509     -52141.457      50.262582      0.96499239   
    959000   226.6975       127248.82     -46646.926     -52181.931      50.298063      0.96295172   
    960000   226.66448      126879.21     -46599.021     -52133.219      50.249316      0.96575693   
    961000   228.75113      127104.05     -46538.63      -52123.775      50.27898       0.96404855   
    962000   226.19834      127082.69     -46649.782     -52172.598      50.276164      0.96421058   
    963000   224.44519      127300        -46721.716     -52201.728      50.304805      0.9625646    
    964000   223.8194       127369.19     -46669.14      -52133.874      50.313917      0.96204173   
    965000   225.35506      127599.61     -46470.097     -51972.325      50.344239      0.96030447   
    966000   226.52541      127049.22     -46627.535     -52158.337      50.271749      0.96446459   
    967000   223.55009      127405.97     -46638.994     -52097.152      50.31876       0.96176395   
    968000   223.67742      127949.98     -46723.318     -52184.585      50.390276      0.95767484   
    969000   224.74801      127413.98     -46684.995     -52172.401      50.319814      0.96170351   
    970000   226.91177      127541.06     -46628.874     -52169.11       50.336537      0.96074532   
    971000   226.39534      127123.47     -46589.141     -52116.768      50.281541      0.96390128   
    972000   223.92457      127598.65     -46621.114     -52088.415      50.344114      0.96031163   
    973000   228.0193       128108.77     -46588.568     -52155.845      50.411113      0.95648775   
    974000   227.0711       126907.48     -46687.623     -52231.749      50.253048      0.96554176   
    975000   227.27523      127218.1      -46591.995     -52141.105      50.294015      0.96318426   
    976000   224.62042      127525.93     -46645.583     -52129.874      50.334547      0.96085926   
    977000   225.47874      127878.86     -46652.828     -52158.075      50.380939      0.9582074    
    978000   226.04933      127461.53     -46627.955     -52147.134      50.326073      0.96134477   
    979000   224.90569      127269.27     -46591.92      -52083.176      50.300757      0.96279698   
    980000   225.18448      127454.03     -46693.167     -52191.23       50.325086      0.96140131   
    981000   223.6717       126972.13     -46579.581     -52040.708      50.261579      0.96505017   
    982000   224.2282       127527.11     -46660.281     -52134.995      50.334702      0.9608504    
    983000   223.8784       127415.26     -46642.906     -52109.079      50.319983      0.96169384   
    984000   223.63036      127336.85     -46576.161     -52036.278      50.309658      0.96228603   
    985000   221.39997      127156.41     -46718.811     -52124.472      50.285883      0.96365159   
    986000   226.08502      127246.65     -46566.307     -52086.357      50.297776      0.9629682    
    987000   226.30846      127390.61     -46576.13      -52101.636      50.316737      0.96187995   
    988000   226.63283      127511.09     -46555.585     -52089.011      50.332594      0.96097111   
    989000   225.91585      127642.96     -46560.12      -52076.04       50.34994       0.95997828   
    990000   227.26405      127203.4      -46671.351     -52220.188      50.292077      0.96329557   
    991000   226.69295      127280.51     -46608.709     -52143.602      50.302238      0.96271196   
    992000   229.03821      126893.12     -46463.78      -52055.934      50.251152      0.96565105   
    993000   228.42275      127322.1      -46570.567     -52147.695      50.307716      0.9623975    
    994000   227.05884      127397.9      -46594.608     -52138.434      50.317698      0.96182486   
    995000   224.60602      127662.16     -46590.019     -52073.958      50.352465      0.9598339    
    996000   221.72298      127817.04     -46750.16      -52163.707      50.372819      0.95867084   
    997000   224.92698      127445.81     -46677.367     -52169.142      50.324004      0.96146331   
    998000   225.66348      127494.8      -46642.188     -52151.946      50.330452      0.96109386   
    999000   225.96149      127444.5      -46565.96      -52082.994      50.323832      0.9614732    
   1000000   225.20722      127095.65     -46586.666     -52085.283      50.277873      0.96411222   
   1001000   225.13176      127008.46     -46707.745     -52204.52       50.266373      0.96477412   
   1002000   226.24516      127482.31     -46518.488     -52042.448      50.328807      0.96118806   
   1003000   222.16912      127099.17     -46732.867     -52157.307      50.278337      0.96408553   
   1004000   227.25912      127027.83     -46637.388     -52186.105      50.268929      0.96462695   
   1005000   220.91971      126901.91     -46725.096     -52119.031      50.252313      0.96558412   
   1006000   223.8164       127018.41     -46514.205     -51978.865      50.267686      0.96469853   
   1007000   224.2194       126983.97     -46680.018     -52154.517      50.263142      0.96496018   
   1008000   223.78208      127338.71     -46557.582     -52021.404      50.309903      0.96227198   
   1009000   224.29848      127328.97     -46594.3       -52070.731      50.30862       0.9623456    
   1010000   225.63915      127179.01     -46523.76      -52032.924      50.288862      0.96348033   
   1011000   226.465        127235.69     -46477.275     -52006.602      50.296332      0.9630511    
   1012000   227.34597      127351.68     -46492.551     -52043.388      50.311611      0.96217401   
   1013000   224.23434      127164.55     -46654.394     -52129.258      50.286957      0.96358985   
   1014000   224.9296       127219.59     -46628.345     -52120.185      50.294211      0.96317297   
   1015000   223.6734       127003.77     -46622.151     -52083.319      50.265754      0.96480973   
   1016000   228.0421       126893.2      -46526.73      -52094.564      50.251163      0.96565039   
   1017000   226.2757       127078.56     -46566.445     -52091.151      50.275619      0.9642419    
   1018000   221.50112      127274.94     -46776.845     -52184.975      50.301504      0.96275411   
   1019000   227.54673      126959.22     -46515.103     -52070.842      50.259877      0.96514825   
   1020000   226.3019       127386.84     -46654.936     -52180.281      50.316241      0.96190838   
   1021000   226.22361      127805.36     -46535.275     -52058.708      50.371284      0.95875846   
   1022000   229.15674      126499.26     -46455.54      -52050.589      50.199108      0.96865761   
   1023000   224.78343      127152.48     -46426.124     -51914.395      50.285365      0.96368137   
   1024000   223.55055      127122.45     -46557.037     -52015.206      50.281407      0.96390898   
   1025000   224.74935      126992.19     -46507.305     -51994.743      50.264226      0.96489773   
   1026000   224.37163      126717.63     -46596.146     -52074.362      50.227977      0.96698832   
   1027000   227.68372      126940.03     -46434.794     -51993.877      50.257344      0.96529416   
   1028000   224.77159      127164.54     -46567.33      -52055.311      50.286956      0.96358992   
   1029000   227.39499      127367.88     -46333.426     -51885.46       50.313744      0.96205163   
   1030000   222.37912      126568.27     -46530.14      -51959.708      50.208235      0.96812943   
   1031000   224.4301       127370.09     -46525.895     -52005.539      50.314035      0.96203492   
   1032000   218.98414      126833.51     -46664.008     -52010.684      50.243282      0.96610487   
   1033000   226.94213      126838.92     -46575.754     -52116.731      50.243997      0.96606366   
   1034000   230.34495      126668.98     -46318.353     -51942.413      50.221547      0.96735978   
   1035000   223.41715      127270.59     -46505.817     -51960.729      50.30093       0.96278704   
   1036000   223.81211      126602.18     -46558.064     -52022.619      50.212717      0.96787018   
   1037000   228.05021      126041.49     -46494.437     -52062.469      50.138481      0.97217572   
   1038000   226.63881      126402.23     -46586.428     -52119.999      50.186269      0.96940118   
   1039000   226.87942      126806.09     -46416.048     -51955.494      50.239661      0.96631378   
   1040000   226.80831      126629.59     -46507.899     -52045.609      50.216342      0.96766063   
   1041000   223.4633       126360.03     -46654.275     -52110.313      50.180683      0.96972495   
   1042000   223.77189      126686.67     -46554.481     -52018.054      50.223886      0.96722464   
   1043000   226.2165       126918.45     -46325.497     -51848.758      50.254496      0.96545829   
   1044000   223.75899      126351.93     -46633.182     -52096.44       50.179611      0.96978711   
   1045000   225.11484      126168.24     -46443.061     -51939.423      50.155283      0.97119899   
   1046000   224.86294      126829.47     -46548.428     -52038.64       50.242749      0.96613566   
   1047000   222.99944      126824.56     -46554.298     -51999.011      50.242101      0.96617302   
   1048000   225.85671      126856.38     -46618.342     -52132.817      50.246303      0.96593067   
   1049000   226.93828      126610.27     -46511.968     -52052.851      50.213787      0.96780831   
   1050000   226.67956      126417.97     -46546.863     -52081.43       50.188352      0.96928049   
   1051000   225.95364      126590.66     -46592.315     -52109.157      50.211195      0.96795823   
   1052000   228.78154      125962.99     -46423.989     -52009.877      50.128071      0.97278154   
   1053000   223.51478      126787.85     -46582.882     -52040.177      50.237253      0.96645276   
   1054000   226.03143      126468.25     -46468.826     -51987.568      50.195005      0.96889514   
   1055000   224.0038       127224.11     -46578.57      -52047.805      50.294807      0.96313876   
   1056000   226.01901      126393.03     -46542.07      -52060.508      50.185052      0.96947174   
   1057000   226.07377      126568.67     -46491.308     -52011.084      50.208288      0.96812638   
   1058000   219.4409       126181.58     -46775.534     -52133.362      50.157051      0.97109632   
   1059000   227.4461       126369.66     -46465.223     -52018.505      50.181958      0.96965106   
   1060000   224.38716      126219.63     -46454.553     -51933.148      50.162091      0.97080364   
   1061000   224.619        125770.39     -46483.996     -51968.252      50.102508      0.97427126   
   1062000   225.90345      126733.29     -46432.491     -51948.108      50.230045      0.96686887   
   1063000   224.28683      125960.75     -46557.094     -52033.239      50.127773      0.97279885   
   1064000   223.77949      126505.19     -46586.688     -52050.447      50.199892      0.9686122    
   1065000   228.87986      126151.02     -46438.681     -52026.969      50.153001      0.97133159   
   1066000   222.85073      126556.93     -46582.253     -52023.335      50.206734      0.96821625   
   1067000   225.25045      126137.02     -46434.121     -51933.794      50.151145      0.97143942   
   1068000   225.80613      125538.09     -46577.126     -52090.367      50.071642      0.97607406   
   1069000   225.25893      126285.2      -46543.059     -52042.94       50.170776      0.97029955   
   1070000   226.62754      125567.99     -46529.218     -52062.514      50.075618      0.97584161   
   1071000   226.54618      126168.11     -46544.519     -52075.829      50.155266      0.9712       
   1072000   228.20026      125753.32     -46422.145     -51993.84       50.100241      0.97440349   
   1073000   225.08687      125850.39     -46581.777     -52077.456      50.113129      0.97365193   
   1074000   224.68552      126175.04     -46508.439     -51994.319      50.156184      0.97114666   
   1075000   223.71488      126438.02     -46472.071     -51934.252      50.191005      0.9691268    
   1076000   226.38531      125696.52     -46502.616     -52029.998      50.092697      0.9748438    
   1077000   228.5769       126119.26     -46236.245     -51817.136      50.148792      0.97157618   
   1078000   223.01186      125827.43     -46542.96      -51987.976      50.110081      0.9738296    
   1079000   229.10554      126142.01     -46477.689     -52071.488      50.151807      0.97140097   
   1080000   227.94249      125997.9      -46418.515     -51983.917      50.1327        0.97251204   
   1081000   225.98814      126145.07     -46536.473     -52054.158      50.152213      0.97137739   
   1082000   222.38711      125744.54     -46562.095     -51991.857      50.099076      0.97447148   
   1083000   227.11117      125852.31     -46477.361     -52022.465      50.113384      0.97363704   
   1084000   223.15618      126080.21     -46590.513     -52039.053      50.143615      0.97187713   
   1085000   227.84999      126083.22     -46345.27      -51908.413      50.144014      0.97185391   
   1086000   227.05436      125970.95     -46476.981     -52020.698      50.129126      0.97272011   
   1087000   221.45472      125860.42     -46571.608     -51978.605      50.11446       0.97357434   
   1088000   225.87269      126115.39     -46442.945     -51957.811      50.148279      0.97160601   
   1089000   227.88091      126337.02     -46425.797     -51989.695      50.177637      0.96990158   
   1090000   223.11167      126375.95     -46630.835     -52078.289      50.182791      0.9696028    
   1091000   227.68641      125935.58     -46480.729     -52039.879      50.124435      0.97299324   
   1092000   225.50338      126248.16     -46568.355     -52074.204      50.165871      0.97058421   
   1093000   228.92977      126332.97     -46461.278     -52050.785      50.177101      0.96993266   
   1094000   223.80221      126437.76     -46531.944     -51996.258      50.190971      0.96912878   
   1095000   227.70479      126282.14     -46456.245     -52015.843      50.17037       0.97032308   
   1096000   223.99152      126330.31     -46551.243     -52020.178      50.176749      0.96995305   
   1097000   226.53199      126008.76     -46548.152     -52079.115      50.134141      0.97242819   
   1098000   225.6454       126630.91     -46363.607     -51872.923      50.216516      0.96765058   
   1099000   224.3496       126581.27     -46549.938     -52027.616      50.209953      0.96803003   
   1100000   226.64961      126619.89     -46493.074     -52026.909      50.215059      0.96773479   
   1101000   225.58344      126301.87     -46625.278     -52133.081      50.172983      0.97017149   
   1102000   224.98456      126468.07     -46503.199     -51996.381      50.194981      0.96889651   
   1103000   220.84651      127067.36     -46709.23      -52101.378      50.274143      0.96432686   
   1104000   226.60074      126148.01     -46494.917     -52027.559      50.152602      0.97135475   
   1105000   228.39893      126883.53     -46386.872     -51963.419      50.249887      0.96572399   
   1106000   228.27578      126274.2      -46370.103     -51943.642      50.169319      0.97038409   
   1107000   226.0099       126460.33     -46564.483     -52082.699      50.193957      0.96895584   
   1108000   223.6871       126532.09     -46506.096     -51967.599      50.20345       0.96840626   
   1109000   218.93248      126815.68     -46590.663     -51936.078      50.240928      0.9662407    
   1110000   225.52473      126515.2      -46422.04      -51928.41       50.201216      0.96853559   
   1111000   223.58829      126227.95     -46590.265     -52049.356      50.163194      0.97073958   
   1112000   225.18319      126603.61     -46473.271     -51971.302      50.212906      0.96785927   
   1113000   223.24481      126382.4      -46581.814     -52032.518      50.183645      0.96955328   
   1114000   227.00769      126744.43     -46441.435     -51984.013      50.231516      0.96678391   
   1115000   226.06848      126561.04     -46671.675     -52191.321      50.207278      0.96818481   
   1116000   226.23427      126551.4      -46458.525     -51982.219      50.206003      0.96825854   
   1117000   223.25894      126583.58     -46571.743     -52022.792      50.210258      0.96801238   
   1118000   226.86002      126594.35     -46567.035     -52106.007      50.211683      0.96793001   
   1119000   223.19441      126462.21     -46631.018     -52080.492      50.194206      0.96894142   
   1120000   224.14341      126660.07     -46635.747     -52108.391      50.22037       0.96742778   
   1121000   228.29186      126978.33     -46368.481     -51942.413      50.262397      0.96500305   
   1122000   227.04693      126820.29     -46467.756     -52011.292      50.241537      0.96620557   
   1123000   222.90121      126565.04     -46639.994     -52082.309      50.207807      0.96815417   
   1124000   223.91418      126897.76     -46639.968     -52107.015      50.251765      0.9656157    
   1125000   223.57593      126346.61     -46518.832     -51977.621      50.178907      0.96982795   
   1126000   222.40178      126544.45     -46744.185     -52174.306      50.205085      0.96831169   
   1127000   224.7181       126747.33     -46590.104     -52076.78       50.2319        0.96676175   
   1128000   224.00513      126689.68     -46702.265     -52171.533      50.224283      0.96720167   
   1129000   226.94937      126224.25     -46569.13      -52110.284      50.162704      0.97076806   
   1130000   226.00932      126924.75     -46655.764     -52173.966      50.255327      0.96541042   
   1131000   222.18789      126723.48     -46818.055     -52242.954      50.22875       0.96694369   
   1132000   225.6382       127021.04     -46516.4       -52025.541      50.268032      0.96467858   
   1133000   223.36171      127224.38     -46642.987     -52096.545      50.294842      0.96313669   
   1134000   225.90441      126807.27     -46587.132     -52102.773      50.239817      0.96630482   
   1135000   223.30786      127002.42     -46702.083     -52154.327      50.265576      0.96481998   
   1136000   222.9066       127370.94     -46644.376     -52086.823      50.314148      0.96202846   
   1137000   223.65081      126421.73     -46563.08      -52023.697      50.18885       0.96925165   
   1138000   226.98992      126526.84     -46518.233     -52060.377      50.202756      0.96844646   
   1139000   224.47717      126623.68     -46795.616     -52276.409      50.215561      0.96770579   
   1140000   223.8156       127396.79     -46549.733     -52014.373      50.317551      0.96183327   
   1141000   228.7809       126747.11     -46597.914     -52183.786      50.231871      0.96676342   
   1142000   225.5653       127306.77     -46595.511     -52102.871      50.305697      0.96251339   
   1143000   223.38475      126502.97     -46632.669     -52086.79       50.199598      0.9686292    
   1144000   226.49053      127412.01     -46460.993     -51990.944      50.319555      0.96171837   
   1145000   222.80949      126331.32     -46703.237     -52143.312      50.176883      0.96994529   
   1146000   227.43747      126564.73     -46537.206     -52090.277      50.207766      0.96815656   
   1147000   224.27152      126396.75     -46634.184     -52109.956      50.185544      0.96944324   
   1148000   223.73078      126827.6      -46585.597     -52048.166      50.242502      0.96614988   
   1149000   223.67475      126650.41     -46600.324     -52061.526      50.219093      0.96750157   
   1150000   222.25107      126749.31     -46632.56      -52059.001      50.232161      0.9667467    
   1151000   223.35485      126597.1      -46569.237     -52022.627      50.212046      0.96790898   
   1152000   223.75517      126698.66     -46690.307     -52153.471      50.225469      0.96713317   
   1153000   225.76131      126628.22     -46617.705     -52129.852      50.21616       0.96767116   
   1154000   227.13112      126541.18     -46673.803     -52219.395      50.204652      0.96833674   
   1155000   223.51387      126970.9      -46639.438     -52096.711      50.261418      0.96505947   
   1156000   228.38338      126713.88     -46560.041     -52136.207      50.227481      0.96701695   
   1157000   222.0048       127085.76     -46711.098     -52131.526      50.276569      0.96418724   
   1158000   223.57319      127128.61     -46601.044     -52059.766      50.282219      0.96386227   
   1159000   223.23084      127131.82     -46607.904     -52058.267      50.282642      0.96383796   
   1160000   225.87807      126386.32     -46729.789     -52244.786      50.184163      0.96952325   
   1161000   228.53342      126529.7      -46556.273     -52136.103      50.203133      0.96842461   
   1162000   224.01955      127096.42     -46674.47      -52144.09       50.277975      0.96410638   
   1163000   225.42287      127153.99     -46592.382     -52096.266      50.285565      0.9636699    
   1164000   224.33235      127114.73     -46730.191     -52207.449      50.280388      0.96396756   
   1165000   225.49242      127375.34     -46611.998     -52117.579      50.314726      0.96199528   
   1166000   224.65464      127296.69     -46681.411     -52166.537      50.304369      0.96258959   
   1167000   227.06355      127364.49     -46609.904     -52153.846      50.313298      0.96207721   
   1168000   222.56399      127176.02     -46786.103     -52220.184      50.288469      0.96350295   
   1169000   226.01398      127028.57     -46633.026     -52151.341      50.269026      0.96462134   
   1170000   222.62936      127089.29     -46850.667     -52286.344      50.277034      0.9641605    
   1171000   223.70427      126615.78     -46741.19      -52203.112      50.214515      0.96776623   
   1172000   224.66261      127248.76     -46503.306     -51988.627      50.298055      0.96295218   
   1173000   226.88439      127100.7      -46702.711     -52242.278      50.278539      0.96407393   
   1174000   222.62924      127080.45     -46792.795     -52228.469      50.275868      0.96422756   
   1175000   225.81632      127540.01     -46627.197     -52140.686      50.336399      0.96075321   
   1176000   225.34144      126741.34     -46651.699     -52153.594      50.231108      0.96680748   
   1177000   223.17287      127210.43     -46708.722     -52157.669      50.293004      0.96324233   
   1178000   224.44113      127534.42     -46677.927     -52157.84       50.335664      0.96079534   
   1179000   225.08135      127106        -46636.888     -52132.432      50.279238      0.96403373   
   1180000   225.06099      127461.61     -46683.347     -52178.395      50.326084      0.96134411   
   1181000   222.20401      127341.12     -46693.49      -52118.782      50.310221      0.96225374   
   1182000   225.13155      127089.08     -46622.809     -52119.58       50.277006      0.9641621    
   1183000   224.7557       127277.24     -46720.882     -52208.476      50.301806      0.96273674   
   1184000   225.01413      127303.2      -46584.724     -52078.627      50.305226      0.96254039   
   1185000   224.90317      126789.77     -46535.269     -52026.463      50.237507      0.96643813   
   1186000   224.0987       126890.49     -46637.79      -52109.343      50.250806      0.96567103   
   1187000   223.45525      126917.22     -46750.745     -52206.587      50.254333      0.96546766   
   1188000   225.34479      126750.21     -46666.266     -52168.243      50.232281      0.9667398    
   1189000   224.08635      126382.06     -46618.531     -52089.782      50.1836        0.96955591   
   1190000   228.20935      127369.33     -46534.823     -52106.74       50.313936      0.96204061   
   1191000   223.25454      126956.45     -46664.742     -52115.684      50.259511      0.96516933   
   1192000   224.03355      127009.9      -46561.06      -52031.022      50.266564      0.96476312   
   1193000   224.47537      126661.16     -46567.624     -52048.373      50.220514      0.96741946   
   1194000   222.76206      126770.97     -46566.289     -52005.206      50.235023      0.96658148   
   1195000   225.72345      126943.05     -46441.949     -51953.171      50.257743      0.9652712    
   1196000   225.93722      126597.75     -46566.064     -52082.505      50.212132      0.96790405   
   1197000   224.40941      126887.84     -46573.838     -52052.976      50.250456      0.96569118   
   1198000   223.58173      126679.39     -46578.445     -52037.375      50.222923      0.96728026   
   1199000   226.61949      126736.57     -46519.575     -52052.674      50.230479      0.96684384   
   1200000   226.31867      127103.23     -46589.31      -52115.065      50.278873      0.96405474   
   1201000   223.3739       126615.53     -46637.863     -52091.719      50.214482      0.96776813   
   1202000   226.34192      126428.38     -46582.059     -52108.381      50.18973       0.96920065   
   1203000   223.70141      126574.85     -46537.561     -51999.413      50.209104      0.96807917   
   1204000   224.92087      127026.99     -46692.362     -52183.988      50.268818      0.96463333   
   1205000   226.46327      126860.08     -46583.752     -52113.037      50.246791      0.9659025    
   1206000   226.5257       126580.57     -46586.544     -52117.354      50.209861      0.96803538   
   1207000   226.48069      127025.68     -46522.85      -52052.561      50.268644      0.96464332   
   1208000   225.52406      127243.92     -46598.129     -52104.483      50.297417      0.96298882   
   1209000   228.07804      126882.93     -46465.652     -52034.364      50.249807      0.96572859   
   1210000   226.60645      127458.05     -46598.443     -52131.224      50.325615      0.96137096   
   1211000   222.31228      127184.11     -46732.874     -52160.809      50.289535      0.96344164   
   1212000   223.96225      127039.99     -46676.537     -52144.758      50.270532      0.96453466   
   1213000   226.50181      127486.26     -46576.148     -52106.374      50.329327      0.96115828   
   1214000   223.89294      127456.71     -46658.506     -52125.035      50.325439      0.96138107   
   1215000   224.80947      126864.43     -46629.571     -52118.478      50.247364      0.96586944   
   1216000   224.21294      127425.71     -46670.844     -52145.186      50.321358      0.96161497   
   1217000   228.34202      126800.43     -46520.624     -52095.78       50.238914      0.96635691   
   1218000   224.2204       127690.19     -46525.34      -51999.864      50.35615       0.9596232    
   1219000   223.15324      127435.61     -46611.93      -52060.398      50.322662      0.96154026   
   1220000   223.45089      127197.09     -46741.148     -52196.883      50.291246      0.96334333   
   1221000   222.65817      126682.57     -46680.679     -52117.06       50.223344      0.96725596   
   1222000   224.27599      126888.28     -46738.465     -52214.346      50.250513      0.9656879    
   1223000   226.3823       126964.16     -46483.848     -52011.157      50.260528      0.96511075   
   1224000   222.01799      127198.5      -46673.985     -52094.736      50.291431      0.96333269   
   1225000   222.73222      127000.39     -46686.106     -52124.295      50.265309      0.96483538   
   1226000   226.58454      126931.82     -46527.833     -52060.08       50.25626       0.96535663   
   1227000   223.52978      126687.16     -46640.575     -52098.237      50.22395       0.96722093   
   1228000   228.10532      126527.1      -46559.479     -52128.856      50.20279       0.96844445   
   1229000   225.24061      126549.4      -46611.869     -52111.302      50.205739      0.96827383   
   1230000   224.63439      126473.62     -46588.846     -52073.478      50.195716      0.96885399   
   1231000   223.81768      127053.11     -46606.082     -52070.774      50.272262      0.96443508   
   1232000   225.37313      126981.35     -46740.604     -52243.273      50.262796      0.96498009   
   1233000   228.48388      126730.35     -46530.199     -52108.819      50.229656      0.96689133   
   1234000   226.68336      127370.61     -46641.234     -52175.893      50.314103      0.96203101   
   1235000   222.82985      127174.06     -46677.824     -52118.396      50.28821       0.96351784   
   1236000   224.39022      127148.36     -46593.761     -52072.431      50.284823      0.96371253   
   1237000   223.25309      126953.69     -46530.178     -51981.084      50.259147      0.96519028   
   1238000   225.98542      126636.38     -46583.189     -52100.807      50.217239      0.96760874   
   1239000   224.49418      126942.94     -46647.305     -52128.513      50.257728      0.96527204   
   1240000   222.57718      126659.44     -46630.156     -52064.559      50.220286      0.96743263   
   1241000   223.66292      126881.3      -46506.402     -51967.315      50.249592      0.96574098   
   1242000   225.43379      126721.16     -46448.243     -51952.393      50.228443      0.96696139   
   1243000   226.92361      126576        -46594.568     -52135.093      50.209256      0.96807036   
   1244000   222.52457      126690.19     -46576.789     -52009.907      50.224351      0.96719776   
   1245000   226.34046      126854.62     -46599.969     -52126.256      50.24607       0.96594411   
   1246000   227.66332      126524.2      -46479.431     -52038.017      50.202406      0.96846671   
   1247000   225.77978      126779.14     -46678.197     -52190.794      50.236102      0.96651921   
   1248000   225.85724      126577.77     -46687.898     -52202.387      50.209491      0.9680568    
   1249000   225.38498      126373.74     -46655.895     -52158.853      50.182499      0.9696197    
   1250000   226.77625      126683.54     -46649.786     -52186.713      50.223472      0.96724853   
   1251000   226.0091       126588.42     -46608.621     -52126.818      50.210899      0.96797537   
   1252000   225.7731       126952.68     -46579.714     -52092.148      50.259013      0.96519801   
   1253000   223.6782       126942.76     -46728.092     -52189.377      50.257705      0.96527339   
   1254000   226.243        126733.19     -46536.573     -52060.48       50.230032      0.96686963   
   1255000   224.28081      127069.59     -46670.699     -52146.698      50.274436      0.96430998   
   1256000   223.99472      127267.78     -46676.559     -52145.573      50.30056       0.96280831   
   1257000   226.76861      127310.9      -46638.848     -52175.589      50.30624       0.9624822    
   1258000   225.12455      127269.31     -46676.822     -52173.421      50.300761      0.96279674   
   1259000   227.59688      127260.35     -46556.563     -52113.527      50.299582      0.96286448   
   1260000   225.55555      127219.83     -46614.383     -52121.506      50.294242      0.96317117   
   1261000   226.7443       126941.25     -46652.384     -52188.53       50.257505      0.9652849    
   1262000   226.66608      127160.21     -46606.338     -52140.575      50.286385      0.96362273   
   1263000   225.77078      127325.78     -46601.107     -52113.485      50.3082        0.9623697    
   1264000   225.70233      126945.17     -46530.313     -52041.019      50.258023      0.96525507   
   1265000   225.56251      127029.79     -46646.33      -52153.622      50.269187      0.96461208   
   1266000   225.65403      127277.9      -46594.218     -52103.745      50.301893      0.96273173   
   1267000   228.04915      126771.23     -46550.16      -52118.166      50.235057      0.96657949   
   1268000   225.72784      126956.41     -46555.993     -52067.322      50.259505      0.96516966   
   1269000   222.47252      127039.48     -46643.765     -52075.612      50.270465      0.96453852   
   1270000   228.61788      126858.71     -46510.126     -52092.018      50.246609      0.96591299   
   1271000   224.46598      127123.3      -46595.19      -52075.709      50.281519      0.96390253   
   1272000   223.25174      127169        -46633.373     -52084.246      50.287544      0.96355613   
   1273000   224.90449      127077.35     -46699.365     -52190.591      50.27546       0.96425105   
   1274000   225.0046       127403.01     -46637.55      -52131.221      50.31837       0.96178632   
   1275000   227.22636      127066.91     -46545.164     -52093.081      50.274083      0.96433032   
   1276000   221.53973      126938.07     -46655.253     -52064.326      50.257086      0.96530907   
   1277000   227.8216       126775.14     -46403.746     -51966.196      50.235574      0.96654966   
   1278000   228.31479      126936.23     -46611.992     -52186.484      50.256842      0.96532307   
   1279000   223.75893      127100.19     -46653.265     -52116.521      50.278471      0.96407784   
   1280000   225.60904      126746.17     -46597.842     -52106.271      50.231747      0.96677062   
   1281000   224.64282      126873.5      -46611.737     -52096.574      50.248563      0.96580033   
   1282000   227.34828      127029.55     -46494.026     -52044.92       50.269155      0.96461392   
   1283000   222.32476      127220.57     -46616.485     -52044.725      50.294339      0.96316559   
   1284000   222.84812      126827.28     -46624.302     -52065.32       50.24246       0.96615233   
   1285000   226.46785      127229.03     -46452.207     -51981.604      50.295455      0.96310151   
   1286000   224.04729      127373.34     -46478.889     -51949.186      50.314463      0.96201037   
   1287000   224.37178      126835.32     -46614.15      -52092.37       50.243522      0.96609107   
   1288000   224.51253      127044.8      -46715.208     -52196.864      50.271167      0.96449814   
   1289000   224.46858      127156.55     -46603.97      -52084.553      50.285901      0.96365053   
   1290000   223.05991      127292.88     -46683.474     -52129.664      50.303867      0.9626184    
   1291000   226.14213      126965.52     -46622.342     -52143.786      50.260707      0.9651004    
   1292000   225.05533      126959.07     -46567.999     -52062.908      50.259857      0.96514941   
   1293000   222.37597      127184.28     -46619.913     -52049.403      50.289557      0.96344042   
   1294000   223.20522      127457.7      -46576.211     -52025.948      50.325569      0.96137363   
   1295000   225.94531      127215.61     -46621.606     -52138.245      50.293687      0.96320309   
   1296000   224.95322      126961.36     -46681.108     -52173.524      50.260158      0.96513202   
   1297000   226.48974      127043.79     -46765.501     -52295.433      50.271033      0.96450583   
   1298000   226.42971      127469.88     -46549.116     -52077.582      50.327172      0.96128175   
   1299000   225.38523      127965.89     -46771.623     -52274.587      50.392365      0.95755575   
   1300000   226.33574      127595.71     -46659.767     -52185.939      50.343727      0.96033377   
   1301000   226.25144      127673.24     -46590.983     -52115.096      50.353921      0.9597506    
   1302000   226.52075      127289.37     -46655.622     -52186.31       50.303405      0.96264494   
   1303000   222.29687      127216.44     -46608.267     -52035.826      50.293795      0.96319685   
   1304000   223.71061      127029.83     -46680.972     -52143.049      50.269192      0.96461182   
   1305000   223.89541      127231.35     -46685.597     -52152.186      50.29576       0.96308396   
   1306000   227.21366      127185.95     -46578.116     -52125.722      50.289778      0.96342771   
   1307000   224.15768      127198.36     -46594.757     -52067.749      50.291413      0.96333374   
   1308000   225.85669      127191.15     -46653.273     -52167.748      50.290463      0.96338833   
   1309000   226.81206      126925.81     -46519.212     -52057.013      50.255468      0.9654023    
   1310000   226.68968      127525.51     -46615.49      -52150.303      50.334492      0.96086242   
   1311000   222.85589      126931.68     -46781.492     -52222.701      50.256243      0.96535765   
   1312000   225.84638      127191.53     -46544.564     -52058.788      50.290513      0.96338546   
   1313000   227.49661      126927.23     -46561.524     -52116.039      50.255654      0.96539156   
   1314000   225.64889      127317.47     -46648.004     -52157.406      50.307106      0.96243252   
   1315000   226.43325      126946.43     -46473.019     -52001.571      50.258188      0.96524555   
   1316000   225.29855      127205.95     -46637.069     -52137.916      50.292413      0.96327626   
   1317000   228.22665      126957.47     -46518.783     -52091.122      50.259646      0.96516155   
   1318000   222.39637      127314.41     -46653.291     -52083.28       50.306703      0.96245561   
   1319000   226.0499       127315.31     -46569.77      -52088.963      50.306822      0.96244881   
   1320000   224.83493      127148.42     -46678.283     -52167.811      50.28483       0.96371212   
   1321000   224.39944      127096.55     -46580.534     -52059.429      50.277992      0.96410541   
   1322000   224.9994       127268.71     -46464.664     -51958.208      50.300683      0.96280126   
   1323000   225.0665       127486        -46570.191     -52065.373      50.329293      0.96116021   
   1324000   225.12699      127275.84     -46555.832     -52052.491      50.301622      0.96274734   
   1325000   222.96722      127372.96     -46627.14      -52071.067      50.314413      0.96201325   
   1326000   227.06576      127242.96     -46560.585     -52104.58       50.29729       0.96299608   
   1327000   225.92005      126635.16     -46703.103     -52219.125      50.217078      0.96761809   
   1328000   227.17872      127474.04     -46634.475     -52181.228      50.327719      0.96125043   
   1329000   222.48914      126875.86     -46621.975     -52054.229      50.248874      0.96578238   
   1330000   224.80378      127176.46     -46501.773     -51990.541      50.288526      0.96349964   
   1331000   222.68454      127441.96     -46670.417     -52107.442      50.323498      0.96149234   
   1332000   228.53584      127213.06     -46533.63      -52113.519      50.293351      0.9632224    
   1333000   222.93026      126867.28     -46596.172     -52039.196      50.247741      0.96584773   
   1334000   223.6109       127353.81     -46640.138     -52099.78       50.311891      0.96215792   
   1335000   223.21201      127354.11     -46656.824     -52106.728      50.311931      0.96215562   
   1336000   226.23894      127480.06     -46593.722     -52117.531      50.328511      0.96120504   
   1337000   224.59844      126881.34     -46689.582     -52173.336      50.249597      0.96574068   
   1338000   226.95382      126635.92     -46557.85      -52099.112      50.217178      0.9676123    
   1339000   225.87967      127088.43     -46535.211     -52050.248      50.276921      0.96416702   
   1340000   219.40353      127278.29     -46697.508     -52054.424      50.301945      0.96272876   
   1341000   226.79062      127029.32     -46504.36      -52041.637      50.269125      0.96461566   
   1342000   224.09358      126909.18     -46561.819     -52033.247      50.253272      0.96552886   
   1343000   219.4666       126854.52     -46760.749     -52119.205      50.246057      0.96594485   
   1344000   225.86976      126610.97     -46652.837     -52167.631      50.21388       0.96780296   
   1345000   226.96217      126427.08     -46593.939     -52135.405      50.189558      0.96921062   
   1346000   222.81361      127111.92     -46757.452     -52197.628      50.280018      0.96398883   
   1347000   231.54797      127261.71     -46430.192     -52083.625      50.29976       0.96285423   
   1348000   224.61579      127540.79     -46670.41      -52154.588      50.336502      0.96074734   
   1349000   224.81541      127073.61     -46619.524     -52108.575      50.274966      0.96427949   
   1350000   222.29598      126771.91     -46644.716     -52072.254      50.235147      0.96657432   
   1351000   224.05595      126667.74     -46688.271     -52158.78       50.221384      0.96736918   
   1352000   225.80131      126613.83     -46559.256     -52072.379      50.214258      0.96778111   
   1353000   228.21054      126905.63     -46512.422     -52084.368      50.252804      0.96555583   
   1354000   226.1118       127147.89     -46549.671     -52070.375      50.284761      0.96371612   
   1355000   219.96198      126481.47     -46633.134     -52003.685      50.196754      0.96879389   
   1356000   224.70401      127026.31     -46707.192     -52193.524      50.268728      0.96463849   
   1357000   224.16788      126720.58     -46646.348     -52119.589      50.228366      0.96696584   
   1358000   220.97172      126841.15     -46689.355     -52084.56       50.244291      0.96604668   
   1359000   225.808        127030.86     -46527.216     -52040.502      50.269328      0.96460395   
   1360000   225.73424      127238.69     -46637.966     -52149.451      50.296727      0.96302841   
   1361000   222.23349      126819.09     -46805.256     -52231.267      50.241379      0.9662147    
   1362000   223.23879      127187.81     -46633.634     -52084.191      50.290022      0.96341368   
   1363000   224.46722      126519.81     -46655.232     -52135.782      50.201825      0.96850031   
   1364000   225.30627      127063.67     -46670.675     -52171.711      50.273656      0.96435486   
   1365000   225.68745      126969.11     -46653.359     -52163.702      50.261182      0.96507307   
   1366000   224.97553      127112.97     -46518.367     -52011.327      50.280156      0.96398091   
   1367000   224.0874       127559.03     -46703.4       -52174.677      50.338902      0.96060995   
   1368000   227.65839      127222.02     -46596.789     -52155.254      50.294531      0.9631546    
   1369000   228.56056      127158.45     -46558.099     -52138.591      50.286153      0.9636361    
   1370000   224.3776       127126.73     -46708.536     -52186.898      50.281971      0.96387655   
   1371000   227.26398      127359.06     -46526.152     -52074.987      50.312583      0.96211822   
   1372000   223.56236      127077.16     -46590.48      -52048.937      50.275434      0.96425254   
   1373000   226.32348      127378.46     -46532.054     -52057.926      50.315138      0.96197166   
   1374000   225.23735      127392.8      -46525.175     -52024.528      50.317025      0.96186343   
   1375000   226.79907      126821.51     -46469.186     -52006.67       50.241698      0.96619626   
   1376000   225.9923       127301.43     -46495.929     -52013.715      50.304994      0.96255374   
   1377000   222.91851      127133.7      -46668.38      -52111.117      50.28289       0.9638237    
   1378000   223.70745      127494.43     -46499.83      -51961.83       50.330403      0.96109666   
   1379000   225.91607      127112.46     -46579.725     -52095.65       50.280089      0.96398477   
   1380000   222.45732      126764.43     -46691.316     -52122.793      50.234158      0.96663139   
   1381000   226.64012      126910.15     -46513.285     -52046.889      50.2534        0.96552148   
   1382000   224.20698      127372.21     -46546.323     -52020.519      50.314315      0.96201887   
   1383000   224.60016      127176.49     -46647.19      -52130.986      50.288531      0.96349938   
   1384000   225.99267      127116.81     -46498.12      -52015.915      50.280664      0.96395172   
   1385000   226.64703      126658.26     -46541.192     -52074.964      50.220131      0.96744159   
   1386000   221.84913      126645.58     -46664.258     -52080.885      50.218455      0.96753845   
   1387000   222.11181      126585.16     -46602.404     -52025.445      50.210467      0.96800031   
   1388000   225.34558      126722.17     -46548.804     -52050.8        50.228577      0.96695368   
   1389000   227.01998      127044.9      -46467.923     -52010.8        50.27118       0.96449736   
   1390000   225.73083      126480.03     -46634.348     -52145.75       50.196564      0.96880487   
   1391000   226.65352      127097.08     -46473.823     -52007.754      50.278062      0.96410139   
   1392000   224.20998      126599.27     -46711.848     -52186.117      50.212333      0.96789242   
   1393000   226.26673      126270.83     -46629.215     -52153.702      50.168873      0.97040995   
   1394000   225.21617      126580.86     -46601.941     -52100.777      50.209898      0.96803321   
   1395000   227.74493      126643.31     -46516.432     -52077.01       50.218155      0.96755582   
   1396000   222.95618      126246.53     -46596.569     -52040.226      50.165655      0.97059672   
   1397000   224.67481      125894.87     -46604.922     -52090.541      50.119033      0.97330787   
   1398000   226.09616      125955.91     -46635.823     -52156.145      50.127131      0.97283624   
   1399000   223.42414      126802.25     -46719.628     -52174.71       50.239154      0.96634307   
   1400000   225.83761      126439.78     -46568.484     -52082.493      50.191238      0.96911333   
   1401000   223.51984      126047.66     -46503.104     -51960.523      50.1393        0.97212808   
   1402000   226.05215      125878.6      -46540.395     -52059.642      50.116874      0.97343368   
   1403000   225.81981      126452.34     -46555.756     -52069.331      50.192901      0.96901701   
   1404000   228.30121      126272.94     -46456.306     -52030.466      50.169153      0.97039374   
   1405000   226.52527      126299.21     -46463.308     -51994.107      50.172631      0.97019195   
   1406000   223.9282       125945.44     -46541.376     -52008.765      50.125743      0.97291707   
   1407000   225.24386      126422.2      -46540.958     -52040.47       50.188912      0.96924805   
   1408000   224.12471      126495.97     -46679.047     -52151.234      50.198673      0.96868278   
   1409000   223.7501       125751.07     -46562.172     -52025.214      50.099943      0.97442089   
   1410000   221.86399      126055.72     -46685.577     -52102.567      50.140369      0.97206592   
   1411000   225.6048       126168.29     -46581.12      -52089.445      50.155289      0.97119864   
   1412000   226.50415      125848.98     -46457.113     -51987.396      50.112942      0.97366284   
   1413000   224.79668      125958.98     -46580.784     -52069.378      50.127539      0.97281249   
   1414000   225.48922      125402.98     -46608.98      -52114.483      50.053673      0.97712567   
   1415000   220.41879      125790.63     -46670.503     -52052.207      50.105196      0.97411445   
   1416000   223.65842      125816.77     -46500.537     -51961.339      50.108667      0.97391204   
   1417000   227.39588      125998.26     -46511.256     -52063.312      50.132749      0.97250921   
   1418000   224.86348      125949.92     -46644.053     -52134.278      50.126337      0.97288249   
   1419000   225.05641      126057.79     -46432.629     -51927.565      50.140642      0.97205001   
   1420000   219.69228      126510.3      -46589.374     -51953.34       50.200567      0.96857311   
   1421000   225.63928      126164.96     -46552.637     -52061.804      50.154848      0.97122429   
   1422000   225.53153      126391.09     -46493.959     -52000.495      50.184795      0.96948664   
   1423000   226.4043       125759.57     -46533.075     -52060.921      50.101072      0.97435503   
   1424000   225.36715      126534.57     -46599.105     -52101.628      50.203778      0.96838732   
   1425000   224.1334       125920.5      -46574.436     -52046.835      50.122433      0.9731098    
   1426000   223.77767      125963.82     -46708.367     -52172.081      50.128181      0.9727751    
   1427000   223.6223       125883.79     -46557.313     -52017.233      50.117561      0.97339361   
   1428000   224.54867      126135.82     -46604.725     -52087.264      50.150987      0.97144862   
   1429000   226.2434       126291.6      -46438.836     -51962.754      50.171623      0.97025039   
   1430000   227.02455      126308.01     -46503.106     -52046.095      50.173796      0.97012435   
   1431000   219.726        126477.75     -46739.244     -52104.033      50.196261      0.96882239   
   1432000   222.61512      126351.25     -46662.285     -52097.615      50.179521      0.96979236   
   1433000   223.0757       126541.05     -46513.546     -51960.121      50.204635      0.9683377    
   1434000   225.3895       126515.09     -46598.801     -52101.869      50.201201      0.96853645   
   1435000   227.29394      126189.01     -46573.454     -52123.021      50.158035      0.97103915   
   1436000   225.55372      126187        -46602.354     -52109.432      50.157768      0.97105467   
   1437000   224.11306      126225.8      -46656.619     -52128.522      50.162909      0.97075612   
   1438000   225.78968      126603.66     -46538.791     -52051.63       50.212913      0.96785885   
   1439000   227.68055      126466.96     -46517.379     -52076.385      50.194835      0.96890501   
   1440000   225.66127      125911.13     -46618.256     -52127.96       50.12119       0.97318223   
   1441000   225.54352      126398.4      -46515.647     -52022.476      50.185762      0.96943056   
   1442000   224.6167       126269.48     -46598.176     -52082.376      50.168694      0.97042037   
   1443000   225.06776      126117.04     -46542.097     -52037.309      50.148497      0.97159331   
   1444000   229.02553      126278.24     -46523.189     -52115.034      50.169855      0.970353     
   1445000   226.29733      126090.88     -46597.136     -52122.37       50.14503       0.97179485   
   1446000   226.02948      126054.56     -46562.819     -52081.513      50.140214      0.97207492   
   1447000   224.63514      126580.74     -46655.041     -52139.691      50.209883      0.9680341    
   1448000   227.00254      126309.56     -46506.161     -52048.613      50.174002      0.97011238   
   1449000   223.78868      125602.69     -46686.121     -52150.104      50.08023       0.97557201   
   1450000   224.94179      125839.17     -46607.441     -52099.578      50.11164       0.97373873   
   1451000   228.24692      125890.02     -46530.674     -52103.509      50.118389      0.97334541   
   1452000   224.28704      125904.46     -46561.741     -52037.892      50.120305      0.97323374   
   1453000   225.28201      125969.83     -46569.778     -52070.222      50.128978      0.9727287    
   1454000   222.22887      125937.46     -46612.959     -52038.858      50.124683      0.97297875   
   1455000   224.58444      126355.76     -46503.576     -51986.988      50.180118      0.96975774   
   1456000   229.29015      125991.12     -46321.959     -51920.265      50.131802      0.97256433   
   1457000   222.28581      126133.08     -46591.185     -52018.474      50.150623      0.97146979   
   1458000   226.00225      126116.93     -46411.296     -51929.325      50.148482      0.97159418   
   1459000   224.32546      126011.12     -46547.563     -52024.651      50.134455      0.97240996   
   1460000   228.66932      125318.63     -46398.002     -51981.15       50.042448      0.97778337   
   1461000   226.5662       125936.19     -46505.738     -52037.536      50.124516      0.97298853   
   1462000   223.86575      125961.1      -46622.655     -52088.52       50.12782       0.97279613   
   1463000   225.81677      125926.86     -46436.61      -51950.111      50.123277      0.97306065   
   1464000   222.9749       126232.88     -46546.252     -51990.366      50.163847      0.97070171   
   1465000   223.21115      126005.43     -46554.01      -52003.892      50.133699      0.97245393   
   1466000   227.59813      125868.78     -46388.33      -51945.324      50.11557       0.97350964   
   1467000   222.82606      126078.26     -46496.126     -51936.606      50.143357      0.97189214   
   1468000   222.02797      126479.11     -46403.653     -51824.647      50.196441      0.96881197   
   1469000   223.36925      125686.16     -46531.148     -51984.891      50.091321      0.97492416   
   1470000   229.45882      125770.22     -46438.341     -52040.765      50.102486      0.97427254   
   1471000   224.90092      125567.74     -46503.656     -51994.795      50.075585      0.97584355   
   1472000   221.65687      126031.96     -46516.162     -51928.095      50.137218      0.97224919   
   1473000   226.94241      125990.25     -46447.01      -51987.994      50.131687      0.97257104   
   1474000   224.84445      125774.44     -46542.082     -52031.843      50.103046      0.97423985   
   1475000   226.30831      125824.66     -46434.265     -51959.767      50.109714      0.97385099   
   1476000   222.1741       125623.74     -46551.682     -51976.244      50.083028      0.97540855   
   1477000   228.07278      126164.54     -46437.196     -52005.779      50.154792      0.97122755   
   1478000   224.0117       125981.22     -46605.53      -52074.958      50.130488      0.9726408    
   1479000   225.2018       125956.67     -46416.36      -51914.846      50.127233      0.97283032   
   1480000   227.4982       125822.92     -46326.405     -51880.958      50.109482      0.9738645    
   1481000   225.25415      126275.62     -46572.263     -52072.026      50.169507      0.97037317   
   1482000   224.39559      126124.9      -46464.219     -51943.021      50.14954       0.97153273   
   1483000   224.91593      125963.63     -46431.867     -51923.373      50.128155      0.97277663   
   1484000   225.43371      125996.75     -46561.258     -52065.406      50.132548      0.97252089   
   1485000   222.10043      126250.45     -46610.829     -52033.592      50.166173      0.97056664   
   1486000   229.0182       126320.89     -46468.43      -52060.096      50.175501      0.97002544   
   1487000   223.4038       126110.11     -46667.847     -52122.433      50.147579      0.9716467    
   1488000   223.09793      125922.74     -46716.733     -52163.851      50.122731      0.97309246   
   1489000   224.74147      125800.43     -46599.234     -52086.48       50.106498      0.97403855   
   1490000   223.70114      126571.97     -46594.704     -52056.549      50.208723      0.96810117   
   1491000   227.46987      126583.73     -46533.383     -52087.246      50.210278      0.96801123   
   1492000   226.2091       126810.05     -46371.939     -51895.019      50.240184      0.96628363   
   1493000   224.6473       126091.53     -46587.371     -52072.318      50.145116      0.97178988   
   1494000   225.84232      126394.48     -46546.704     -52060.828      50.185244      0.96946062   
   1495000   224.94892      126213.75     -46494.863     -51987.175      50.161312      0.97084885   
   1496000   227.5656       126496.29     -46492.512     -52048.711      50.198714      0.9686804    
   1497000   223.91322      126257.91     -46627.073     -52094.097      50.167162      0.97050923   
   1498000   228.09457      126293.4      -46452.697     -52021.811      50.171863      0.97023651   
   1499000   224.66274      126377.79     -46582.863     -52068.187      50.183034      0.96958868   
   1500000   224.02566      125910.33     -46687.176     -52156.945      50.121083      0.97318842   
   1501000   225.53005      125878.2      -46551.711     -52058.211      50.11682       0.97343681   
   1502000   222.88079      126272.31     -46624.668     -52066.484      50.169069      0.97039858   
   1503000   228.41021      126210.17     -46467.542     -52044.363      50.160838      0.9708764    
   1504000   227.6208       126299.54     -46486.926     -52044.473      50.172675      0.97018935   
   1505000   227.24833      126504.92     -46387.909     -51936.362      50.199857      0.96861425   
   1506000   222.74011      126252.58     -46576.022     -52014.403      50.166455      0.97055027   
   1507000   224.29876      126360.39     -46414.635     -51891.072      50.180731      0.96972219   
   1508000   224.22566      126115.82     -46544.937     -52019.589      50.148335      0.97160272   
   1509000   227.47309      126340.13     -46408.945     -51962.886      50.17805       0.96987766   
   1510000   223.75233      126231.56     -46525.025     -51988.121      50.163672      0.97071182   
   1511000   224.94848      125917.5      -46383.196     -51875.496      50.122035      0.973133     
   1512000   222.14662      126459.19     -46561.083     -51984.974      50.193807      0.96896453   
   1513000   223.87979      126317.45     -46320.128     -51786.335      50.175046      0.97005183   
   1514000   224.92612      126693.19     -46484.065     -51975.819      50.224747      0.96717491   
   1515000   226.35733      126293.09     -46374.16      -51900.859      50.171821      0.97023893   
   1516000   222.14419      126518.76     -46582.749     -52006.58       50.201686      0.96850835   
   1517000   226.09815      125839.42     -46493.966     -52014.337      50.111673      0.97373676   
   1518000   223.37528      126144.72     -46470.274     -51924.163      50.152165      0.97138014   
   1519000   225.98289      126059.21     -46557.011     -52074.568      50.140831      0.97203903   
   1520000   225.16969      126437.43     -46494.45      -51992.152      50.190927      0.96913131   
   1521000   224.70963      126620.75     -46430.392     -51916.86       50.215173      0.9677282    
   1522000   224.84921      126139.17     -46451.89      -51941.767      50.15143       0.97142289   
   1523000   224.27475      126419.73     -46560.999     -52036.85       50.188585      0.96926704   
   1524000   224.48727      126354.02     -46487.282     -51968.322      50.179889      0.96977103   
   1525000   229.64807      126023.5      -46389.601     -51996.645      50.136096      0.97231443   
   1526000   221.50455      125967.49     -46667.07      -52075.284      50.128667      0.97274678   
   1527000   227.72992      125904.3      -46403.965     -51964.177      50.120284      0.97323498   
   1528000   221.62619      126130.16     -46614.36      -52025.544      50.150236      0.97149223   
   1529000   222.31939      126504.29     -46525.475     -51953.585      50.199773      0.96861907   
   1530000   226.70825      126430.75     -46406.426     -51941.693      50.190043      0.96918252   
   1531000   222.74052      126718.89     -46595.03      -52033.421      50.228143      0.96697873   
   1532000   224.92995      126086.33     -46410.359     -51902.207      50.144427      0.97182994   
   1533000   223.00646      126458.56     -46606.215     -52051.1        50.193723      0.96896941   
   1534000   226.44256      126623.41     -46538.257     -52067.037      50.215524      0.9677079    
   1535000   226.79013      125801.22     -46591.004     -52128.27       50.106602      0.97403248   
   1536000   223.14022      126608.29     -46544.649     -51992.799      50.213526      0.96782342   
   1537000   224.62178      126946.07     -46589.708     -52074.032      50.258141      0.96524823   
   1538000   224.10403      126934.1      -46507.186     -51978.869      50.256562      0.96533924   
   1539000   225.42674      126660.49     -46438.087     -51942.065      50.220426      0.96742457   
   1540000   224.4371       126777.11     -46498.895     -51978.71       50.235834      0.96653467   
   1541000   226.77573      126554.81     -46381.4       -51918.314      50.206454      0.96823247   
   1542000   224.63654      126855.9      -46602.589     -52087.273      50.246239      0.96593435   
   1543000   220.84222      126720.05     -46783.815     -52175.858      50.228296      0.96696987   
   1544000   223.92662      126354.4      -46533.389     -52000.74       50.179939      0.96976811   
   1545000   222.35409      126829.23     -46444.721     -51873.677      50.242718      0.96613744   
   1546000   221.11259      126416.64     -46600.801     -51999.445      50.188176      0.96929069   
   1547000   229.50636      126819.78     -46349.017     -51952.602      50.24147       0.96620946   
   1548000   222.70584      126368.52     -46592.099     -52029.644      50.181807      0.96965981   
   1549000   224.5894       126567.56     -46590.109     -52073.643      50.20814       0.96813493   
   1550000   224.25074      126939.69     -46526.208     -52001.473      50.257299      0.96529678   
   1551000   223.2286       126604.72     -46566.281     -52016.59       50.213054      0.96785073   
   1552000   223.26885      127054.94     -46590.353     -52041.644      50.272504      0.96442119   
   1553000   223.5597       126802.11     -46408.359     -51866.751      50.239135      0.96634413   
   1554000   224.60006      127076.72     -46555.155     -52038.949      50.275376      0.96425589   
   1555000   226.45445      126864.12     -46534.643     -52063.713      50.247323      0.9658718    
   1556000   224.74403      126872.03     -46381.772     -51869.081      50.248368      0.96581154   
   1557000   221.46854      127005.17     -46649.65      -52056.985      50.265938      0.96479912   
   1558000   220.16752      127046.28     -46528.931     -51904.5        50.271362      0.96448688   
   1559000   220.99151      127247.84     -46676.589     -52072.277      50.297934      0.96295912   
   1560000   225.2022       127073.71     -46543.116     -52041.611      50.274979      0.96427873   
   1561000   224.0818       126805.65     -46570.902     -52042.042      50.239603      0.96631715   
   1562000   225.9713       126849.52     -46640.748     -52158.021      50.245397      0.96598291   
   1563000   219.09163      126874.36     -46762.203     -52111.504      50.248676      0.96579381   
   1564000   228.03607      126776.5      -46529.322     -52097.008      50.235754      0.9665393    
   1565000   224.7166       126481        -46666.208     -52152.847      50.196692      0.96879747   
   1566000   226.93049      126427.68     -46442.66      -51983.353      50.189637      0.96920608   
   1567000   226.05762      127279.43     -46576.505     -52095.886      50.302095      0.96272014   
   1568000   225.55714      126871.89     -46524.17      -52031.331      50.248349      0.96581265   
   1569000   224.34037      126703.98     -46679.678     -52157.131      50.226172      0.96709255   
   1570000   227.96251      126967.82     -46342.089     -51907.98       50.261011      0.96508291   
   1571000   223.09023      127048.01     -46546.77      -51993.7        50.27159       0.96447379   
   1572000   226.96925      127357.74     -46537.424     -52079.063      50.31241       0.96212817   
   1573000   227.67164      126980.9      -46450.024     -52008.812      50.262737      0.9649835    
   1574000   225.22611      126466.62     -46593.462     -52092.541      50.19479       0.96890762   
   1575000   228.17866      126637.38     -46444.49      -52015.658      50.21737       0.96760116   
   1576000   223.3602       126381.77     -46565.32      -52018.841      50.183561      0.96955813   
   1577000   224.49353      126579.16     -46491.433     -51972.625      50.209674      0.9680462    
   1578000   225.87336      126284.39     -46577.301     -52092.183      50.170669      0.97030578   
   1579000   227.25394      126376.69     -46498.673     -52047.263      50.182889      0.96959712   
   1580000   224.52542      126818.25     -46643.293     -52125.264      50.241268      0.96622111   
   1581000   226.05099      126410.85     -46502.003     -52021.222      50.18741       0.9693351    
   1582000   228.39479      126141.66     -46596.819     -52173.264      50.151761      0.97140365   
   1583000   226.16627      126326.34     -46513.659     -52035.693      50.176223      0.96998357   
   1584000   225.85462      126455.88     -46574.009     -52088.433      50.193369      0.96898991   
   1585000   230.11989      126673        -46334.098     -51952.663      50.222079      0.96732905   
   1586000   224.90296      126402.71     -46601.512     -52092.701      50.186333      0.96939752   
   1587000   222.96987      126553.74     -46661.612     -52105.603      50.206313      0.96824063   
   1588000   225.95058      127057.96     -46506.811     -52023.578      50.272903      0.96439823   
   1589000   224.35461      126586.98     -46627.342     -52105.142      50.210709      0.96798635   
   1590000   226.30587      126943.59     -46447.252     -51972.695      50.257814      0.96526712   
   1591000   223.24373      126132.57     -46596.45      -52047.127      50.150556      0.97147367   
   1592000   225.27929      126859.71     -46605.131     -52105.508      50.246742      0.96590535   
   1593000   226.25698      126569.85     -46485.173     -52009.422      50.208443      0.96811737   
   1594000   227.36515      126615.68     -46621.912     -52173.217      50.214503      0.96776694   
   1595000   226.92868      126576.74     -46524.074     -52064.722      50.209354      0.96806469   
   1596000   226.90027      126524.6      -46562.382     -52102.337      50.202459      0.96846365   
   1597000   221.33712      126151.81     -46704.161     -52108.288      50.153105      0.97132553   
   1598000   225.06732      126808.97     -46578.994     -52074.196      50.240042      0.96629181   
   1599000   222.59798      126417.45     -46682.142     -52117.053      50.188284      0.96928447   
   1600000   225.34424      126070.31     -46488.669     -51990.632      50.142302      0.97195346   
   1601000   224.48093      125936.06     -46569.177     -52050.062      50.124497      0.97298958   
   1602000   219.84229      126857.83     -46675.568     -52043.197      50.246494      0.96591963   
   1603000   229.9299       125900.91     -46487.621     -52101.547      50.119834      0.97326122   
   1604000   220.14453      125957.85     -46758.97      -52133.978      50.127389      0.97282121   
   1605000   225.99472      126095.76     -46510.268     -52028.113      50.145676      0.97175728   
   1606000   222.98945      126503.88     -46682.446     -52126.915      50.199719      0.96862223   
   1607000   225.73913      126863.21     -46549.564     -52061.169      50.247203      0.96587873   
   1608000   226.77258      126638.17     -46481.932     -52018.77       50.217476      0.96759508   
   1609000   221.05988      125886.92     -46728.313     -52125.67       50.117978      0.97336934   
   1610000   223.61857      126588.54     -46629.184     -52089.014      50.210915      0.96797441   
   1611000   224.38244      126482.64     -46538.624     -52017.104      50.196909      0.9687849    
   1612000   227.23927      126453.17     -46565.16      -52113.392      50.19301       0.96901067   
   1613000   227.00439      126310.69     -46421.349     -51963.847      50.174152      0.97010371   
   1614000   223.56151      126438.35     -46584.497     -52042.934      50.191049      0.96912425   
   1615000   224.59464      126619.92     -46630.541     -52114.202      50.215063      0.96773457   
   1616000   223.55783      126542.22     -46549.627     -52007.974      50.20479       0.96832875   
   1617000   223.57175      127181.08     -46654.664     -52113.351      50.289135      0.96346466   
   1618000   226.50435      126850.49     -46532.967     -52063.256      50.245524      0.96597557   
   1619000   224.93525      126748.31     -46620.923     -52112.901      50.232029      0.96675431   
   1620000   227.72998      126475.38     -46437.033     -51997.246      50.195948      0.96884052   
   1621000   221.60521      126806.5      -46692.344     -52103.016      50.239716      0.96631066   
   1622000   223.90234      126862.12     -46637.741     -52104.5        50.247061      0.96588696   
   1623000   224.04492      126899.01     -46483.2       -51953.439      50.25193       0.96560622   
   1624000   228.48071      127534.24     -46408.288     -51986.831      50.335641      0.96079664   
   1625000   224.56717      127465.98     -46466.797     -51949.787      50.326658      0.96131121   
   1626000   223.26193      126656.42     -46664.217     -52115.339      50.219888      0.96745568   
   1627000   223.67476      126880.59     -46582.907     -52044.109      50.249499      0.96574637   
   1628000   224.98487      126729.65     -46468.074     -51961.263      50.229564      0.96689666   
   1629000   224.11399      127198.72     -46661.563     -52133.488      50.291461      0.96333099   
   1630000   229.20442      127012.27     -46501.467     -52097.68       50.266876      0.96474515   
   1631000   223.31753      126907.31     -46667.178     -52119.658      50.253026      0.96554303   
   1632000   222.99913      127113.16     -46663.406     -52108.111      50.280182      0.96397944   
   1633000   228.53289      127271.32     -46464.205     -52044.022      50.301027      0.9627815    
   1634000   221.46067      126864.9      -46654.612     -52061.754      50.247427      0.96586581   
   1635000   226.24609      126630.42     -46631.291     -52155.274      50.216451      0.96765432   
   1636000   227.11458      127050.11     -46502.474     -52047.661      50.271867      0.96445785   
   1637000   228.24297      126754.43     -46533.947     -52106.685      50.232837      0.96670764   
   1638000   225.34567      126645.76     -46676.519     -52178.517      50.218478      0.96753714   
   1639000   225.64907      126767.44     -46535.032     -52044.438      50.234557      0.96660838   
   1640000   229.52633      126538.57     -46570.623     -52174.695      50.204307      0.9683567    
   1641000   229.26976      126343.97     -46595.716     -52193.524      50.178557      0.96984822   
   1642000   223.18372      126619.41     -46618.211     -52067.424      50.214995      0.96773847   
   1643000   223.19734      126624.5      -46753.504     -52203.049      50.215669      0.96769953   
   1644000   226.33566      126892.76     -46596.051     -52122.221      50.251105      0.96565378   
   1645000   225.40922      126763.53     -46580.947     -52084.497      50.23404       0.96663824   
   1646000   224.62507      126661.38     -46571.101     -52055.505      50.220543      0.9674178    
   1647000   229.03806      126629.79     -46380.984     -51973.135      50.216368      0.96765909   
   1648000   223.70956      126963.76     -46706.855     -52168.906      50.260476      0.96511375   
   1649000   226.68763      127182.53     -46556.372     -52091.135      50.289326      0.96345368   
   1650000   223.36108      126937.2      -46597.803     -52051.346      50.25697       0.9653157    
   1651000   227.5129       126568.91     -46484.071     -52038.984      50.208319      0.96812455   
   1652000   220.33216      126711.42     -46712.137     -52091.727      50.227156      0.96703573   
   1653000   226.0928       126848.24     -46627.791     -52148.031      50.245227      0.9659927    
   1654000   228.91119      126658.74     -46594.453     -52183.506      50.220194      0.96743795   
   1655000   225.83578      126327.55     -46580.451     -52094.415      50.176384      0.96997425   
   1656000   225.4857       126786.97     -46700.78      -52206.198      50.237137      0.96645948   
   1657000   224.18862      127155.87     -46595.299     -52069.046      50.285813      0.96365562   
   1658000   224.31286      127110.57     -46689.422     -52166.204      50.27984       0.96399908   
   1659000   229.78287      126501.66     -46423.148     -52033.484      50.199425      0.96863926   
   1660000   223.58154      126744.68     -46699.587     -52158.512      50.23155       0.96678195   
   1661000   225.38582      127107.32     -46602.289     -52105.267      50.279411      0.96402376   
   1662000   222.4234       126624.71     -46502.34      -51932.988      50.215697      0.96769792   
   1663000   224.89123      126905.71     -46610.9       -52101.803      50.252815      0.9655552    
   1664000   228.30982      126667.64     -46536.751     -52111.122      50.221371      0.96736996   
   1665000   224.78014      126667.82     -46608.557     -52096.748      50.221394      0.96736861   
   1666000   224.79793      126639.17     -46685.802     -52174.427      50.217607      0.96758746   
   1667000   230.42701      127151.04     -46396.482     -52022.545      50.285176      0.96369224   
   1668000   225.53084      126398.3      -46590.659     -52097.178      50.185749      0.96943133   
   1669000   224.6487       126754.21     -46668.615     -52153.596      50.232809      0.96670929   
   1670000   227.77893      127115.42     -46480.677     -52042.085      50.28048       0.96396231   
   1671000   224.12356      126318.27     -46632.502     -52104.662      50.175155      0.97004552   
   1672000   223.39452      126649.11     -46693.388     -52147.747      50.218921      0.96751154   
   1673000   225.84399      126830.82     -46635.167     -52149.332      50.242927      0.96612535   
   1674000   226.18827      126457.59     -46557.916     -52080.487      50.193595      0.96897677   
   1675000   224.50724      126956.69     -46580.717     -52062.245      50.259542      0.96516751   
   1676000   225.16867      126745.92     -46502.978     -52000.655      50.231714      0.96677253   
   1677000   224.57284      126490.37     -46638.759     -52121.888      50.197932      0.96872569   
   1678000   226.4379       126526.31     -46528.055     -52056.721      50.202686      0.96845051   
   1679000   227.01135      126381.85     -46566.689     -52109.356      50.183571      0.96955755   
   1680000   224.31808      126651.81     -46667.451     -52144.36       50.219278      0.9674909    
   1681000   226.01198      126312.77     -46529.539     -52047.806      50.174427      0.97008777   
   1682000   227.09923      126467.68     -46409.63      -51954.443      50.19493       0.96889947   
   1683000   227.01489      126427.23     -46429.323     -51972.077      50.189578      0.96920946   
   1684000   228.2273       126083.01     -46393.928     -51966.283      50.143987      0.97185551   
   1685000   222.82104      126467.43     -46631.942     -52072.299      50.194897      0.96890139   
   1686000   228.8552       126455.86     -46516.827     -52104.514      50.193366      0.96899006   
   1687000   228.27823      126525.06     -46452.385     -52025.984      50.202519      0.96846013   
   1688000   227.68781      126685.94     -46483.172     -52042.356      50.223788      0.96723027   
   1689000   227.34008      126513.94     -46432.75      -51983.443      50.201049      0.96854523   
   1690000   226.47119      126676.05     -46494.88      -52024.358      50.222482      0.96730572   
   1691000   224.95928      126016.29     -46580.94      -52073.504      50.13514       0.97237008   
   1692000   221.86517      126107.37     -46614.093     -52031.112      50.147216      0.97166781   
   1693000   223.95408      126374.8      -46614.392     -52082.414      50.182638      0.96961162   
   1694000   228.86153      126199.6      -46496.347     -52084.188      50.159438      0.9709577    
   1695000   227.7983       126522.11     -46404.074     -51965.955      50.20213       0.96848269   
   1696000   223.48895      126468.31     -46522.289     -51978.954      50.195013      0.96889467   
   1697000   227.25924      126019.43     -46541.54      -52090.26       50.135557      0.97234585   
   1698000   222.98213      126263.97     -46680.467     -52124.758      50.167964      0.9704627    
   1699000   223.31025      126386.09     -46548.067     -52000.369      50.184134      0.96952495   
   1700000   226.55445      126109.37     -46686.986     -52218.497      50.147481      0.97165239   
   1701000   225.29574      126258.57     -46555.189     -52055.968      50.16725       0.97050417   
   1702000   220.26141      126407.01     -46751.164     -52129.025      50.186902      0.96936452   
   1703000   223.91645      126222.47     -46689.237     -52156.34       50.162467      0.97078177   
   1704000   227.19993      126159.33     -46550.258     -52097.53       50.154102      0.97126759   
   1705000   226.20512      126177.28     -46560.305     -52083.287      50.156481      0.97112942   
   1706000   226.68042      125779.54     -46625.044     -52159.631      50.103723      0.97420035   
   1707000   224.16549      126604.81     -46655.013     -52128.196      50.213065      0.96785008   
   1708000   226.72267      126297.27     -46660.816     -52196.435      50.172375      0.97020679   
   1709000   226.07513      125833.99     -46619.419     -52139.227      50.110952      0.97377884   
   1710000   224.10161      125636.53     -46620.717     -52092.341      50.084727      0.97530928   
   1711000   223.55437      125922.29     -46655.518     -52113.78       50.122671      0.97309593   
   1712000   226.86054      126569.97     -46542.494     -52081.479      50.208459      0.96811644   
   1713000   220.29188      126028.7      -46763.87      -52142.476      50.136786      0.97227434   
   1714000   227.43054      126110.26     -46595.066     -52147.968      50.147598      0.97164557   
   1715000   227.94719      126416.01     -46450.614     -52016.13       50.188093      0.96929553   
   1716000   227.0369       126111.51     -46463.544     -52006.835      50.147764      0.97163591   
   1717000   222.47501      126349.91     -46756.483     -52188.391      50.179344      0.9698026    
   1718000   224.98012      125949.74     -46728.78      -52221.853      50.126312      0.97288391   
   1719000   227.58161      125933.52     -46555.283     -52111.873      50.124161      0.97300916   
   1720000   225.03387      126158.89     -46597.163     -52091.548      50.154043      0.97127103   
   1721000   225.61485      125753.39     -46619.98      -52128.551      50.10025       0.97440296   
   1722000   223.1381       126506.32     -46509.15      -51957.248      50.200042      0.96860354   
   1723000   224.74063      126420.9      -46544.406     -52031.632      50.18874       0.969258     
   1724000   226.49749      126891.28     -46620.674     -52150.795      50.25091       0.96566503   
   1725000   224.18123      126445.03     -46697.198     -52170.765      50.191933      0.96907305   
   1726000   222.23896      126408.65     -46602.121     -52028.266      50.187119      0.96935197   
   1727000   229.38161      126900.59     -46348.581     -51949.12       50.252139      0.96559417   
   1728000   224.81134      126338.01     -46550.324     -52039.276      50.177769      0.96989395   
   1729000   225.05597      126675.95     -46377.73      -51872.655      50.222469      0.9673065    
   1730000   226.31578      126109.66     -46496.357     -52022.041      50.147519      0.97165016   
   1731000   225.16465      126583.2      -46684.307     -52181.885      50.210208      0.96801531   
   1732000   222.72816      126783.1      -46607.537     -52045.626      50.236625      0.96648902   
   1733000   221.59641      126420.11     -46690.123     -52100.58       50.188635      0.96926409   
   1734000   223.52664      126320.61     -46670.887     -52128.472      50.175465      0.97002752   
   1735000   228.63732      126531.22     -46550.167     -52132.533      50.203334      0.96841297   
   1736000   228.2047       126304.36     -46616.555     -52188.358      50.173314      0.97015234   
   1737000   225.46907      126494.18     -46561.75      -52066.761      50.198435      0.96869656   
   1738000   228.36085      126489.22     -46536.807     -52112.423      50.19778       0.96873447   
   1739000   222.71894      126392.73     -46641.826     -52079.691      50.185011      0.96947409   
   1740000   225.50304      126301.46     -46585.183     -52091.024      50.17293       0.97017461   
   1741000   228.05633      126533.37     -46444.124     -52012.305      50.20362       0.96839646   
   1742000   223.14619      126349.61     -46617.541     -52065.837      50.179304      0.96980491   
   1743000   226.94555      126005.66     -46578.004     -52119.065      50.13373       0.97245214   
   1744000   224.6764       126309.98     -46594.999     -52080.657      50.174058      0.97010917   
   1745000   222.17253      126932.32     -46654.702     -52079.226      50.256326      0.96535281   
   1746000   226.26096      126535.55     -46540.546     -52064.891      50.203907      0.96837982   
   1747000   221.66799      126290.01     -46605.731     -52017.936      50.171413      0.97026257   
   1748000   226.2932       126594.28     -46478.067     -52003.199      50.211673      0.96793056   
   1749000   224.87468      126333.65     -46600.747     -52091.246      50.177191      0.96992747   
   1750000   225.74869      126746.17     -46571.879     -52083.717      50.231747      0.9667706    
   1751000   224.96331      126856.78     -46537.237     -52029.899      50.246355      0.96592765   
   1752000   222.7913       126232.63     -46631.354     -52070.985      50.163813      0.97070364   
   1753000   225.25969      126559.85     -46527.191     -52027.09       50.207121      0.96819387   
   1754000   225.23279      126099.62     -46436.924     -51936.167      50.146189      0.97172749   
   1755000   228.1924       126856.7      -46475.538     -52047.041      50.246345      0.96592823   
   1756000   223.25117      126417.58     -46682.189     -52133.049      50.188301      0.96928347   
   1757000   228.29746      125864.97     -46450.594     -52024.663      50.115065      0.97353911   
   1758000   224.48444      125307.68     -46683.648     -52164.619      50.040991      0.97786878   
   1759000   227.3282       126251.66     -46537.883     -52088.286      50.166333      0.97055735   
   1760000   223.51864      125938.44     -46475.12      -51932.51       50.124814      0.97297115   
   1761000   226.68638      125583.75     -46459.195     -51993.927      50.077713      0.97571913   
   1762000   225.51754      125834.75     -46467.689     -51973.884      50.111054      0.9737729    
   1763000   220.60933      126274.71     -46593.864     -51980.22       50.169387      0.97038014   
   1764000   228.2852       125980.5      -46451.873     -52025.643      50.130393      0.97264631   
   1765000   223.60062      126092        -46500.007     -51959.399      50.145177      0.97178629   
   1766000   222.67455      126048.39     -46574.093     -52010.873      50.139397      0.97212246   
   1767000   224.67873      126210.48     -46467.034     -51952.748      50.160879      0.97087397   
   1768000   225.17461      125836.62     -46511.726     -52009.548      50.111302      0.97375842   
   1769000   221.29783      126184.92     -46569.634     -51972.801      50.157493      0.97107065   
   1770000   222.82297      126293.2      -46534.05      -51974.455      50.171835      0.97023812   
   1771000   224.43025      126634.14     -46389.556     -51869.204      50.216943      0.96762589   
   1772000   225.52546      125989.58     -46376.464     -51882.852      50.131598      0.97257623   
   1773000   222.93773      126258.38     -46480.951     -51924.157      50.167225      0.97050563   
   1774000   223.86934      125617.31     -46539.577     -52005.53       50.082173      0.97545851   
   1775000   224.44814      125877.6      -46454.995     -51935.08       50.116741      0.97344141   
   1776000   225.37173      126328.73     -46489.734     -51992.369      50.17654       0.9699652    
   1777000   223.71278      126198.38     -46527.416     -51989.546      50.159276      0.97096706   
   1778000   229.99589      125946.35     -46403.611     -52019.149      50.125863      0.97291005   
   1779000   226.98329      126038.3      -46572.413     -52114.396      50.138059      0.97220027   
   1780000   220.5036       126133.24     -46682.701     -52066.476      50.150645      0.9714685    
   1781000   225.75697      126165.23     -46472.901     -51984.941      50.154883      0.97122224   
   1782000   224.38858      126082.21     -46481.034     -51959.664      50.143881      0.97186169   
   1783000   223.68176      126747.38     -46488.681     -51950.054      50.231906      0.9667614    
   1784000   223.27141      126398.79     -46478.388     -51929.742      50.185814      0.9694276    
   1785000   223.28064      126603.53     -46526.381     -51977.96       50.212896      0.96785984   
   1786000   222.66446      126473.96     -46564.262     -52000.796      50.195761      0.96885136   
   1787000   224.31538      126317.55     -46539.343     -52016.186      50.17506       0.97005102   
   1788000   225.17838      126541.09     -46339.853     -51837.766      50.204639      0.96833745   
   1789000   225.41779      126354.32     -46448.571     -51952.33       50.179928      0.96976876   
   1790000   227.42018      126575.08     -46366.676     -51919.325      50.209135      0.96807739   
   1791000   224.26803      126433.8      -46484.379     -51960.065      50.190447      0.96915915   
   1792000   223.47707      126699.18     -46555.826     -52012.201      50.225538      0.96712917   
   1793000   227.55113      126656.71     -46420.857     -51976.704      50.219926      0.96745347   
   1794000   224.38156      126814.32     -46422.228     -51900.686      50.240748      0.96625107   
   1795000   225.38616      126141.14     -46327.43      -51830.416      50.151692      0.97140765   
   1796000   225.12741      126260.57     -46437.077     -51933.746      50.167514      0.97048883   
   1797000   222.6805       126032.72     -46506.217     -51943.143      50.137318      0.97224334   
   1798000   223.65246      126157.05     -46410.649     -51871.306      50.1538        0.97128518   
   1799000   215.5432       126031.38     -46608.497     -51871.16       50.13714       0.97225371   
   1800000   224.03621      126162.19     -46335.88      -51805.907      50.15448       0.97124564   
   1801000   228.27924      126105.7      -46413.253     -51986.877      50.146994      0.97168067   
   1802000   225.05086      126270.88     -46432.236     -51927.036      50.168879      0.97040961   
   1803000   223.97691      126416.17     -46335.473     -51804.051      50.188115      0.96929426   
   1804000   224.03986      125797.12     -46417.954     -51888.07       50.106058      0.9740642    
   1805000   227.46112      126565.1      -46351.973     -51905.622      50.207814      0.96815375   
   1806000   225.60017      126719.38     -46349.911     -51858.123      50.228208      0.96697497   
   1807000   225.28784      126508.51     -46400.497     -51901.083      50.200331      0.96858679   
   1808000   225.6058       126877.96     -46300.264     -51808.614      50.249152      0.96576638   
   1809000   227.6553       126847.72     -46371.985     -51930.374      50.245158      0.96599667   
   1810000   221.35667      126590.65     -46569.189     -51973.793      50.211194      0.96795829   
   1811000   223.12109      126333.94     -46411.599     -51859.283      50.17723       0.9699252    
   1812000   227.50576      126618.21     -46346.415     -51901.154      50.214837      0.96774762   
   1813000   229.28556      126794.33     -46337.333     -51935.526      50.238109      0.96640339   
   1814000   225.93903      125998.86     -46432.859     -51949.345      50.132828      0.97250464   
   1815000   226.6051       126448.43     -46473.248     -52005.996      50.192382      0.96904703   
   1816000   222.72954      125879.24     -46519.676     -51957.799      50.116958      0.97342877   
   1817000   227.95237      125923.64     -46279.499     -51845.142      50.122849      0.97308556   
   1818000   225.24536      126577.65     -46429.529     -51929.078      50.209474      0.96805775   
   1819000   224.97519      126383.47     -46475.291     -51968.243      50.183786      0.96954509   
   1820000   223.60853      126254.65     -46508.681     -51968.265      50.166731      0.97053429   
   1821000   225.94473      126286.91     -46476.53      -51993.154      50.171002      0.97028642   
   1822000   225.06168      125936.65     -46469.59      -51964.654      50.124576      0.97298503   
   1823000   223.7946       126533.04     -46584.089     -52048.217      50.203575      0.96839903   
   1824000   225.40832      126164.06     -46389.588     -51893.116      50.154728      0.97123123   
   1825000   225.17955      126421.51     -46521.301     -52019.243      50.188821      0.96925336   
   1826000   221.64486      126131.6      -46502.729     -51914.369      50.150426      0.97148118   
   1827000   226.90292      125841.43     -46531.975     -52071.995      50.111939      0.97372127   
   1828000   228.14397      126609.19     -46387.221     -51957.542      50.213644      0.9678166    
   1829000   224.22628      126177.4      -46413.49      -51888.158      50.156496      0.97112852   
   1830000   227.83721      125768.64     -46367.8       -51930.631      50.102276      0.97428476   
   1831000   222.81944      126168.76     -46585.146     -52025.464      50.155352      0.97119501   
   1832000   223.33893      125915.85     -46463.17      -51916.172      50.121816      0.97314573   
   1833000   227.55237      126061.45     -46273.628     -51829.504      50.141128      0.97202176   
   1834000   229.13815      125861.03     -46232.175     -51826.77       50.114541      0.97356963   
   1835000   221.73727      125664.73     -46387.556     -51801.452      50.088474      0.97509043   
   1836000   227.36839      125294.28     -46327.571     -51878.956      50.039206      0.97797343   
   1837000   222.60072      126052.45     -46441.624     -51876.602      50.139934      0.97209118   
   1838000   227.93775      125642.11     -46323.302     -51888.588      50.085469      0.97526594   
   1839000   223.44091      125902.41     -46455.122     -51910.614      50.120033      0.9732496    
   1840000   224.62881      126207.62     -46302.626     -51787.121      50.1605        0.97089602   
   1841000   224.13573      126033.36     -46449.398     -51921.855      50.137403      0.9722384    
   1842000   229.06571      125710.09     -46181.477     -51774.303      50.094499      0.9747386    
   1843000   227.29311      125730.08     -46326.766     -51876.313      50.097155      0.97458358   
   1844000   226.69361      125590.02     -46416.077     -51950.986      50.078545      0.97567048   
   1845000   221.78311      125621.19     -46559.104     -51974.119      50.082688      0.97542839   
   1846000   225.53408      125515.39     -46325.284     -51831.882      50.068625      0.97625056   
   1847000   224.74008      125529.36     -46425.743     -51912.955      50.070482      0.97614195   
   1848000   222.2612       125891.38     -46516.079     -51942.767      50.118569      0.97333488   
   1849000   222.98518      126162.27     -46331.255     -51775.62       50.154491      0.97124502   
   1850000   225.32531      125914.04     -46467.162     -51968.663      50.121577      0.9731597    
   1851000   225.20302      125895.82     -46337.98      -51836.495      50.119158      0.97330059   
   1852000   219.57698      125868.5      -46577.339     -51938.49       50.115533      0.97351181   
   1853000   222.79207      125901.91     -46377.673     -51817.323      50.119967      0.97325347   
   1854000   220.32163      125864.07     -46422.227     -51801.559      50.114944      0.97354611   
   1855000   225.02713      125726.41     -46463.421     -51957.642      50.096668      0.97461201   
   1856000   224.7201       126225.35     -46298.286     -51785.01       50.162849      0.97075961   
   1857000   222.84181      125802.52     -46406.887     -51847.751      50.106775      0.97402238   
   1858000   226.71132      125723.11     -46265.957     -51801.299      50.09623       0.97463759   
   1859000   223.3726       125394.21     -46411.678     -51865.503      50.052506      0.977194     
   1860000   222.95407      125930.9      -46405.512     -51849.117      50.123813      0.97302942   
   1861000   225.43309      125408.03     -46374.689     -51878.822      50.054345      0.97708635   
   1862000   222.94772      125626.03     -46494.53      -51937.98       50.083331      0.9753908    
   1863000   224.15385      125563.5      -46279.528     -51752.427      50.075021      0.97587649   
   1864000   224.8674       125659.96     -46320.207     -51810.528      50.08784       0.97512744   
   1865000   225.01208      125554.08     -46424.615     -51918.468      50.073769      0.97594973   
   1866000   224.25974      125856.16     -46394.092     -51869.576      50.113894      0.97360731   
   1867000   225.14546      125757.92     -46517.857     -52014.967      50.100852      0.97436785   
   1868000   226.68266      126046.84     -46299.644     -51834.286      50.139191      0.9721344    
   1869000   223.98633      125438.52     -46454.258     -51923.067      50.058401      0.97684883   
   1870000   223.01777      125948.51     -46407.187     -51852.348      50.12615       0.97289337   
   1871000   223.41444      126021.82     -46375.275     -51830.12       50.135873      0.97232745   
   1872000   223.85771      125886.87     -46488.945     -51954.614      50.11797       0.97336979   
   1873000   225.6048       126147.27     -46320.746     -51829.071      50.152503      0.9713605    
   1874000   224.37159      125557.49     -46409.729     -51887.945      50.074222      0.97592321   
   1875000   225.29931      125552.77     -46512.053     -52012.919      50.073594      0.97595996   
   1876000   224.15614      125621.71     -46407.029     -51879.984      50.082758      0.97542431   
   1877000   221.78102      125815.71     -46408.11      -51823.074      50.108526      0.97392028   
   1878000   226.79006      125462.39     -46253.985     -51791.249      50.061576      0.97666302   
   1879000   223.82753      125586.53     -46515.599     -51980.531      50.078082      0.97569759   
   1880000   224.87363      125502.55     -46349.237     -51839.71       50.066917      0.97635044   
   1881000   224.0681       125202.71     -46443.638     -51914.443      50.027013      0.97868868   
   1882000   224.57849      125221.4      -46383.829     -51867.096      50.029502      0.9785426    
   1883000   223.72433      125471.61     -46492.558     -51954.97       50.062802      0.97659124   
   1884000   220.9199       125468.78     -46481.58      -51875.519      50.062426      0.97661325   
   1885000   226.36722      125965.31     -46435.398     -51962.338      50.128378      0.97276366   
   1886000   225.01702      126218.8      -46482.373     -51976.347      50.161981      0.97081003   
   1887000   228.61119      125784.12     -46388.543     -51970.272      50.104331      0.9741649    
   1888000   225.5056       126352.93     -46544.081     -52049.984      50.179744      0.9697794    
   1889000   222.75722      125646.9      -46474.237     -51913.036      50.086105      0.97522877   
   1890000   228.9733       125844.44     -46353.89      -51944.46       50.11234       0.97369793   
   1891000   225.58263      125644.52     -46428.519     -51936.303      50.085788      0.97524728   
   1892000   224.75982      125308.96     -46535.383     -52023.077      50.041161      0.97785879   
   1893000   224.97239      125687.36     -46397.479     -51890.364      50.091481      0.9749148    
   1894000   227.93661      125450.69     -46375.358     -51940.616      50.06002       0.97675409   
   1895000   224.23311      125804.05     -46547.054     -52021.888      50.106977      0.97401059   
   1896000   219.84909      125513.11     -46444.632     -51812.426      50.068321      0.97626833   
   1897000   226.2947       125504.48     -46421.029     -51946.198      50.067173      0.97633546   
   1898000   221.95817      125868        -46432.132     -51851.421      50.115467      0.97351568   
   1899000   227.45415      125776.69     -46227.373     -51780.851      50.103344      0.97422245   
   1900000   223.47189      125589.07     -46629.211     -52085.459      50.07842       0.97567782   
   1901000   226.62134      125392.21     -46421.515     -51954.659      50.052241      0.97720957   
   1902000   226.89107      126110.85     -46270.391     -51810.122      50.147677      0.97164099   
   1903000   224.09942      125915.54     -46440.434     -51912.004      50.121776      0.97314809   
   1904000   227.07612      125859.2      -46449.446     -51993.694      50.114298      0.97358376   
   1905000   223.834        125843.02     -46398.87      -51863.959      50.112151      0.97370895   
   1906000   228.89239      126109.97     -46387.106     -51975.7        50.14756       0.97164778   
   1907000   221.25326      125856.99     -46390.791     -51792.87       50.114006      0.97360083   
   1908000   224.70511      125271.66     -46421.637     -51907.995      50.036195      0.97814998   
   1909000   221.53964      125498.59     -46587.694     -51996.765      50.06639       0.97638128   
   1910000   225.9485       126023.77     -46424.628     -51941.345      50.136131      0.97231242   
   1911000   226.82681      126197.86     -46261.149     -51799.311      50.159207      0.97097109   
   1912000   224.9444       125886.71     -46374.568     -51866.769      50.117949      0.97337101   
   1913000   224.70849      125625.3      -46437.544     -51923.985      50.083235      0.97539645   
   1914000   227.25894      125970.61     -46427.947     -51976.659      50.129081      0.97272272   
   1915000   227.12005      126021.8      -46440.594     -51985.916      50.13587       0.97232761   
   1916000   225.4007       125745.16     -46378.975     -51882.316      50.099158      0.97446671   
   1917000   222.90976      125962.37     -46508.867     -51951.391      50.127988      0.97278637   
   1918000   223.1891       125799.97     -46504.825     -51954.168      50.106436      0.97404213   
   1919000   223.41249      126576.01     -46467.174     -51921.972      50.209258      0.96807028   
   1920000   227.23024      126001.47     -46380.616     -51928.627      50.133174      0.97248447   
   1921000   226.27619      126443.85     -46434.581     -51959.299      50.191776      0.96908214   
   1922000   227.15499      126368.22     -46413.212     -51959.386      50.181768      0.9696621    
   1923000   225.06148      126036.05     -46377.582     -51872.641      50.137759      0.97221769   
   1924000   225.61453      125885.34     -46467.353     -51975.916      50.117768      0.97338155   
   1925000   226.61105      126280.88     -46307.14      -51840.033      50.170204      0.97033273   
   1926000   222.51683      125641.89     -46446.48      -51879.41       50.085439      0.97526765   
   1927000   224.3186       125988.06     -46461.594     -51938.516      50.131396      0.97258799   
   1928000   227.86128      125793.3      -46318.636     -51882.055      50.10555       0.97409379   
   1929000   224.24438      125627.14     -46412.223     -51887.333      50.083479      0.97538219   
   1930000   223.01109      126182.6      -46551.876     -51996.873      50.157186      0.97108848   
   1931000   221.51082      125732.4      -46432.826     -51841.193      50.097463      0.97456562   
   1932000   223.80848      125935.67     -46547.056     -52011.523      50.124446      0.97299256   
   1933000   223.91056      125875.68     -46512.636     -51979.595      50.116486      0.97345627   
   1934000   229.47905      125860.35     -46348.165     -51951.083      50.114451      0.97357485   
   1935000   225.70947      125723.09     -46503.264     -52014.144      50.096226      0.97463778   
   1936000   225.09457      125778.3      -46467.399     -51963.266      50.103559      0.97420995   
   1937000   227.39636      126120.02     -46268.558     -51820.626      50.148892      0.97157038   
   1938000   224.33         126051.55     -46478.076     -51955.276      50.139815      0.9720981    
   1939000   224.67431      125709.95     -46307.514     -51793.12       50.094481      0.97473968   
   1940000   224.87568      125671.38     -46470.894     -51961.417      50.089358      0.97503879   
   1941000   226.625        125726.68     -46366.386     -51899.62       50.096704      0.97460992   
   1942000   222.30695      125057.53     -46566.879     -51994.685      50.007669      0.97982484   
   1943000   223.28789      125489.63     -46363.841     -51815.597      50.065199      0.97645098   
   1944000   223.96649      125409.31     -46552.591     -52020.915      50.054515      0.97707636   
   1945000   224.01352      126166.97     -46396.531     -51866.004      50.155114      0.9712088    
   1946000   223.73711      125781.51     -46386.742     -51849.466      50.103985      0.97418507   
   1947000   222.05662      125614.73     -46530.983     -51952.676      50.08183       0.97547855   
   1948000   226.60656      125464.85     -46409.124     -51941.908      50.061904      0.97664381   
   1949000   226.98542      125410.87     -46385.988     -51928.023      50.054723      0.9770642    
   1950000   221.96974      125895.96     -46505.874     -51925.446      50.119177      0.9732995    
   1951000   227.82866      125476.24     -46329.078     -51891.701      50.063418      0.97655522   
   1952000   224.94916      125563.13     -46431.884     -51924.201      50.074972      0.97587936   
   1953000   223.28654      126171.99     -46519.692     -51971.414      50.15578       0.97117016   
   1954000   224.23313      126081.99     -46480.541     -51955.375      50.143852      0.97186337   
   1955000   227.8071       125749.7      -46350.78      -51912.876      50.099761      0.9744315    
   1956000   222.75866      126213.7      -46446.061     -51884.896      50.161305      0.97084925   
   1957000   225.64394      125638.73     -46466.29      -51975.571      50.085019      0.97529221   
   1958000   224.96214      125651.91     -46452.571     -51945.205      50.086771      0.97518986   
   1959000   225.32722      126205.8      -46459.579     -51961.127      50.160259      0.97090998   
   1960000   225.93546      125659.38     -46494.746     -52011.144      50.087763      0.97513191   
   1961000   228.12587      125825.81     -46407.05      -51976.929      50.109866      0.97384211   
   1962000   221.67849      125779.77     -46364.231     -51776.692      50.103754      0.97419856   
   1963000   222.35824      125674.11     -46566.929     -51995.986      50.08972       0.97501766   
   1964000   224.24423      126264.13     -46451.365     -51926.47       50.167986      0.97046143   
   1965000   223.89838      126454.91     -46548.296     -52014.958      50.19324       0.96899738   
   1966000   228.83704      126058.82     -46400.092     -51987.335      50.140779      0.97204205   
   1967000   224.4564       125866.48     -46518.749     -51999.035      50.115265      0.97352741   
   1968000   225.03584      125679.33     -46504.067     -51998.5        50.090414      0.97497714   
   1969000   226.41307      126129.89     -46499.773     -52027.833      50.150201      0.97149431   
   1970000   225.83772      126192.62     -46453.199     -51967.211      50.158513      0.97101137   
   1971000   227.34225      125828.29     -46389.804     -51940.551      50.110196      0.97382288   
   1972000   223.62278      126170.84     -46368.252     -51828.185      50.155627      0.97117903   
   1973000   225.23791      125960.68     -46495.77      -51995.137      50.127764      0.97279938   
   1974000   223.78664      126288.41     -46604.75      -52068.683      50.171201      0.97027489   
   1975000   224.82325      125995.8      -46513.631     -52002.874      50.132423      0.97252819   
   1976000   226.75751      125962.54     -46398.741     -51935.21       50.12801       0.97278504   
   1977000   222.62012      126188.01     -46475.093     -51910.545      50.157902      0.97104688   
   1978000   226.71291      125853.73     -46269.212     -51804.593      50.113573      0.97362606   
   1979000   224.20756      125477.37     -46472.38      -51946.59       50.063569      0.97654636   
   1980000   225.63146      125928.52     -46510.173     -52019.149      50.123497      0.97304785   
   1981000   224.25966      125886.91     -46512.516     -51987.998      50.117976      0.97336944   
   1982000   224.59219      126264.68     -46472.739     -51956.34       50.168058      0.97045726   
   1983000   222.34072      126111.32     -46395.942     -51824.572      50.147739      0.97163736   
   1984000   225.46535      126182.58     -46475.777     -51980.698      50.157182      0.97108867   
   1985000   221.29438      125929.79     -46575.729     -51978.812      50.123666      0.973038     
   1986000   228.45145      126301.94     -46411.836     -51989.664      50.172993      0.97017092   
   1987000   223.58257      125948.2      -46531.649     -51990.6        50.126109      0.97289575   
   1988000   223.37404      126374.62     -46461.188     -51915.047      50.182615      0.96961299   
   1989000   227.41088      126191.55     -46592.275     -52144.697      50.158371      0.97101962   
   1990000   227.68599      126377.94     -46358.186     -51917.325      50.183055      0.9695875    
   1991000   224.51221      126275.2      -46477.141     -51958.79       50.169452      0.97037637   
   1992000   226.29185      125872.1      -46585.557     -52110.657      50.11601       0.97348401   
   1993000   226.16656      126289.5      -46364.952     -51886.993      50.171346      0.97026649   
   1994000   224.97276      126082.33     -46476.569     -51969.463      50.143896      0.97186082   
   1995000   226.62271      125896.3      -46471.692     -52004.87       50.119222      0.97329689   
   1996000   224.94881      125929.05     -46349.118     -51841.427      50.123567      0.97304375   
   1997000   226.03745      126373.71     -46419.916     -51938.804      50.182495      0.96961994   
   1998000   225.78181      126023.59     -46457.447     -51970.094      50.136108      0.97231377   
   1999000   227.03211      126330.47     -46523.96      -52067.134      50.17677       0.96995187   
   2000000   225.95277      126624.73     -46299.143     -51815.964      50.215699      0.9676978    
Loop time of 9944.32 on 56 procs for 2000000 steps with 12288 atoms

Performance: 17.377 ns/day, 1.381 hours/ns, 201.120 timesteps/s, 2.471 Matom-step/s
99.8% CPU use with 56 MPI tasks x no OpenMP threads

MPI task timing breakdown:
Section |  min time  |  avg time  |  max time  |%varavg| %total
---------------------------------------------------------------
Pair    | 5017.7     | 5337       | 5595.4     | 162.8 | 53.67
Bond    | 0.50137    | 0.67857    | 0.90589    |  11.5 |  0.01
Kspace  | 2345.8     | 2604.4     | 2926       | 235.2 | 26.19
Neigh   | 340.61     | 340.74     | 340.85     |   0.3 |  3.43
Comm    | 287.94     | 293.12     | 296.53     |  12.2 |  2.95
Output  | 6.863      | 12.577     | 17.475     |  79.2 |  0.13
Modify  | 997.07     | 1109       | 1310.7     | 204.7 | 11.15
Other   |            | 246.8      |            |       |  2.48

Nlocal:        219.429 ave         236 max         202 min
Histogram: 3 1 7 6 12 8 5 5 4 5
Nghost:        6729.77 ave        6793 max        6668 min
Histogram: 1 8 5 5 12 5 7 7 2 4
Neighs:        93664.3 ave      101086 max       85654 min
Histogram: 3 3 6 6 12 7 3 6 5 5

Total # of neighbors = 5245201
Ave neighs/atom = 426.85555
Ave special neighs/atom = 2
Neighbor list builds = 28065
Dangerous builds = 0
undump dH2O
Total wall time: 2:45:44
