LAMMPS (22 Jul 2025 - Update 1)
units real
atom_style full
boundary p p p

# package intel 1 omp 2

pair_style lj/cut/tip4p/long 1 2 1 1 0.1546 9.5

bond_style zero
angle_style zero
pair_modify tail yes

read_data equilibration_NVT_${T}.data
read_data equilibration_NVT_246.data
Reading data file ...
  orthogonal box = (0 0 0) to (24.89526 24.89526 24.89526)
  2 by 4 by 7 MPI processor grid
  reading atoms ...
  1536 atoms
  reading velocities ...
  1536 velocities
  scanning bonds ...
  2 = max bonds/atom
  scanning angles ...
  1 = max angles/atom
  orthogonal box = (0 0 0) to (24.89526 24.89526 24.89526)
  2 by 4 by 7 MPI processor grid
  reading bonds ...
  1024 bonds
  reading angles ...
  512 angles
Finding 1-2 1-3 1-4 neighbors ...
  special bond factors lj:    0        0        0       
  special bond factors coul:  0        0        0       
     2 = max # of 1-2 neighbors
     1 = max # of 1-3 neighbors
     1 = max # of 1-4 neighbors
     2 = max # of special neighbors
  special bonds CPU = 0.003 seconds
  read_data CPU = 0.042 seconds

print "Initial configuration loaded."
Initial configuration loaded.
reset_timestep 0
print "Applying shear rate: ${gamma}"
Applying shear rate: 1.0e-7
change_box all triclinic
Changing box ...
  triclinic box = (0 0 0) to (24.89526 24.89526 24.89526) with tilt (0 0 0)
kspace_style pppm/tip4p 1.0e-5

pair_coeff 1 1 0.18521 3.1589 #O-O
pair_coeff * 2 0.0 0.0

bond_coeff 1 0.9572 #O-H
angle_coeff 1 104.52 #H-O-H

group gH2O type 1 2
1536 atoms in group gH2O
group gO type 1
512 atoms in group gO

neighbor 3.0 bin
neigh_modify delay 0 every 1 check yes

timestep 1.0
fix 1 gH2O shake 1.0e-4 100 0 b 1 a 1
Finding SHAKE clusters ...
       0 = # of size 2 clusters
       0 = # of size 3 clusters
       0 = # of size 4 clusters
     512 = # of frozen angles
  find clusters CPU = 0.002 seconds

# # 系统弛豫到平衡态
# fix fnvt_equil all nvt temp ${T} ${T} 100.0
# thermo 1000
# thermo_style custom step temp etotal pe
# thermo_modify flush yes
# run 100000 # 100 ps
# unfix fnvt_equil

# 系统剪切变形

fix fdeform all deform 1 xy erate ${gamma} remap v
fix fdeform all deform 1 xy erate 1.0e-7 remap v
fix fnvt all nvt/sllod temp ${T} ${T} 100.0
fix fnvt all nvt/sllod temp 246 ${T} 100.0
fix fnvt all nvt/sllod temp 246 246 100.0

compute tilt all temp/deform

variable L0_x equal lx
variable L0_y equal ly
variable L0_z equal lz

compute p all pressure NULL virial
variable sxy equal -c_p[4] * 1.01325e-4  # convert to GPa


variable strainInc equal 0.01
variable dt equal 1.0e-15
variable gammaSI equal ${gamma}*1e15
variable gammaSI equal 1.0e-7*1e15
variable stepsPerReset equal ceil(${strainInc}/(${gammaSI}*${dt}))
variable stepsPerReset equal ceil(0.01/(${gammaSI}*${dt}))
variable stepsPerReset equal ceil(0.01/(100000000*${dt}))
variable stepsPerReset equal ceil(0.01/(100000000*1e-15))
print "Steps per reset: ${stepsPerReset}"
Steps per reset: 100000

variable massAll equal mass(all)/6.022e23
variable volCm3 equal vol*1.0e-24
variable density_sys equal v_massAll/v_volCm3
variable tau_pa equal v_sxy * 1e9
variable gamma_s equal ${gamma} * 1e15
variable gamma_s equal 1.0e-7 * 1e15
variable viscosity equal v_tau_pa / v_gamma_s

variable strain equal step*${gammaSI}*${dt}
variable strain equal step*100000000*${dt}
variable strain equal step*100000000*1e-15

thermo 1000
thermo_style custom step temp etotal pe pxy v_sxy v_strain v_viscosity
thermo_modify flush yes

dump traj all custom 500 traj_${gamma}_${T}.lammpstrj id type xu yu zu vx vy vz # 0.5ps
dump traj all custom 500 traj_1.0e-7_${T}.lammpstrj id type xu yu zu vx vy vz 
dump traj all custom 500 traj_1.0e-7_246.lammpstrj id type xu yu zu vx vy vz 
dump_modify traj sort id
fix stress all ave/time 500 1 500 v_strain v_sxy file stress_${gamma}_${T}.data  # 每0.5ps输出一次应力和应变
fix stress all ave/time 500 1 500 v_strain v_sxy file stress_1.0e-7_${T}.data  
fix stress all ave/time 500 1 500 v_strain v_sxy file stress_1.0e-7_246.data  

# compute peratom all stress/atom NULL
# dump stress gO custom 5000 stress_${gamma}_${T}.lammpstrj id type c_peratom[1] c_peratom[2] c_peratom[3] c_peratom[4] c_peratom[5] c_peratom[6]
# dump_modify stress sort id

variable Ttotal equal 5000000 # 5 ns
variable nloops equal ceil(${Ttotal}/(100000))
variable nloops equal ceil(5000000/(100000))
print "Total loops: ${nloops}"
Total loops: 50

variable nloop loop ${nloops}
variable nloop loop 50
label loop_start
run 100000 # 100ps
PPPM initialization ...
  extracting TIP4P info from pair style
  using 12-bit tables for long-range coulomb
  G vector (1/distance) = 0.33392026
  grid = 27 27 27
  stencil order = 5
  estimated absolute RMS force accuracy = 0.0025375515
  estimated relative force accuracy = 7.641761e-06
  using double precision KISS FFT
  3d grid and FFT values/proc = 4576 432
WARNING: Communication cutoff 0 is shorter than a bond length based estimate of 4.4358. This may lead to errors. (../comm.cpp:743)
WARNING: Increasing communication cutoff to 13.6118 for TIP4P pair style (../pair_lj_cut_tip4p_long.cpp:497)
Generated 0 of 1 mixed pair_coeff terms from geometric mixing rule
Neighbor list info ...
  update: every = 1 steps, delay = 0 steps, check = yes
  max neighbors/atom: 2000, page size: 100000
  master list distance cutoff = 12.8092
  ghost atom cutoff = 13.6118
  binsize = 6.4046, bins = 4 4 4
  1 neighbor lists, perpetual/occasional/extra = 1 0 0
  (1) pair lj/cut/tip4p/long, perpetual
      attributes: half, newton on
      pair build: half/bin/newton/tri
      stencil: half/bin/3d/tri
      bin: standard
Per MPI rank memory allocation (min/avg/max) = 8.354 | 8.376 | 8.395 Mbytes
   Step          Temp          TotEng         PotEng          Pxy           v_sxy         v_strain     v_viscosity  
         0   250.06598     -5496.1251     -6258.6685      227.26744     -0.027613896    0             -0.27613896   
      1000   241.35462     -5574.4696     -6310.4488     -134.45046      0.0046604475   0.0001         0.046604475  
      2000   259.65952     -5505.6774     -6297.475       545.94984     -0.054705823    0.0002        -0.54705823   
      3000   236.91481     -5536.0252     -6258.4658     -131.76475      0.0088943829   0.0003         0.088943829  
      4000   244.83525     -5539.2218     -6285.8148     -499.57329      0.060645957    0.0004         0.60645957   
      5000   251.63376     -5539.0189     -6306.343      -407.0539       0.045204548    0.0005         0.45204548   
      6000   237.76868     -5596.5103     -6321.5546     -332.57672      0.025827314    0.0006         0.25827314   
      7000   242.62549     -5569.9368     -6309.7913     -512.32647      0.058013778    0.0007         0.58013778   
      8000   242.25073     -5579.5909     -6318.3027     -563.59493      0.069564471    0.0008         0.69564471   
      9000   250.07579     -5544.2085     -6306.7818      187.97274     -0.020174564    0.0009        -0.20174564   
     10000   243.76285     -5539.8289     -6283.1517     -707.34842      0.068569084    0.001          0.68569084   
     11000   251.20782     -5556.2328     -6322.258       566.24363     -0.044076129    0.0011        -0.44076129   
     12000   250.19377     -5497.3977     -6260.3308     -111.75326      0.0072971227   0.0012         0.072971227  
     13000   239.3162      -5566.6825     -6296.4458     -69.5692       -0.0016625033   0.0013        -0.016625033  
     14000   243.32728     -5528.3316     -6270.3262     -498.76777      0.047973485    0.0014         0.47973485   
     15000   239.24637     -5522.3761     -6251.9265     -293.9761       0.045207184    0.0015         0.45207184   
     16000   257.90222     -5456.0535     -6242.4924      202.09951     -0.015122847    0.0016        -0.15122847   
     17000   240.42862     -5563.2623     -6296.4177     -369.68933      0.035637954    0.0017         0.35637954   
     18000   255.99884     -5525.3064     -6305.9413      546.35839     -0.05220398     0.0018        -0.5220398    
     19000   253.05117     -5494.6711     -6266.3174     -31.031921     -0.0019820781   0.0019        -0.019820781  
     20000   232.0292      -5562.4616     -6270.0042     -175.56017      0.016068898    0.002          0.16068898   
     21000   248.83488     -5520.4578     -6279.2471      366.68746     -0.034865904    0.0021        -0.34865904   
     22000   254.65148     -5547.5502     -6324.0764      285.52555     -0.018635605    0.0022        -0.18635605   
     23000   235.68705     -5553.8812     -6272.5779      258.7591      -0.023091089    0.0023        -0.23091089   
     24000   246.83036     -5497.7127     -6250.3894      168.32355     -0.016822363    0.0024        -0.16822363   
     25000   246.80962     -5510.7976     -6263.4111     -79.545594      0.00090313017  0.0025         0.0090313017 
     26000   245.06027     -5488.5286     -6235.8077     -364.51006      0.048699028    0.0026         0.48699028   
     27000   232.28118     -5605.0377     -6313.3487     -490.4943       0.05138608     0.0027         0.5138608    
     28000   252.5464      -5483.0136     -6253.1207     -787.23856      0.077884605    0.0028         0.77884605   
     29000   242.25877     -5596.0764     -6334.8127      226.61363     -0.029141766    0.0029        -0.29141766   
     30000   242.13101     -5595.021      -6333.3677     -145.00565      0.012997884    0.003          0.12997884   
     31000   250.74018     -5478.3544     -6242.9537     -189.03651      0.016204539    0.0031         0.16204539   
     32000   238.47975     -5559.9214     -6287.1341     -542.71386      0.047701804    0.0032         0.47701804   
     33000   254.71082     -5498.7398     -6275.4469      30.610345     -0.0046776808   0.0033        -0.046776808  
     34000   247.45484     -5526.831      -6281.4121     -303.7548       0.017742873    0.0034         0.17742873   
     35000   239.08323     -5549.5975     -6278.6504     -303.54998      0.029861713    0.0035         0.29861713   
     36000   238.23994     -5565.3376     -6291.819       152.03561     -0.016389314    0.0036        -0.16389314   
     37000   243.89118     -5541.5557     -6285.2698      175.99234     -0.014507759    0.0037        -0.14507759   
     38000   246.10239     -5547.6995     -6298.1564      104.84028     -0.012528292    0.0038        -0.12528292   
     39000   248.65628     -5538.6946     -6296.9392      314.56112     -0.029191993    0.0039        -0.29191993   
     40000   245.44734     -5531.4308     -6279.8902      661.51644     -0.070693856    0.004         -0.70693856   
     41000   245.6244      -5491.935      -6240.9344     -1053.4622      0.097268688    0.0041         0.97268688   
     42000   249.08405     -5514.0755     -6273.6246     -826.33427      0.081507851    0.0042         0.81507851   
     43000   248.54312     -5558.2401     -6316.1397     -479.34306      0.051456618    0.0043         0.51456618   
     44000   236.04004     -5536.345      -6256.1181      227.0889      -0.022762526    0.0044        -0.22762526   
     45000   246.866       -5465.1205     -6217.9059     -116.1471       0.01010265     0.0045         0.1010265    
     46000   242.49698     -5498.4026     -6237.8653      64.044445     -0.016573478    0.0046        -0.16573478   
     47000   246.4689      -5540.2394     -6291.814       662.96355     -0.067268423    0.0047        -0.67268423   
     48000   245.92345     -5525.4004     -6275.3116     -7.0757448      0.00032598335  0.0048         0.0032598335 
     49000   251.00216     -5536.5657     -6301.9638     -318.11667      0.035774987    0.0049         0.35774987   
     50000   246.06428     -5531.232      -6281.5727      1087.7622     -0.10839804     0.005         -1.0839804    
     51000   245.39485     -5535.8495     -6284.1489      25.022255      0.0046965896   0.0051         0.046965896  
     52000   241.77162     -5554.2614     -6291.5122      28.090002     -0.0090828421   0.0052        -0.090828421  
     53000   245.91397     -5534.0828     -6283.9652     -504.43579      0.04866191     0.0053         0.4866191    
     54000   251.89078     -5540.8109     -6308.9188     -308.96816      0.038160421    0.0054         0.38160421   
     55000   234.5927      -5571.33       -6286.6896      110.07003     -0.01507415     0.0055        -0.1507415    
     56000   258.34418     -5519.7462     -6307.5329      45.156638     -0.0028610453   0.0056        -0.028610453  
     57000   239.49612     -5559.6965     -6290.0085      114.66736     -0.012372219    0.0057        -0.12372219   
     58000   250.15109     -5536.382      -6299.1849     -73.492536      0.0098257053   0.0058         0.098257053  
     59000   247.30877     -5522.2649     -6276.4005      277.16925     -0.024012127    0.0059        -0.24012127   
     60000   238.14177     -5549.741      -6275.923      -251.46132      0.037245272    0.006          0.37245272   
     61000   243.37243     -5518.1512     -6260.2835     -72.707293      0.0042167521   0.0061         0.042167521  
     62000   253.02273     -5518.7383     -6290.2978     -233.70393      0.027776167    0.0062         0.27776167   
     63000   244.5014      -5511.7547     -6257.3296     -197.48789      0.011540277    0.0063         0.11540277   
     64000   252.38539     -5477.7967     -6247.4128     -472.92161      0.044656033    0.0064         0.44656033   
     65000   245.47441     -5500.8657     -6249.4077     -828.32023      0.077964124    0.0065         0.77964124   
     66000   244.23753     -5554.5816     -6299.3519     -10.340027     -0.0089721662   0.0066        -0.089721662  
     67000   254.2046      -5466.8242     -6241.9878     -716.04474      0.077467289    0.0067         0.77467289   
     68000   247.26106     -5518.673      -6272.6631     -329.15006      0.038033952    0.0068         0.38033952   
     69000   241.56052     -5534.399      -6271.0061      84.230767     -0.00070687013  0.0069        -0.0070687013 
     70000   246.7366      -5505.8344     -6258.2253     -316.3112       0.044131782    0.007          0.44131782   
     71000   238.43413     -5516.6526     -6243.7262      469.65058     -0.05246359     0.0071        -0.5246359    
     72000   239.51169     -5535.8908     -6266.2502      88.403519     -0.011756164    0.0072        -0.11756164   
     73000   255.11094     -5501.8144     -6279.7417      27.120683     -0.0044744534   0.0073        -0.044744534  
     74000   242.73377     -5547.6202     -6287.8049     -303.35383      0.014039612    0.0074         0.14039612   
     75000   244.29583     -5510.6056     -6255.5536      79.058968     -0.0149049      0.0075        -0.149049     
     76000   246.10836     -5578.0668     -6328.5419      253.76933     -0.023539899    0.0076        -0.23539899   
     77000   240.79953     -5525.691      -6259.9776     -733.09231      0.066058043    0.0077         0.66058043   
     78000   241.09287     -5542.9034     -6278.0845      572.20263     -0.057833825    0.0078        -0.57833825   
     79000   243.04209     -5544.2178     -6285.3427      673.1745      -0.070450734    0.0079        -0.70450734   
     80000   241.12952     -5562.5381     -6297.8309      756.24715     -0.069875888    0.008         -0.69875888   
     81000   249.74892     -5523.9688     -6285.5453      147.11647      0.00055508591  0.0081         0.0055508591 
     82000   250.94007     -5487.7049     -6252.9137     -521.78073      0.047782893    0.0082         0.47782893   
     83000   243.80617     -5558.5299     -6301.9848      559.44004     -0.054661312    0.0083        -0.54661312   
     84000   254.09822     -5475.8372     -6250.6763      391.51945     -0.037898086    0.0084        -0.37898086   
     85000   241.97284     -5516.7911     -6254.6555     -193.91231      0.027408095    0.0085         0.27408095   
     86000   248.75647     -5449.9417     -6208.4919      20.570165     -0.00635201     0.0086        -0.0635201    
     87000   246.09134     -5479.425      -6229.8482     -327.18902      0.022197929    0.0087         0.22197929   
     88000   245.45057     -5490.2348     -6238.7041      341.37796     -0.035140359    0.0088        -0.35140359   
     89000   251.70791     -5443.5378     -6211.088      -698.22841      0.060883788    0.0089         0.60883788   
     90000   237.56529     -5524.9841     -6249.4083      763.51601     -0.081189951    0.009         -0.81189951   
     91000   246.97271     -5444.4779     -6197.5888     -593.76773      0.061701608    0.0091         0.61701608   
     92000   242.68931     -5470.1866     -6210.2358     -624.1658       0.060873316    0.0092         0.60873316   
     93000   250.2049      -5484.4466     -6247.4135      942.04055     -0.097695122    0.0093        -0.97695122   
     94000   249.77441     -5417.0677     -6178.7219     -70.148889      0.012046752    0.0094         0.12046752   
     95000   241.3135      -5518.1215     -6253.9754     -243.45813      0.01661131     0.0095         0.1661131    
     96000   257.94128     -5448.3918     -6234.9499      333.44058     -0.033932976    0.0096        -0.33932976   
     97000   244.04923     -5560.537      -6304.7331      702.87275     -0.069117839    0.0097        -0.69117839   
     98000   247.30451     -5446.5106     -6200.6333     -422.58422      0.042052926    0.0098         0.42052926   
     99000   243.14257     -5524.8992     -6266.3305      330.04363     -0.031627727    0.0099        -0.31627727   
    100000   252.02573     -5493.3925     -6261.9119      1038.4783     -0.09472712     0.01          -0.9472712    
Loop time of 89.5232 on 56 procs for 100000 steps with 1536 atoms

Performance: 96.511 ns/day, 0.249 hours/ns, 1117.029 timesteps/s, 1.716 Matom-step/s
99.7% CPU use with 56 MPI tasks x no OpenMP threads

MPI task timing breakdown:
Section |  min time  |  avg time  |  max time  |%varavg| %total
---------------------------------------------------------------
Pair    | 22.178     | 24.943     | 27.151     |  20.3 | 27.86
Bond    | 0.010746   | 0.014226   | 0.021766   |   1.6 |  0.02
Kspace  | 34.745     | 36.988     | 39.6       |  16.8 | 41.32
Neigh   | 1.8778     | 1.8802     | 1.8828     |   0.1 |  2.10
Comm    | 9.7324     | 10.008     | 10.348     |   4.9 | 11.18
Output  | 0.081217   | 0.12686    | 0.1645     |   6.4 |  0.14
Modify  | 10.77      | 12.878     | 14.779     |  31.4 | 14.38
Other   |            | 2.685      |            |       |  3.00

Nlocal:        27.4286 ave          37 max          21 min
Histogram: 4 4 6 12 8 16 5 0 0 1
Nghost:        4055.54 ave        4161 max        3979 min
Histogram: 6 5 6 8 10 9 4 5 2 1
Neighs:        12010.8 ave       15997 max        9209 min
Histogram: 4 4 6 12 9 14 3 3 0 1

Total # of neighbors = 672605
Ave neighs/atom = 437.89388
Ave special neighs/atom = 2
Neighbor list builds = 1107
Dangerous builds = 0
kspace_style pppm/tip4p 1.0e-5
next nloop
jump SELF loop_start
run 100000 # 100ps
PPPM initialization ...
  extracting TIP4P info from pair style
  using 12-bit tables for long-range coulomb
  G vector (1/distance) = 0.33366179
  grid = 27 27 27
  stencil order = 5
  estimated absolute RMS force accuracy = 0.0025773709
  estimated relative force accuracy = 7.7616761e-06
  using double precision KISS FFT
  3d grid and FFT values/proc = 4576 432
Generated 0 of 1 mixed pair_coeff terms from geometric mixing rule
Per MPI rank memory allocation (min/avg/max) = 9.611 | 9.632 | 9.651 Mbytes
   Step          Temp          TotEng         PotEng          Pxy           v_sxy         v_strain     v_viscosity  
    100000   252.02573     -5493.3923     -6261.9117      1038.6352     -0.094743015    0.01          -0.94743015   
    101000   247.36944     -5472.4138     -6226.7344     -415.94322      0.045714696    0.0101         0.45714696   
    102000   243.50155     -5475.951      -6218.477      -104.01974      0.0023734646   0.0102         0.023734646  
    103000   248.52969     -5497.4129     -6255.2715      548.63049     -0.051158597    0.0103        -0.51158597   
    104000   240.30645     -5535.3799     -6268.1628      89.733086     -0.0049684927   0.0104        -0.049684927  
    105000   252.15452     -5438.2916     -6207.2037     -1249.0046      0.1313784      0.0105         1.313784     
    106000   245.46384     -5514.6808     -6263.1905     -381.73834      0.037366228    0.0106         0.37366228   
    107000   237.89547     -5544.9136     -6270.3446     -686.925        0.068047784    0.0107         0.68047784   
    108000   238.45437     -5523.7781     -6250.9134      39.482246     -0.00068428305  0.0108        -0.0068428305 
    109000   247.30371     -5475.9363     -6230.0565      482.19371     -0.044957207    0.0109        -0.44957207   
    110000   249.86394     -5468.2798     -6230.2071     -303.42145      0.036679385    0.011          0.36679385   
    111000   243.13589     -5530.5548     -6271.9657      113.63212     -0.012258367    0.0111        -0.12258367   
    112000   247.61331     -5492.3849     -6247.4492     -482.90021      0.048432187    0.0112         0.48432187   
    113000   250.03052     -5520.2337     -6282.6689      735.21365     -0.069117918    0.0113        -0.69117918   
    114000   245.75059     -5519.453      -6268.8372     -0.043203296    0.014230878    0.0114         0.14230878   
    115000   247.55568     -5502.6325     -6257.521      -93.658756      0.0048399745   0.0115         0.048399745  
    116000   256.58383     -5508.1428     -6290.5615      72.412706     -0.0052451363   0.0116        -0.052451363  
    117000   250.55024     -5510.0615     -6274.0815     -1078.1649      0.11566216     0.0117         1.1566216    
    118000   238.27412     -5555.5766     -6282.1622      135.9838       0.00069792216  0.0118         0.0069792216 
    119000   234.0948      -5547.3789     -6261.2203      371.53299     -0.033909093    0.0119        -0.33909093   
    120000   240.88475     -5552.017      -6286.5635      858.66864     -0.072234993    0.012         -0.72234993   
    121000   246.51494     -5520.215      -6271.93        50.915559     -0.0062277665   0.0121        -0.062277665  
    122000   240.98988     -5540.7529     -6275.6199      195.89135     -0.025108486    0.0122        -0.25108486   
    123000   249.91997     -5554.2882     -6316.3863     -529.81403      0.05774699     0.0123         0.5774699    
    124000   256.17142     -5536.5864     -6317.7475     -66.766872      0.019229901    0.0124         0.19229901   
    125000   240.49682     -5522.0374     -6255.4009     -78.362388      0.0068911683   0.0125         0.068911683  
    126000   259.38972     -5472.6226     -6263.5975     -222.40132      0.015355932    0.0126         0.15355932   
    127000   243.35391     -5529.8626     -6271.9384     -55.319972     -0.0019852735   0.0127        -0.019852735  
    128000   243.30226     -5598.5265     -6340.4448      212.61239     -0.031983487    0.0128        -0.31983487   
    129000   244.29531     -5566.7842     -6311.7306      328.03013     -0.031030514    0.0129        -0.31030514   
    130000   240.98871     -5583.0886     -6317.952       212.49197     -0.012629527    0.013         -0.12629527   
    131000   242.74395     -5579.2136     -6319.4294      314.93154     -0.027093113    0.0131        -0.27093113   
    132000   243.66617     -5556.4391     -6299.4671     -509.16225      0.051334538    0.0132         0.51334538   
    133000   247.73835     -5555.096      -6310.5416      471.12267     -0.044924393    0.0133        -0.44924393   
    134000   256.79211     -5511.2754     -6294.3292      197.48267     -0.031194781    0.0134        -0.31194781   
    135000   234.86261     -5572.2863     -6288.469      -43.924969      0.0057516711   0.0135         0.057516711  
    136000   246.77325     -5565.4867     -6317.9893      721.41643     -0.081129346    0.0136        -0.81129346   
    137000   247.77072     -5552.8102     -6308.3545      276.14437     -0.022554442    0.0137        -0.22554442   
    138000   248.92459     -5534.6498     -6293.7126      181.3062      -0.018095572    0.0138        -0.18095572   
    139000   253.40337     -5516.9614     -6289.6817     -704.06735      0.075374324    0.0139         0.75374324   
    140000   231.40532     -5591.4979     -6297.138      -69.903376      0.0039536174   0.014          0.039536174  
    141000   247.69586     -5508.0598     -6263.3758     -356.34287      0.030674669    0.0141         0.30674669   
    142000   246.27374     -5570.7586     -6321.7381      837.00939     -0.084474967    0.0142        -0.84474967   
    143000   239.82323     -5536.009      -6267.3184     -6.3358494      0.003482999    0.0143         0.03482999   
    144000   246.18752     -5501.2598     -6251.9763     -110.34745      0.0046481709   0.0144         0.046481709  
    145000   239.43089     -5512.811      -6242.924      -590.99688      0.05217078     0.0145         0.5217078    
    146000   249.12452     -5507.5265     -6267.199      -122.84666      0.024531881    0.0146         0.24531881   
    147000   235.36786     -5593.8914     -6311.6148     -466.78214      0.046439686    0.0147         0.46439686   
    148000   244.8503      -5542.5117     -6289.1505      166.90583     -0.008239804    0.0148        -0.08239804   
    149000   246.48312     -5517.6588     -6269.2767     -1260.2378      0.12963674     0.0149         1.2963674    
    150000   247.9571      -5506.9536     -6263.0662     -62.67203       0.0056706846   0.015          0.056706846  
    151000   235.62912     -5559.9969     -6278.517      -98.796156      0.0081721061   0.0151         0.081721061  
    152000   246.63162     -5486.462      -6238.5327     -48.030082      0.0049083207   0.0152         0.049083207  
    153000   245.24132     -5527.968      -6275.7992     -476.53972      0.04461852     0.0153         0.4461852    
    154000   249.35321     -5465.5464     -6225.9162     -270.14695      0.026324242    0.0154         0.26324242   
    155000   239.82308     -5579.3617     -6310.6707      69.493254     -0.0018470508   0.0155        -0.018470508  
    156000   248.3997      -5521.8756     -6279.3378     -425.39374      0.046316364    0.0156         0.46316364   
    157000   249.3789      -5561.7291     -6322.1773      534.17976     -0.054416319    0.0157        -0.54416319   
    158000   253.23461     -5535.9425     -6308.1482      98.831506      0.0025148049   0.0158         0.025148049  
    159000   230.28041     -5581.4657     -6283.6756      449.28228     -0.043047997    0.0159        -0.43047997   
    160000   249.41937     -5511.7444     -6272.3161     -149.93885      0.024243168    0.016          0.24243168   
    161000   233.15168     -5548.766      -6259.7314      648.09057     -0.073330327    0.0161        -0.73330327   
    162000   242.29975     -5511.8864     -6250.7477      330.03509     -0.025255608    0.0162        -0.25255608   
    163000   237.38625     -5557.278      -6281.1562      287.51187     -0.034276164    0.0163        -0.34276164   
    164000   249.53068     -5551.9784     -6312.8894     -513.04662      0.048281641    0.0164         0.48281641   
    165000   251.30408     -5530.1503     -6296.4691     -306.78772      0.038329474    0.0165         0.38329474   
    166000   253.73196     -5547.7637     -6321.486       900.63498     -0.090101725    0.0166        -0.90101725   
    167000   251.27351     -5506.6262     -6272.8518     -150.44433      0.011245046    0.0167         0.11245046   
    168000   246.70291     -5590.2486     -6342.5367      74.309476     -0.00635059     0.0168        -0.0635059    
    169000   263.92055     -5440.2912     -6245.0822     -263.52978      0.030147146    0.0169         0.30147146   
    170000   232.91336     -5556.5761     -6266.8148      556.48554     -0.062701395    0.017         -0.62701395   
    171000   244.81574     -5550.5341     -6297.0675      7.0409143     -0.0031841814   0.0171        -0.031841814  
    172000   247.22448     -5547.6559     -6301.5345     -24.804121     -0.0062039652   0.0172        -0.062039652  
    173000   258.08683     -5483.1001     -6270.102      -208.56906      0.013139513    0.0173         0.13139513   
    174000   249.17232     -5503.0492     -6262.8674      668.72397     -0.076586074    0.0174        -0.76586074   
    175000   252.50193     -5485.0618     -6255.0333      273.65796     -0.029610143    0.0175        -0.29610143   
    176000   245.21753     -5511.9827     -6259.7414     -1022.3325      0.096474858    0.0176         0.96474858   
    177000   238.7988      -5537.283      -6265.4685      700.15189     -0.062546006    0.0177        -0.62546006   
    178000   259.45095     -5472.0478     -6263.2094     -264.05696      0.032226396    0.0178         0.32226396   
    179000   238.8147      -5534.0153     -6262.2494      156.08556     -0.016792746    0.0179        -0.16792746   
    180000   246.65777     -5529.6345     -6281.785       341.30477     -0.032584669    0.018         -0.32584669   
    181000   242.56245     -5489.4239     -6229.0862      659.32098     -0.063963894    0.0181        -0.63963894   
    182000   246.67248     -5529.4507     -6281.646      -521.37192      0.060908904    0.0182         0.60908904   
    183000   239.29548     -5485.3224     -6215.0226     -302.54591      0.032059537    0.0183         0.32059537   
    184000   246.26372     -5520.8172     -6271.7661     -704.5726       0.066559051    0.0184         0.66559051   
    185000   239.89376     -5599.6575     -6331.182      -322.23672      0.032354559    0.0185         0.32354559   
    186000   247.94859     -5507.1733     -6263.26       -289.25903      0.024910131    0.0186         0.24910131   
    187000   239.97619     -5552.1779     -6283.9537      86.92003      -0.012013266    0.0187        -0.12013266   
    188000   256.61013     -5494.7295     -6277.2284     -849.16013      0.081096441    0.0188         0.81096441   
    189000   251.76644     -5402.7328     -6170.4615      625.38529     -0.070966257    0.0189        -0.70966257   
    190000   236.98037     -5536.5747     -6259.2152     -94.765295      0.0084631631   0.019          0.084631631  
    191000   249.07152     -5563.064      -6322.5749     -150.05698      0.01552888     0.0191         0.1552888    
    192000   245.58151     -5534.4757     -6283.3442     -750.56315      0.073288747    0.0192         0.73288747   
    193000   237.51326     -5544.1383     -6268.4038      631.21065     -0.069918237    0.0193        -0.69918237   
    194000   246.91714     -5528.6967     -6281.6381     -240.23508      0.0205239      0.0194         0.205239     
    195000   247.28806     -5533.8963     -6287.9688      472.08478     -0.049910706    0.0195        -0.49910706   
    196000   245.78027     -5483.0421     -6232.5167      275.69094     -0.028734293    0.0196        -0.28734293   
    197000   248.36469     -5478.5651     -6235.9206     -397.3091       0.032745765    0.0197         0.32745765   
    198000   247.66785     -5522.7968     -6278.0273     -558.77737      0.047365222    0.0198         0.47365222   
    199000   249.84527     -5475.8974     -6237.7677     -551.07765      0.05389923     0.0199         0.5389923    
    200000   249.80231     -5542.575      -6304.3144      143.28976     -0.013516942    0.02          -0.13516942   
Loop time of 90.0565 on 56 procs for 100000 steps with 1536 atoms

Performance: 95.940 ns/day, 0.250 hours/ns, 1110.414 timesteps/s, 1.706 Matom-step/s
99.8% CPU use with 56 MPI tasks x no OpenMP threads

MPI task timing breakdown:
Section |  min time  |  avg time  |  max time  |%varavg| %total
---------------------------------------------------------------
Pair    | 22.731     | 24.973     | 27.21      |  18.1 | 27.73
Bond    | 0.010668   | 0.014303   | 0.022787   |   1.7 |  0.02
Kspace  | 35.132     | 37.373     | 39.549     |  14.4 | 41.50
Neigh   | 1.9514     | 1.9551     | 1.9582     |   0.1 |  2.17
Comm    | 9.7014     | 9.991      | 10.31      |   4.7 | 11.09
Output  | 0.077942   | 0.12173    | 0.15652    |   6.1 |  0.14
Modify  | 10.82      | 12.921     | 14.922     |  31.6 | 14.35
Other   |            | 2.706      |            |       |  3.00

Nlocal:        27.4286 ave          37 max          13 min
Histogram: 1 0 1 5 6 12 10 17 2 2
Nghost:        4031.39 ave        4136 max        3932 min
Histogram: 1 4 6 9 9 8 11 4 1 3
Neighs:        12008.8 ave       16251 max        5745 min
Histogram: 1 1 0 6 7 10 12 15 2 2

Total # of neighbors = 672493
Ave neighs/atom = 437.82096
Ave special neighs/atom = 2
Neighbor list builds = 1127
Dangerous builds = 0
kspace_style pppm/tip4p 1.0e-5
next nloop
jump SELF loop_start
run 100000 # 100ps
PPPM initialization ...
  extracting TIP4P info from pair style
  using 12-bit tables for long-range coulomb
  G vector (1/distance) = 0.33331237
  grid = 27 27 27
  stencil order = 5
  estimated absolute RMS force accuracy = 0.0026251837
  estimated relative force accuracy = 7.9056627e-06
  using double precision KISS FFT
  3d grid and FFT values/proc = 4576 432
Generated 0 of 1 mixed pair_coeff terms from geometric mixing rule
Per MPI rank memory allocation (min/avg/max) = 9.611 | 9.632 | 9.651 Mbytes
   Step          Temp          TotEng         PotEng          Pxy           v_sxy         v_strain     v_viscosity  
    200000   249.80223     -5542.5759     -6304.315       143.46503     -0.01353475     0.02          -0.1353475    
    201000   242.0136      -5517.626      -6255.6147     -300.21044      0.02618472     0.0201         0.2618472    
    202000   251.07927     -5534.9715     -6300.6048      11.56919       0.01105941     0.0202         0.1105941    
    203000   242.52548     -5533.4326     -6272.9822     -153.14106      0.01520411     0.0203         0.1520411    
    204000   232.94504     -5529.3904     -6239.7257     -821.46472      0.082624646    0.0204         0.82624646   
    205000   253.64196     -5493.8102     -6267.2581      358.73514     -0.03720688     0.0205        -0.3720688    
    206000   240.86361     -5532.6078     -6267.0897     -687.8027       0.072375772    0.0206         0.72375772   
    207000   252.20787     -5437.0792     -6206.1539     -508.72248      0.04164281     0.0207         0.4164281    
    208000   247.79969     -5496.8039     -6252.4366      937.40764     -0.096816286    0.0208        -0.96816286   
    209000   246.01869     -5475.7463     -6225.948       335.76655     -0.033624163    0.0209        -0.33624163   
    210000   247.00369     -5532.9441     -6286.1494     -20.879651     -0.00078122471  0.021         -0.0078122471 
    211000   238.27392     -5567.7497     -6294.3347      140.58198     -0.0070296484   0.0211        -0.070296484  
    212000   245.95721     -5474.9975     -6225.0117      63.623425     -0.011613695    0.0212        -0.11613695   
    213000   253.14118     -5492.4932     -6264.414      -729.078        0.073100816    0.0213         0.73100816   
    214000   236.98199     -5552.8688     -6275.5143     -176.38909      0.022460851    0.0214         0.22460851   
    215000   244.00713     -5596.2465     -6340.3142     -391.15626      0.042639747    0.0215         0.42639747   
    216000   248.52389     -5515.5115     -6273.3524      479.67258     -0.048427089    0.0216        -0.48427089   
    217000   243.50144     -5564.8532     -6307.3789      5.1559045      0.001021976    0.0217         0.01021976   
    218000   243.04065     -5561.9605     -6303.081      -329.82433      0.025277225    0.0218         0.25277225   
    219000   246.87337     -5581.5889     -6334.3968      716.04339     -0.058358143    0.0219        -0.58358143   
    220000   251.63195     -5566.9636     -6334.2821     -287.03541      0.02564684     0.022          0.2564684    
    221000   239.3887      -5588.9863     -6318.9707      106.2384      -0.0049275339   0.0221        -0.049275339  
    222000   247.47818     -5571.4295     -6326.0817      632.57742     -0.063308147    0.0222        -0.63308147   
    223000   248.92266     -5584.6552     -6343.7121     -652.04571      0.063974149    0.0223         0.63974149   
    224000   257.12499     -5565.931      -6349.9998     -291.91761      0.026397963    0.0224         0.26397963   
    225000   234.62222     -5608.8372     -6324.2869      395.02109     -0.036018613    0.0225        -0.36018613   
    226000   251.55355     -5570.5656     -6337.6451     -960.38986      0.091147108    0.0226         0.91147108   
    227000   245.63181     -5591.695      -6340.7169      280.18326     -0.023720362    0.0227        -0.23720362   
    228000   247.45594     -5558.3021     -6312.8865     -215.93011      0.028078283    0.0228         0.28078283   
    229000   253.15177     -5551.1798     -6323.1329      664.89188     -0.063252742    0.0229        -0.63252742   
    230000   253.2868      -5549.3339     -6321.6987     -514.80427      0.050041687    0.023          0.50041687   
    231000   240.33954     -5525.6188     -6258.5027     -563.30296      0.057122949    0.0231         0.57122949   
    232000   250.77527     -5538.2737     -6302.98       -216.75381      0.018504102    0.0232         0.18504102   
    233000   249.16625     -5507.0205     -6266.8203      461.58733     -0.03909793     0.0233        -0.3909793    
    234000   242.80323     -5506.2534     -6246.6499      108.73558     -0.014848443    0.0234        -0.14848443   
    235000   245.1744      -5515.7059     -6263.333       210.71429     -0.015053378    0.0235        -0.15053378   
    236000   256.5248      -5515.561      -6297.7997     -217.3008       0.014882377    0.0236         0.14882377   
    237000   245.59984     -5591.4899     -6340.4144      688.29404     -0.070478033    0.0237        -0.70478033   
    238000   246.9502      -5543.4357     -6296.4779      59.00731      -0.010643752    0.0238        -0.10643752   
    239000   240.55843     -5553.0663     -6286.6176     -47.420666      0.001045771    0.0239         0.01045771   
    240000   253.18017     -5551.5223     -6323.562       617.94659     -0.062429122    0.024         -0.62429122   
    241000   251.31883     -5499.3879     -6265.7516      69.933276     -0.012362996    0.0241        -0.12362996   
    242000   248.79787     -5493.9797     -6252.6562      200.91663     -0.028354064    0.0242        -0.28354064   
    243000   262.45453     -5518.3353     -6318.656       394.10739     -0.039469678    0.0243        -0.39469678   
    244000   248.88072     -5558.6599     -6317.589      -23.195342     -0.011142489    0.0244        -0.11142489   
    245000   233.30124     -5600.3033     -6311.7248     -376.12544      0.037567246    0.0245         0.37567246   
    246000   264.59045     -5434.4297     -6241.2635     -907.79194      0.085309558    0.0246         0.85309558   
    247000   237.13345     -5607.7894     -6330.8967      409.67627     -0.040235368    0.0247        -0.40235368   
    248000   252.99984     -5492.8393     -6264.3291     -501.18074      0.060938612    0.0248         0.60938612   
    249000   251.45148     -5535.7708     -6302.5391      210.76995     -0.020002751    0.0249        -0.20002751   
    250000   245.67755     -5553.8597     -6303.0211      59.385563     -0.011902449    0.025         -0.11902449   
    251000   244.04677     -5503.099      -6247.2875     -440.55443      0.049148888    0.0251         0.49148888   
    252000   252.28184     -5477.9936     -6247.2939     -298.36876      0.035561672    0.0252         0.35561672   
    253000   237.38424     -5575.2635     -6299.1356     -364.4023       0.03487101     0.0253         0.3487101    
    254000   251.78813     -5446.8141     -6214.6089     -115.52985      0.013206301    0.0254         0.13206301   
    255000   240.34157     -5540.2738     -6273.1638     -538.47276      0.049534248    0.0255         0.49534248   
    256000   252.17314     -5497.6088     -6266.5776     -214.22392      0.013477224    0.0256         0.13477224   
    257000   237.90596     -5544.2395     -6269.7025     -277.21759      0.038363028    0.0257         0.38363028   
    258000   258.26578     -5518.2717     -6305.8193     -362.82077      0.037278898    0.0258         0.37278898   
    259000   248.27906     -5517.0483     -6274.1427     -618.39964      0.058720743    0.0259         0.58720743   
    260000   249.22733     -5525.9537     -6285.9397      255.62703     -0.030677866    0.026         -0.30677866   
    261000   258.29685     -5499.899      -6287.5413      590.06159     -0.057463326    0.0261        -0.57463326   
    262000   248.63716     -5558.8472     -6317.0335      533.32867     -0.060302879    0.0262        -0.60302879   
    263000   251.79674     -5480.8349     -6248.656      -556.47706      0.061013389    0.0263         0.61013389   
    264000   250.94719     -5545.8472     -6311.0777     -1026.6022      0.095451045    0.0264         0.95451045   
    265000   247.23312     -5559.1492     -6313.0541     -372.08326      0.031136184    0.0265         0.31136184   
    266000   250.96072     -5518.0585     -6283.3302      8.7812529     -0.0066436434   0.0266        -0.066436434  
    267000   246.53645     -5566.1635     -6317.944      -936.49365      0.094473202    0.0267         0.94473202   
    268000   235.10406     -5566.675      -6283.594      -260.70011      0.031822728    0.0268         0.31822728   
    269000   245.33658     -5551.2655     -6299.3872     -429.60472      0.051782401    0.0269         0.51782401   
    270000   245.21319     -5556.5283     -6304.2738     -408.86081      0.043167532    0.027          0.43167532   
    271000   256.04633     -5569.8125     -6350.5922     -796.97109      0.076804849    0.0271         0.76804849   
    272000   249.06452     -5544.8497     -6304.3393     -563.21657      0.048625689    0.0272         0.48625689   
    273000   248.61444     -5588.9842     -6347.1013     -384.57569      0.044742751    0.0273         0.44742751   
    274000   252.85304     -5533.1051     -6304.1473      66.613476     -0.011766173    0.0274        -0.11766173   
    275000   242.27464     -5565.0231     -6303.8078     -950.5308       0.088582116    0.0275         0.88582116   
    276000   242.93958     -5549.614      -6290.4263      463.64199     -0.044669852    0.0276        -0.44669852   
    277000   241.97221     -5573.905      -6311.7675      314.1612      -0.027247581    0.0277        -0.27247581   
    278000   245.1439      -5541.9383     -6289.4724     -147.84553      0.0074109926   0.0278         0.074109926  
    279000   243.62137     -5547.4276     -6290.319      -663.29211      0.06957532     0.0279         0.6957532    
    280000   232.36941     -5609.0935     -6317.6735     -820.2561       0.080990564    0.028          0.80990564   
    281000   248.75532     -5498.5067     -6257.0534     -110.8766       0.0050056594   0.0281         0.050056594  
    282000   236.32515     -5556.285      -6276.9275     -730.97629      0.075017618    0.0282         0.75017618   
    283000   247.22394     -5509.1698     -6263.0468     -420.32684      0.036893575    0.0283         0.36893575   
    284000   246.97387     -5505.9475     -6259.0619      41.24586       0.0025630759   0.0284         0.025630759  
    285000   258.62826     -5443.134      -6231.787      -452.37081      0.046505881    0.0285         0.46505881   
    286000   233.43702     -5525.688      -6237.5236      194.43342     -0.020249984    0.0286        -0.20249984   
    287000   252.7605      -5444.953      -6215.7129     -258.07852      0.016978707    0.0287         0.16978707   
    288000   247.3977      -5517.6482     -6272.055      -756.02478      0.072360278    0.0288         0.72360278   
    289000   250.22065     -5517.8624     -6280.8775     -131.1783       0.011790397    0.0289         0.11790397   
    290000   239.97512     -5587.5873     -6319.3599     -173.10653      0.0049798979   0.029          0.049798979  
    291000   251.70529     -5540.9154     -6308.4576      308.60675     -0.038977909    0.0291        -0.38977909   
    292000   246.15057     -5513.6438     -6264.2476      18.707847     -0.011022767    0.0292        -0.11022767   
    293000   243.1832      -5522.4624     -6264.0176      116.09266     -0.016198781    0.0293        -0.16198781   
    294000   240.82217     -5561.137      -6295.4926      339.87463     -0.042806077    0.0294        -0.42806077   
    295000   251.04977     -5511.6409     -6277.1843     -463.0816       0.042639124    0.0295         0.42639124   
    296000   238.11706     -5510.4725     -6236.5792     -549.04486      0.054014848    0.0296         0.54014848   
    297000   242.37661     -5520.1306     -6259.2263     -265.23202      0.026605914    0.0297         0.26605914   
    298000   249.31689     -5520.6886     -6280.9477     -562.66886      0.054961798    0.0298         0.54961798   
    299000   243.24375     -5548.6462     -6290.386      -1129.5839      0.10837304     0.0299         1.0837304    
    300000   259.79316     -5517.9255     -6310.1306     -324.95693      0.02113131     0.03           0.2113131    
Loop time of 90.0843 on 56 procs for 100000 steps with 1536 atoms

Performance: 95.910 ns/day, 0.250 hours/ns, 1110.071 timesteps/s, 1.705 Matom-step/s
99.8% CPU use with 56 MPI tasks x no OpenMP threads

MPI task timing breakdown:
Section |  min time  |  avg time  |  max time  |%varavg| %total
---------------------------------------------------------------
Pair    | 21.938     | 24.994     | 27.515     |  23.1 | 27.75
Bond    | 0.010856   | 0.014286   | 0.021798   |   1.7 |  0.02
Kspace  | 35.002     | 37.511     | 40.439     |  18.4 | 41.64
Neigh   | 1.8499     | 1.8531     | 1.8552     |   0.1 |  2.06
Comm    | 9.7256     | 10.015     | 10.29      |   4.9 | 11.12
Output  | 0.076747   | 0.12044    | 0.15554    |   6.1 |  0.13
Modify  | 10.803     | 12.909     | 14.868     |  31.4 | 14.33
Other   |            | 2.667      |            |       |  2.96

Nlocal:        27.4286 ave          34 max          19 min
Histogram: 1 2 2 5 15 4 10 6 7 4
Nghost:        4036.79 ave        4104 max        3984 min
Histogram: 3 4 12 6 9 7 6 3 4 2
Neighs:        12009.6 ave       15068 max        8302 min
Histogram: 1 2 2 9 11 10 5 10 3 3

Total # of neighbors = 672540
Ave neighs/atom = 437.85156
Ave special neighs/atom = 2
Neighbor list builds = 1079
Dangerous builds = 0
kspace_style pppm/tip4p 1.0e-5
next nloop
jump SELF loop_start
run 100000 # 100ps
PPPM initialization ...
  extracting TIP4P info from pair style
  using 12-bit tables for long-range coulomb
  G vector (1/distance) = 0.3330125
  grid = 27 27 27
  stencil order = 5
  estimated absolute RMS force accuracy = 0.0026738011
  estimated relative force accuracy = 8.0520727e-06
  using double precision KISS FFT
  3d grid and FFT values/proc = 4576 432
Generated 0 of 1 mixed pair_coeff terms from geometric mixing rule
Per MPI rank memory allocation (min/avg/max) = 9.611 | 9.632 | 9.652 Mbytes
   Step          Temp          TotEng         PotEng          Pxy           v_sxy         v_strain     v_viscosity  
    300000   259.79317     -5517.9243     -6310.1295     -324.6875       0.021103898    0.03           0.21103898   
    301000   237.99745     -5547.5526     -6273.2946     -895.7126       0.079663996    0.0301         0.79663996   
    302000   253.99193     -5472.3747     -6246.8898      687.3403      -0.063332578    0.0302        -0.63332578   
    303000   247.39968     -5524.0243     -6278.4371     -219.5086       0.026195877    0.0303         0.26195877   
    304000   257.36153     -5471.5514     -6256.3416     -8.2999176     -0.003580649    0.0304        -0.03580649   
    305000   237.91839     -5552.0992     -6277.6001      360.46654     -0.0405166      0.0305        -0.405166     
    306000   242.96266     -5534.7506     -6275.6334     -283.56497      0.0233254      0.0306         0.233254     
    307000   243.13092     -5542.5933     -6283.9891     -712.90929      0.065474463    0.0307         0.65474463   
    308000   251.36767     -5489.6641     -6256.1767      586.17292     -0.056660928    0.0308        -0.56660928   
    309000   244.4477      -5543.8903     -6289.3014      389.31902     -0.02872083     0.0309        -0.2872083    
    310000   258.84643     -5473.5519     -6262.8701      838.7772      -0.090885044    0.031         -0.90885044   
    311000   248.35153     -5497.8096     -6255.125      -260.17454      0.021983453    0.0311         0.21983453   
    312000   254.21908     -5438.447      -6213.6547      789.89192     -0.075619313    0.0312        -0.75619313   
    313000   241.47294     -5518.4813     -6254.8213     -7.3022939     -0.0048948109   0.0313        -0.048948109  
    314000   242.43078     -5509.8821     -6249.1429      375.94822     -0.031507609    0.0314        -0.31507609   
    315000   250.91327     -5491.3431     -6256.4701      199.8177      -0.011592035    0.0315        -0.11592035   
    316000   255.44051     -5497.2827     -6276.215      -333.90799      0.034898275    0.0316         0.34898275   
    317000   232.41814     -5590.4804     -6299.209      -182.50011      0.010510091    0.0317         0.10510091   
    318000   248.02373     -5494.316      -6250.6318     -195.43501      0.021506144    0.0318         0.21506144   
    319000   243.91589     -5546.187      -6289.9765      1281.1303     -0.12548742     0.0319        -1.2548742    
    320000   244.00356     -5556.5172     -6300.5741      695.97297     -0.069000394    0.032         -0.69000394   
    321000   237.6159      -5555.0845     -6279.6629     -366.75158      0.039947337    0.0321         0.39947337   
    322000   246.15021     -5514.4808     -6265.0836      1181.2788     -0.12436531     0.0322        -1.2436531    
    323000   252.25767     -5511.1498     -6280.3765     -295.07136      0.023692727    0.0323         0.23692727   
    324000   252.29737     -5500.0506     -6269.3983     -255.19966      0.025145218    0.0324         0.25145218   
    325000   249.31783     -5531.7834     -6292.0453     -1219.9053      0.12667461     0.0325         1.2667461    
    326000   247.50024     -5525.5248     -6280.2443     -377.21428      0.044849869    0.0326         0.44849869   
    327000   249.60562     -5450.9294     -6212.069       153.94055     -0.0085586592   0.0327        -0.085586592  
    328000   242.93738     -5492.9564     -6233.7621      209.40159     -0.031607088    0.0328        -0.31607088   
    329000   240.41586     -5551.9976     -6285.1142      259.71909     -0.018561741    0.0329        -0.18561741   
    330000   254.88648     -5457.9596     -6235.2024     -81.834167      0.014270568    0.033          0.14270568   
    331000   240.49981     -5537.6669     -6271.0395      113.19261     -0.0058793843   0.0331        -0.058793843  
    332000   251.68038     -5461.4017     -6228.868       552.1498      -0.052271302    0.0332        -0.52271302   
    333000   244.03033     -5456.3302     -6200.4687     -439.01731      0.041346102    0.0333         0.41346102   
    334000   240.72609     -5533.7412     -6267.8039     -504.66953      0.056458334    0.0334         0.56458334   
    335000   248.44016     -5514.2579     -6271.8436      612.57303     -0.058181346    0.0335        -0.58181346   
    336000   253.77017     -5457.0526     -6230.8914     -210.6671       0.016935396    0.0336         0.16935396   
    337000   245.44111     -5513.8237     -6262.2641      311.38271     -0.033598304    0.0337        -0.33598304   
    338000   260.84197     -5451.2202     -6246.6235      286.84859     -0.034776624    0.0338        -0.34776624   
    339000   235.36321     -5571.9464     -6289.6556      552.14098     -0.056595648    0.0339        -0.56595648   
    340000   258.50422     -5439.4392     -6227.7139      663.74766     -0.053746931    0.034         -0.53746931   
    341000   254.13258     -5503.0183     -6277.9622      318.58382     -0.041549435    0.0341        -0.41549435   
    342000   252.65311     -5505.3809     -6275.8134     -363.81423      0.030748965    0.0342         0.30748965   
    343000   248.51318     -5519.4106     -6277.2189      603.62153     -0.047433243    0.0343        -0.47433243   
    344000   240.07457     -5533.6022     -6265.6781      1055.9505     -0.11040658     0.0344        -1.1040658    
    345000   251.32018     -5546.6551     -6313.023      -285.08382      0.026574355    0.0345         0.26574355   
    346000   250.79386     -5468.318      -6233.0809      156.4263      -0.0060822684   0.0346        -0.060822684  
    347000   240.07914     -5584.996      -6317.0858      169.24013     -0.021122621    0.0347        -0.21122621   
    348000   237.91531     -5521.4622     -6246.9537      118.12231     -0.014017261    0.0348        -0.14017261   
    349000   257.68276     -5519.956      -6305.7257      191.60019     -0.012524192    0.0349        -0.12524192   
    350000   250.12008     -5517.7475     -6280.4559     -607.89818      0.056296948    0.035          0.56296948   
    351000   243.59525     -5540.2968     -6283.1086      929.50704     -0.080878954    0.0351        -0.80878954   
    352000   248.05923     -5540.6488     -6297.0728     -159.08329      0.011597497    0.0352         0.11597497   
    353000   241.73845     -5546.2235     -6283.3732     -588.01211      0.064281982    0.0353         0.64281982   
    354000   246.33162     -5571.365      -6322.5209      201.73708     -0.015260841    0.0354        -0.15260841   
    355000   246.14711     -5545.8118     -6296.4051      806.07562     -0.073688636    0.0355        -0.73688636   
    356000   239.6933      -5507.8228     -6238.736       494.1766      -0.061061772    0.0356        -0.61061772   
    357000   245.72513     -5519.8813     -6269.1878     -83.623108      0.0084032782   0.0357         0.084032782  
    358000   247.4539      -5551.1293     -6305.7075      30.881132     -0.015742707    0.0358        -0.15742707   
    359000   259.96766     -5471.7582     -6264.4954      347.87085     -0.049015608    0.0359        -0.49015608   
    360000   236.66737     -5579.9865     -6301.6726     -56.951         0.0072664078   0.036          0.072664078  
    361000   248.17631     -5562.749      -6319.5301      200.17523     -0.032365686    0.0361        -0.32365686   
    362000   249.5243      -5507.2762     -6268.1678     -19.654219     -0.0033472426   0.0362        -0.033472426  
    363000   248.34679     -5514.9915     -6272.2924      642.24084     -0.060611696    0.0363        -0.60611696   
    364000   245.31038     -5556.1948     -6304.2365     -970.97248      0.10819705     0.0364         1.0819705    
    365000   252.26338     -5530.9003     -6300.1443     -542.72007      0.056111962    0.0365         0.56111962   
    366000   234.66977     -5569.2367     -6284.8313      561.21289     -0.063081475    0.0366        -0.63081475   
    367000   245.10469     -5568.8652     -6316.2797     -233.14737      0.0262934      0.0367         0.262934     
    368000   249.65855     -5525.3016     -6286.6025     -685.09688      0.074311575    0.0368         0.74311575   
    369000   249.57868     -5566.1641     -6327.2215      42.260088     -0.0021205433   0.0369        -0.021205433  
    370000   239.62181     -5530.903      -6261.5983     -228.76975      0.015694043    0.037          0.15694043   
    371000   236.15236     -5555.0996     -6275.2152      411.68133     -0.045693178    0.0371        -0.45693178   
    372000   248.25401     -5483.4447     -6240.4627      415.26724     -0.033366751    0.0372        -0.33366751   
    373000   246.41865     -5546.0684     -6297.4897     -634.56867      0.07311091     0.0373         0.7311091    
    374000   247.5021      -5505.8589     -6260.584       240.78683     -0.033261892    0.0374        -0.33261892   
    375000   249.8344      -5493.6856     -6255.5228     -236.04437      0.023509773    0.0375         0.23509773   
    376000   250.38842     -5536.6678     -6300.1944      354.88532     -0.044231667    0.0376        -0.44231667   
    377000   254.77767     -5547.3154     -6324.2265     -157.69207      0.023767276    0.0377         0.23767276   
    378000   251.03777     -5496.8309     -6262.3376      426.92235     -0.042029835    0.0378        -0.42029835   
    379000   246.73183     -5542.103      -6294.4793      726.18128     -0.068724687    0.0379        -0.68724687   
    380000   247.49826     -5518.5763     -6273.2898      854.78413     -0.091773338    0.038         -0.91773338   
    381000   241.11254     -5541.7679     -6277.0089      63.678976     -0.015273566    0.0381        -0.15273566   
    382000   248.10337     -5507.6146     -6264.1733      425.19199     -0.039873405    0.0382        -0.39873405   
    383000   245.31098     -5533.8778     -6281.9214      123.99304     -0.01140575     0.0383        -0.1140575    
    384000   243.51249     -5565.1818     -6307.7412      407.02287     -0.048932248    0.0384        -0.48932248   
    385000   246.94856     -5532.4218     -6285.459       322.94218     -0.038538306    0.0385        -0.38538306   
    386000   247.67318     -5537.6318     -6292.8787      342.7825      -0.040479369    0.0386        -0.40479369   
    387000   232.14367     -5605.2485     -6313.1401      669.97969     -0.077398823    0.0387        -0.77398823   
    388000   260.04916     -5484.5024     -6277.4881     -240.64647      0.033942059    0.0388         0.33942059   
    389000   239.36856     -5568.4935     -6298.4165     -495.35726      0.053430784    0.0389         0.53430784   
    390000   249.90687     -5509.4519     -6271.5101     -635.70127      0.072339745    0.039          0.72339745   
    391000   242.72075     -5491.3006     -6231.4456      188.93632     -0.021314635    0.0391        -0.21314635   
    392000   245.47135     -5570.8008     -6319.3334     -495.67142      0.04169847     0.0392         0.4169847    
    393000   247.21901     -5504.5277     -6258.3896     -9.1051953     -0.0095577037   0.0393        -0.095577037  
    394000   247.26782     -5514.2802     -6268.291      -159.1371       0.013391784    0.0394         0.13391784   
    395000   255.56        -5446.0115     -6225.3082      590.61233     -0.062357217    0.0395        -0.62357217   
    396000   243.53842     -5496.4381     -6239.0765     -132.81143      0.011353694    0.0396         0.11353694   
    397000   248.05323     -5481.2606     -6237.6663      212.38507     -0.023274314    0.0397        -0.23274314   
    398000   251.65503     -5507.4115     -6274.8005     -329.87062      0.037342479    0.0398         0.37342479   
    399000   247.77868     -5500.5085     -6256.0771     -310.46231      0.027563704    0.0399         0.27563704   
    400000   251.52101     -5457.476      -6224.4563      265.64664     -0.026001828    0.04          -0.26001828   
Loop time of 89.9633 on 56 procs for 100000 steps with 1536 atoms

Performance: 96.039 ns/day, 0.250 hours/ns, 1111.564 timesteps/s, 1.707 Matom-step/s
99.8% CPU use with 56 MPI tasks x no OpenMP threads

MPI task timing breakdown:
Section |  min time  |  avg time  |  max time  |%varavg| %total
---------------------------------------------------------------
Pair    | 21.836     | 24.859     | 27.628     |  23.3 | 27.63
Bond    | 0.010931   | 0.014385   | 0.022461   |   1.8 |  0.02
Kspace  | 34.949     | 37.614     | 40.534     |  18.0 | 41.81
Neigh   | 1.701      | 1.7036     | 1.7058     |   0.1 |  1.89
Comm    | 9.7124     | 10.028     | 10.369     |   5.0 | 11.15
Output  | 0.076604   | 0.12039    | 0.1555     |   6.1 |  0.13
Modify  | 10.823     | 12.921     | 14.889     |  31.4 | 14.36
Other   |            | 2.704      |            |       |  3.01

Nlocal:        27.4286 ave          34 max          21 min
Histogram: 3 3 3 12 9 6 11 4 3 2
Nghost:         4035.3 ave        4112 max        3972 min
Histogram: 2 3 10 11 10 3 6 7 3 1
Neighs:        12001.3 ave       14788 max        9102 min
Histogram: 3 3 3 8 12 7 6 6 6 2

Total # of neighbors = 672075
Ave neighs/atom = 437.54883
Ave special neighs/atom = 2
Neighbor list builds = 1105
Dangerous builds = 0
kspace_style pppm/tip4p 1.0e-5
next nloop
jump SELF loop_start
run 100000 # 100ps
PPPM initialization ...
  extracting TIP4P info from pair style
  using 12-bit tables for long-range coulomb
  G vector (1/distance) = 0.33268552
  grid = 27 27 27
  stencil order = 5
  estimated absolute RMS force accuracy = 0.0027276955
  estimated relative force accuracy = 8.214374e-06
  using double precision KISS FFT
  3d grid and FFT values/proc = 4576 432
Generated 0 of 1 mixed pair_coeff terms from geometric mixing rule
Per MPI rank memory allocation (min/avg/max) = 9.612 | 9.632 | 9.652 Mbytes
   Step          Temp          TotEng         PotEng          Pxy           v_sxy         v_strain     v_viscosity  
    400000   251.52101     -5457.4756     -6224.4559      265.86838     -0.026024296    0.04          -0.26024296   
    401000   244.36401     -5500.504      -6245.66        164.53561     -0.013317673    0.0401        -0.13317673   
    402000   247.80051     -5508.5017     -6264.1368     -190.514        0.026370961    0.0402         0.26370961   
    403000   247.56485     -5483.5467     -6238.4632      713.27254     -0.075534842    0.0403        -0.75534842   
    404000   242.22125     -5512.8232     -6251.4451     -448.81125      0.038132099    0.0404         0.38132099   
    405000   244.62189     -5430.1002     -6176.0425     -321.53554      0.035107728    0.0405         0.35107728   
    406000   249.96935     -5447.5588     -6209.8075     -267.5574       0.022639612    0.0406         0.22639612   
    407000   235.55579     -5528.02       -6246.3165      341.55158     -0.030132898    0.0407        -0.30132898   
    408000   244.74203     -5532.999      -6279.3077      1006.8908     -0.087793528    0.0408        -0.87793528   
    409000   251.39967     -5494.8138     -6261.4241      158.43136     -0.0096958023   0.0409        -0.096958023  
    410000   245.31244     -5563.2813     -6311.3293      920.24841     -0.083894814    0.041         -0.83894814   
    411000   253.15843     -5491.9196     -6263.893       416.59379     -0.045039221    0.0411        -0.45039221   
    412000   240.02159     -5516.388      -6248.3024     -356.17757      0.026768942    0.0412         0.26768942   
    413000   242.15068     -5489.7874     -6228.1941      166.08612     -0.017728179    0.0413        -0.17728179   
    414000   242.13128     -5502.8508     -6241.1984      354.44913     -0.043469978    0.0414        -0.43469978   
    415000   244.299       -5445.816      -6190.7737     -330.7773       0.027369883    0.0415         0.27369883   
    416000   241.60527     -5480.3705     -6217.114      -378.6275       0.037430938    0.0416         0.37430938   
    417000   243.15372     -5553.292      -6294.7573      387.80939     -0.039633784    0.0417        -0.39633784   
    418000   240.03019     -5513.6413     -6245.5818      889.28528     -0.08965618     0.0418        -0.8965618    
    419000   250.9483      -5546.2984     -6311.5323      709.96667     -0.0690188      0.0419        -0.690188     
    420000   252.16549     -5489.4932     -6258.4387      1734.1126     -0.16025239     0.042         -1.6025239    
    421000   247.23626     -5549.9023     -6303.8168     -79.20389       0.02164629     0.0421         0.2164629    
    422000   255.91997     -5474.0904     -6254.4847      316.56353     -0.040188019    0.0422        -0.40188019   
    423000   240.44276     -5514.6076     -6247.8063     -255.98105      0.020403682    0.0423         0.20403682   
    424000   245.63131     -5538.476      -6287.4964     -170.61429      0.026098877    0.0424         0.26098877   
    425000   248.53683     -5498.0909     -6255.9713     -146.31748      0.019008554    0.0425         0.19008554   
    426000   241.1258      -5506.7857     -6242.0672      449.34071     -0.045207014    0.0426        -0.45207014   
    427000   232.12703     -5579.604      -6287.4449     -159.38458      0.022400975    0.0427         0.22400975   
    428000   246.67589     -5488.0095     -6240.2153     -123.50089      0.010912861    0.0428         0.10912861   
    429000   246.43782     -5564.2194     -6315.6992     -233.78714      0.017587626    0.0429         0.17587626   
    430000   248.45577     -5544.7028     -6302.3361     -963.89721      0.091262428    0.043          0.91262428   
    431000   260.49833     -5502.0113     -6296.3668     -311.90995      0.034941526    0.0431         0.34941526   
    432000   244.98103     -5535.1395     -6282.177       456.11504     -0.046789142    0.0432        -0.46789142   
    433000   241.82967     -5577.0077     -6314.4355     -757.73343      0.059658901    0.0433         0.59658901   
    434000   250.53397     -5579.1867     -6343.1572     -260.33433      0.036977835    0.0434         0.36977835   
    435000   261.09557     -5491.8254     -6288.002      -215.15315      0.025832992    0.0435         0.25832992   
    436000   239.19848     -5590.8613     -6320.2657      369.02355     -0.039089344    0.0436        -0.39089344   
    437000   250.32642     -5533.2684     -6296.6059     -14.996363      0.0047632166   0.0437         0.047632166  
    438000   247.26251     -5532.1928     -6286.1873      1138.0082     -0.10102497     0.0438        -1.0102497    
    439000   246.59668     -5575.691      -6327.6552     -53.617336      0.011909908    0.0439         0.11909908   
    440000   263.52598     -5489.7941     -6293.382       386.0315      -0.047298628    0.044         -0.47298628   
    441000   247.58812     -5585.2216     -6340.2091      468.9032      -0.051415352    0.0441        -0.51415352   
    442000   248.27839     -5571.6382     -6328.7305      261.98007     -0.014276394    0.0442        -0.14276394   
    443000   249.30062     -5539.9183     -6300.1278     -281.32061      0.020149795    0.0443         0.20149795   
    444000   247.34104     -5529.2514     -6283.4854      678.59006     -0.067926414    0.0444        -0.67926414   
    445000   246.16528     -5529.655      -6280.3037      276.75942     -0.024561542    0.0445        -0.24561542   
    446000   254.0685      -5497.179      -6271.9275     -93.683344      0.0053543439   0.0446         0.053543439  
    447000   246.39657     -5551.914      -6303.268      -489.81038      0.045425291    0.0447         0.45425291   
    448000   235.17353     -5545.0008     -6262.1316     -796.62472      0.075390794    0.0448         0.75390794   
    449000   235.98813     -5524.5747     -6244.1896     -285.9843       0.031421487    0.0449         0.31421487   
    450000   247.8142      -5468.7861     -6224.463       324.40205     -0.034714066    0.045         -0.34714066   
    451000   233.25488     -5579.313      -6290.5932      135.44128     -0.01108962     0.0451        -0.1108962    
    452000   245.94391     -5512.9551     -6262.9287     -199.63108      0.025971168    0.0452         0.25971168   
    453000   239.08698     -5516.7164     -6245.7807      1230.6098     -0.13188809     0.0453        -1.3188809    
    454000   241.68691     -5527.2894     -6264.2819      1142.9897     -0.11572321     0.0454        -1.1572321    
    455000   246.77297     -5602.6648     -6355.1666      1058.0671     -0.1026242      0.0455        -1.026242     
    456000   253.75312     -5502.813      -6276.5998      605.63517     -0.056774573    0.0456        -0.56774573   
    457000   249.91597     -5542.4564     -6304.5423      600.82336     -0.056937107    0.0457        -0.56937107   
    458000   240.58119     -5550.6439     -6284.2646      657.91861     -0.06593115     0.0458        -0.6593115    
    459000   232.94159     -5585.7734     -6296.0982     -877.3101       0.091067203    0.0459         0.91067203   
    460000   247.24072     -5524.6049     -6278.533       507.26623     -0.059003611    0.046         -0.59003611   
    461000   240.41246     -5534.8751     -6267.9813      418.85232     -0.042052964    0.0461        -0.42052964   
    462000   243.75503     -5511.9888     -6255.2878      565.87987     -0.054081145    0.0462        -0.54081145   
    463000   243.44095     -5500.921      -6243.2622      1210.8954     -0.1291536      0.0463        -1.291536     
    464000   244.47825     -5482.4956     -6227.9999      841.76184     -0.080423011    0.0464        -0.80423011   
    465000   248.38633     -5539.8156     -6297.2371      260.94643     -0.028931881    0.0465        -0.28931881   
    466000   254.56951     -5501.1543     -6277.4306      126.03529     -0.016765421    0.0466        -0.16765421   
    467000   253.33696     -5471.4614     -6243.9792      16.847348     -0.0077821647   0.0467        -0.077821647  
    468000   251.37724     -5478.344      -6244.8859     -224.29155      0.018994561    0.0468         0.18994561   
    469000   242.95713     -5534.6555     -6275.5213      608.88032     -0.063843661    0.0469        -0.63843661   
    470000   253.87472     -5495.8236     -6269.9812     -80.768615      0.01035752     0.047          0.1035752    
    471000   234.31744     -5529.961      -6244.4813      135.76        -0.010665672    0.0471        -0.10665672   
    472000   249.68376     -5493.1014     -6254.4792      8.4670661     -0.0087468334   0.0472        -0.087468334  
    473000   245.49876     -5540.2626     -6288.8788     -608.52142      0.060585405    0.0473         0.60585405   
    474000   253.4127      -5520.5777     -6293.3265     -825.06508      0.06962002     0.0474         0.6962002    
    475000   248.57856     -5539.5013     -6297.5089     -48.335652     -0.0042970061   0.0475        -0.042970061  
    476000   245.88904     -5541.6925     -6291.4989      587.60151     -0.064143093    0.0476        -0.64143093   
    477000   246.23112     -5536.4214     -6287.2709      289.05248     -0.020784644    0.0477        -0.20784644   
    478000   247.16191     -5502.0167     -6255.7045      187.21355     -0.019771722    0.0478        -0.19771722   
    479000   248.01089     -5477.9752     -6234.2518     -153.71753      0.022257946    0.0479         0.22257946   
    480000   240.91864     -5536.721      -6271.3707      154.63641     -0.017541858    0.048         -0.17541858   
    481000   232.93813     -5565.8688     -6276.183      -727.24472      0.075940976    0.0481         0.75940976   
    482000   251.48281     -5482.7111     -6249.5749      260.88566     -0.025128458    0.0482        -0.25128458   
    483000   239.25602     -5567.4152     -6296.995      -413.71505      0.040295515    0.0483         0.40295515   
    484000   242.765       -5495.9968     -6236.2768      118.75927     -0.0030101455   0.0484        -0.030101455  
    485000   245.09537     -5527.7845     -6275.1706      260.1682      -0.019688678    0.0485        -0.19688678   
    486000   256.17021     -5511.0999     -6292.2574     -297.1015       0.028872612    0.0486         0.28872612   
    487000   243.25126     -5494.1579     -6235.9207     -304.41579      0.028625231    0.0487         0.28625231   
    488000   247.91892     -5520.1334     -6276.1296     -665.05914      0.066560826    0.0488         0.66560826   
    489000   237.61935     -5593.2708     -6317.8598     -279.85679      0.026798386    0.0489         0.26798386   
    490000   241.39197     -5507.1092     -6243.2024      631.19098     -0.058103442    0.049         -0.58103442   
    491000   249.66668     -5557.3588     -6318.6846     -258.5437       0.018617132    0.0491         0.18617132   
    492000   238.57695     -5577.0938     -6304.6028     -732.41888      0.066912991    0.0492         0.66912991   
    493000   251.95405     -5575.5632     -6343.864      -189.14593      0.018089277    0.0493         0.18089277   
    494000   249.36591     -5587.2393     -6347.6479     -168.93618      0.024248872    0.0494         0.24248872   
    495000   242.06197     -5531.724      -6269.8602      854.9354      -0.085591115    0.0495        -0.85591115   
    496000   244.10516     -5584.2121     -6328.5787      179.12938     -0.004808111    0.0496        -0.04808111   
    497000   244.48116     -5599.3591     -6344.8723      422.53851     -0.041835161    0.0497        -0.41835161   
    498000   250.58276     -5519.9662     -6284.0854     -372.21932      0.044387676    0.0498         0.44387676   
    499000   248.00966     -5530.7826     -6287.0555     -15.476852      0.0014219472   0.0499         0.014219472  
    500000   245.30103     -5589.5452     -6337.5585      460.89126     -0.046686352    0.05          -0.46686352   
Loop time of 89.6541 on 56 procs for 100000 steps with 1536 atoms

Performance: 96.370 ns/day, 0.249 hours/ns, 1115.398 timesteps/s, 1.713 Matom-step/s
99.8% CPU use with 56 MPI tasks x no OpenMP threads

MPI task timing breakdown:
Section |  min time  |  avg time  |  max time  |%varavg| %total
---------------------------------------------------------------
Pair    | 22.466     | 24.787     | 26.48      |  19.3 | 27.65
Bond    | 0.010572   | 0.014295   | 0.021195   |   1.8 |  0.02
Kspace  | 35.747     | 37.357     | 39.427     |  15.1 | 41.67
Neigh   | 1.7166     | 1.7197     | 1.7214     |   0.1 |  1.92
Comm    | 9.7648     | 10.045     | 10.385     |   4.9 | 11.20
Output  | 0.076411   | 0.11995    | 0.15492    |   6.1 |  0.13
Modify  | 10.793     | 12.913     | 14.849     |  31.3 | 14.40
Other   |            | 2.698      |            |       |  3.01

Nlocal:        27.4286 ave          34 max          20 min
Histogram: 2 1 4 4 8 19 6 9 1 2
Nghost:        4017.59 ave        4115 max        3886 min
Histogram: 2 3 6 6 10 2 3 8 9 7
Neighs:        12016.1 ave       15216 max        8702 min
Histogram: 2 1 4 6 11 14 12 3 2 1

Total # of neighbors = 672903
Ave neighs/atom = 438.08789
Ave special neighs/atom = 2
Neighbor list builds = 1120
Dangerous builds = 0
kspace_style pppm/tip4p 1.0e-5
next nloop
jump SELF loop_start
run 100000 # 100ps
PPPM initialization ...
  extracting TIP4P info from pair style
  using 12-bit tables for long-range coulomb
  G vector (1/distance) = 0.33232994
  grid = 27 27 27
  stencil order = 5
  estimated absolute RMS force accuracy = 0.0027873725
  estimated relative force accuracy = 8.3940895e-06
  using double precision KISS FFT
  3d grid and FFT values/proc = 4576 432
Generated 0 of 1 mixed pair_coeff terms from geometric mixing rule
Per MPI rank memory allocation (min/avg/max) = 9.612 | 9.632 | 9.652 Mbytes
   Step          Temp          TotEng         PotEng          Pxy           v_sxy         v_strain     v_viscosity  
    500000   245.3009      -5589.5455     -6337.5584      461.06486     -0.046704039    0.05          -0.46704039   
    501000   251.77345     -5564.9913     -6332.7413      272.6955      -0.037813647    0.0501        -0.37813647   
    502000   238.69114     -5553.5935     -6281.4508      228.39464     -0.021971324    0.0502        -0.21971324   
    503000   243.25728     -5604.3476     -6346.1288     -3.1171681     -0.0033278812   0.0503        -0.033278812  
    504000   256.77473     -5508.5944     -6291.5952      434.48685     -0.038348091    0.0504        -0.38348091   
    505000   249.58259     -5563.5915     -6324.6608      71.264814     -0.010085691    0.0505        -0.10085691   
    506000   242.90308     -5570.1933     -6310.8943      345.75299     -0.03058714     0.0506        -0.3058714    
    507000   249.10655     -5519.5041     -6279.1219     -53.215606      0.0023127631   0.0507         0.023127631  
    508000   242.99895     -5549.7713     -6290.7647      584.86761     -0.062260289    0.0508        -0.62260289   
    509000   248.43825     -5524.4763     -6282.0562     -58.026571      0.024950349    0.0509         0.24950349   
    510000   229.98675     -5584.3864     -6285.7008      53.981282     -0.0045800847   0.051         -0.045800847  
    511000   253.87709     -5517.1303     -6291.2951      908.50728     -0.087034466    0.0511        -0.87034466   
    512000   237.42499     -5578.4023     -6302.3987      552.29263     -0.052809239    0.0512        -0.52809239   
    513000   240.27846     -5563.4754     -6296.173      -357.88238      0.035819598    0.0513         0.35819598   
    514000   250.44754     -5548.943      -6312.6499      489.88091     -0.048277497    0.0514        -0.48277497   
    515000   247.76301     -5523.8116     -6279.3324     -251.844        0.029553178    0.0515         0.29553178   
    516000   233.8398      -5572.3104     -6285.3741      142.44259     -0.0091486624   0.0516        -0.091486624  
    517000   250.2735      -5509.2212     -6272.3974     -339.67191      0.030991336    0.0517         0.30991336   
    518000   245.94384     -5523.2219     -6273.1954      498.94146     -0.059703755    0.0518        -0.59703755   
    519000   243.90568     -5530.4781     -6274.2364     -135.28904      0.028233831    0.0519         0.28233831   
    520000   236.81832     -5521.0794     -6243.2258      256.42555     -0.027273069    0.052         -0.27273069   
    521000   243.84899     -5520.7446     -6264.3301     -342.56213      0.033072729    0.0521         0.33072729   
    522000   245.23255     -5534.8716     -6282.6761     -285.64773      0.023695504    0.0522         0.23695504   
    523000   248.14329     -5528.3386     -6285.019       921.98714     -0.098911909    0.0523        -0.98911909   
    524000   247.92123     -5559.5483     -6315.5515      68.987395     -0.00065394008  0.0524        -0.0065394008 
    525000   243.64688     -5592.9825     -6335.9517      185.22562     -0.014369377    0.0525        -0.14369377   
    526000   238.15145     -5575.309      -6301.5206     -472.8706       0.033584027    0.0526         0.33584027   
    527000   256.45889     -5503.9019     -6285.9396      113.07135     -0.0058747985   0.0527        -0.058747985  
    528000   237.85115     -5612.3873     -6337.6831     -836.74499      0.080199237    0.0528         0.80199237   
    529000   253.8708      -5504.7443     -6278.89       -595.56468      0.057260722    0.0529         0.57260722   
    530000   239.60811     -5595.1233     -6325.7768     -1088.2451      0.10856792     0.053          1.0856792    
    531000   248.61209     -5572.9173     -6331.0272     -344.58033      0.042709571    0.0531         0.42709571   
    532000   240.23361     -5569.7557     -6302.3165     -267.10508      0.026931487    0.0532         0.26931487   
    533000   256.53863     -5534.0622     -6316.343       4.8604624      0.0032164518   0.0533         0.032164518  
    534000   240.81262     -5530.1997     -6264.5261     -621.8965       0.0617205      0.0534         0.617205     
    535000   241.57275     -5543.8133     -6280.4576     -847.79258      0.080317535    0.0535         0.80317535   
    536000   255.48903     -5490.2624     -6269.3426     -309.29089      0.02683799     0.0536         0.2683799    
    537000   246.00725     -5529.6299     -6279.7967     -692.35391      0.067588497    0.0537         0.67588497   
    538000   252.87926     -5567.5313     -6338.6534      245.9021      -0.037385243    0.0538        -0.37385243   
    539000   248.66538     -5501.8643     -6260.1368      263.94657     -0.026498414    0.0539        -0.26498414   
    540000   245.92585     -5497.259      -6247.1776      391.3736      -0.036561855    0.054         -0.36561855   
    541000   241.82109     -5552.5328     -6289.9345      197.59032     -0.019232933    0.0541        -0.19232933   
    542000   249.99355     -5503.1526     -6265.4751      378.94345     -0.035813062    0.0542        -0.35813062   
    543000   254.26717     -5497.4511     -6272.8055      361.18269     -0.042112039    0.0543        -0.42112039   
    544000   238.19144     -5556.79       -6283.1235     -293.37127      0.018678396    0.0544         0.18678396   
    545000   252.25479     -5550.0187     -6319.2365      413.10038     -0.050056103    0.0545        -0.50056103   
    546000   253.74794     -5496.2753     -6270.0464     -153.57695      0.008083433    0.0546         0.08083433   
    547000   242.05467     -5561.3859     -6299.4999      178.04147     -0.013534682    0.0547        -0.13534682   
    548000   239.68981     -5541.009      -6271.9116     -116.13902      0.010149477    0.0548         0.10149477   
    549000   245.24759     -5520.8905     -6268.7409     -788.23165      0.077177083    0.0549         0.77177083   
    550000   245.54823     -5569.1498     -6317.9168     -642.27263      0.061619143    0.055          0.61619143   
    551000   244.04433     -5524.812      -6268.9931     -353.40475      0.030261444    0.0551         0.30261444   
    552000   237.52154     -5597.3348     -6321.6256     -219.65132      0.023654515    0.0552         0.23654515   
    553000   244.45664     -5535.165      -6280.6034      785.74131     -0.073603342    0.0553        -0.73603342   
    554000   237.57247     -5622.2431     -6346.6892     -332.55923      0.033174394    0.0554         0.33174394   
    555000   250.56421     -5506.1442     -6270.2069     -234.65501      0.015854124    0.0555         0.15854124   
    556000   241.14758     -5591.7482     -6327.0961     -177.26249      0.01840129     0.0556         0.1840129    
    557000   242.16759     -5562.2265     -6300.6847      236.06119     -0.014180597    0.0557        -0.14180597   
    558000   242.15416     -5565.8509     -6304.2682      147.62332     -0.013387903    0.0558        -0.13387903   
    559000   240.43958     -5562.5336     -6295.7225     -861.07646      0.090563333    0.0559         0.90563333   
    560000   244.74393     -5570.5236     -6316.838       146.68063     -0.0064323733   0.056         -0.064323733  
    561000   245.97389     -5508.6277     -6258.6928     -105.4417       0.011973454    0.0561         0.11973454   
    562000   256.57242     -5538.8743     -6321.2582     -748.73819      0.0781348      0.0562         0.781348     
    563000   231.95998     -5633.023      -6340.3545      602.47429     -0.066080678    0.0563        -0.66080678   
    564000   246.76358     -5590.7928     -6343.266      -657.18083      0.060339912    0.0564         0.60339912   
    565000   242.39436     -5593.2799     -6332.4297      108.24335     -0.0095376171   0.0565        -0.095376171  
    566000   246.02189     -5579.4403     -6329.6517      324.26594     -0.036882264    0.0566        -0.36882264   
    567000   250.59196     -5511.0658     -6275.2131      284.86366     -0.026081513    0.0567        -0.26081513   
    568000   243.87885     -5562.7473     -6306.4238     -483.18723      0.050998468    0.0568         0.50998468   
    569000   232.81861     -5582.3478     -6292.2976      992.64832     -0.10330608     0.0569        -1.0330608    
    570000   250.67092     -5476.9761     -6241.3642     -444.2403       0.043077769    0.057          0.43077769   
    571000   247.525       -5507.4141     -6262.2091      657.3038      -0.060437252    0.0571        -0.60437252   
    572000   231.92659     -5645.35       -6352.5797      420.38867     -0.040314058    0.0572        -0.40314058   
    573000   255.46383     -5493.6101     -6272.6135     -661.15973      0.067416559    0.0573         0.67416559   
    574000   243.86313     -5578.8385     -6322.4671      427.9487      -0.041802257    0.0574        -0.41802257   
    575000   246.95942     -5508.086      -6261.1563     -180.36625      0.0048805535   0.0575         0.048805535  
    576000   248.21261     -5516.8032     -6273.6949      5.1590419     -0.0012641758   0.0576        -0.012641758  
    577000   244.28386     -5537.2043     -6282.1158     -428.63409      0.047158871    0.0577         0.47158871   
    578000   238.81631     -5491.8638     -6220.1028      296.59962     -0.02935215     0.0578        -0.2935215    
    579000   248.62809     -5503.1345     -6261.2932      408.09294     -0.039633724    0.0579        -0.39633724   
    580000   238.83696     -5600.2938     -6328.5958      922.68678     -0.10416534     0.058         -1.0416534    
    581000   253.15016     -5520.1702     -6292.1183      919.81793     -0.092354336    0.0581        -0.92354336   
    582000   249.31346     -5556.1261     -6316.3748     -601.05159      0.066865171    0.0582         0.66865171   
    583000   250.32537     -5545.4012     -6308.7355      528.97135     -0.042694745    0.0583        -0.42694745   
    584000   242.62        -5576.0935     -6315.9314      48.353803      0.0028833626   0.0584         0.028833626  
    585000   254.60857     -5461.7056     -6238.1011      129.82307     -0.017052766    0.0585        -0.17052766   
    586000   238.98972     -5535.5747     -6264.3425     -574.29102      0.053532134    0.0586         0.53532134   
    587000   251.73683     -5507.9277     -6275.5661     -631.39117      0.064953468    0.0587         0.64953468   
    588000   250.72015     -5558.6542     -6323.1923      73.309392     -0.013620391    0.0588        -0.13620391   
    589000   250.06679     -5482.863      -6245.4088     -28.092017     -0.0026936308   0.0589        -0.026936308  
    590000   250.15329     -5524.6957     -6287.5054     -707.65501      0.067033609    0.059          0.67033609   
    591000   242.53423     -5548.1314     -6287.7077      111.38158     -0.001322436    0.0591        -0.01322436   
    592000   244.51774     -5572.0677     -6317.6924      153.21965     -0.022495934    0.0592        -0.22495934   
    593000   242.78588     -5600.3214     -6340.665      -251.31593      0.015988732    0.0593         0.15988732   
    594000   242.01794     -5595.0946     -6333.0965     -433.18841      0.047435001    0.0594         0.47435001   
    595000   246.1962      -5571.2764     -6322.0194      584.46224     -0.05714377     0.0595        -0.5714377    
    596000   250.09402     -5588.97       -6351.5989     -63.256526      0.013681388    0.0596         0.13681388   
    597000   246.30796     -5610.5096     -6361.5934     -501.14078      0.055685939    0.0597         0.55685939   
    598000   242.8125      -5603.4582     -6343.883      -56.239039      0.0064697243   0.0598         0.064697243  
    599000   241.59003     -5579.674      -6316.371       402.81708     -0.050728943    0.0599        -0.50728943   
    600000   252.8078      -5574.2628     -6345.167      -547.04029      0.063615909    0.06           0.63615909   
Loop time of 89.4339 on 56 procs for 100000 steps with 1536 atoms

Performance: 96.608 ns/day, 0.248 hours/ns, 1118.144 timesteps/s, 1.717 Matom-step/s
99.8% CPU use with 56 MPI tasks x no OpenMP threads

MPI task timing breakdown:
Section |  min time  |  avg time  |  max time  |%varavg| %total
---------------------------------------------------------------
Pair    | 22.023     | 24.718     | 27.373     |  20.8 | 27.64
Bond    | 0.010205   | 0.014286   | 0.02191    |   1.8 |  0.02
Kspace  | 34.963     | 37.284     | 39.886     |  16.4 | 41.69
Neigh   | 1.6829     | 1.6849     | 1.6865     |   0.1 |  1.88
Comm    | 9.6931     | 10.018     | 10.374     |   4.9 | 11.20
Output  | 0.076406   | 0.12001    | 0.15493    |   6.1 |  0.13
Modify  | 10.779     | 12.896     | 14.856     |  31.4 | 14.42
Other   |            | 2.698      |            |       |  3.02

Nlocal:        27.4286 ave          36 max          18 min
Histogram: 1 2 6 4 6 14 14 7 1 1
Nghost:        4043.88 ave        4162 max        3969 min
Histogram: 3 9 8 13 9 2 8 1 2 1
Neighs:        12015.6 ave       15886 max        7801 min
Histogram: 1 2 6 3 11 13 12 6 1 1

Total # of neighbors = 672875
Ave neighs/atom = 438.06966
Ave special neighs/atom = 2
Neighbor list builds = 1097
Dangerous builds = 0
kspace_style pppm/tip4p 1.0e-5
next nloop
jump SELF loop_start
run 100000 # 100ps
PPPM initialization ...
  extracting TIP4P info from pair style
  using 12-bit tables for long-range coulomb
  G vector (1/distance) = 0.33194436
  grid = 27 27 27
  stencil order = 5
  estimated absolute RMS force accuracy = 0.0028533712
  estimated relative force accuracy = 8.5928426e-06
  using double precision KISS FFT
  3d grid and FFT values/proc = 4576 432
Generated 0 of 1 mixed pair_coeff terms from geometric mixing rule
Per MPI rank memory allocation (min/avg/max) = 9.737 | 9.757 | 9.777 Mbytes
   Step          Temp          TotEng         PotEng          Pxy           v_sxy         v_strain     v_viscosity  
    600000   252.80778     -5574.2632     -6345.1674     -546.90316      0.063601244    0.06           0.63601244   
    601000   240.13819     -5568.1718     -6300.4417     -544.2382       0.056568174    0.0601         0.56568174   
    602000   235.85836     -5634.1537     -6353.3728     -830.94605      0.082747107    0.0602         0.82747107   
    603000   254.20843     -5562.232      -6337.4072     -601.3774       0.05298926     0.0603         0.5298926    
    604000   244.43046     -5629.9131     -6375.2717     -602.29696      0.063447333    0.0604         0.63447333   
    605000   260.08536     -5539.3956     -6332.4918     -812.5785       0.087188583    0.0605         0.87188583   
    606000   245.39784     -5600.2039     -6348.5124      23.007701     -0.0076150216   0.0606        -0.076150216  
    607000   240.49292     -5630.5635     -6363.9151     -382.10857      0.047226492    0.0607         0.47226492   
    608000   247.64135     -5592.1646     -6347.3144      140.67252     -0.012983289    0.0608        -0.12983289   
    609000   247.46883     -5621.9196     -6376.5433     -344.0036       0.040506759    0.0609         0.40506759   
    610000   250.04089     -5568.2372     -6330.7041     -507.06213      0.045936835    0.061          0.45936835   
    611000   248.00197     -5603.2932     -6359.5426      533.89665     -0.05512713     0.0611        -0.5512713    
    612000   245.18838     -5605.9771     -6353.6469     -670.96337      0.067482321    0.0612         0.67482321   
    613000   237.94524     -5582.4927     -6308.0754     -599.75518      0.067349859    0.0613         0.67349859   
    614000   242.64929     -5576.4268     -6316.3539      850.27905     -0.088169118    0.0614        -0.88169118   
    615000   250.37171     -5585.8415     -6349.3172     -444.03226      0.044966259    0.0615         0.44966259   
    616000   249.18955     -5560.4631     -6320.3339     -385.67101      0.045658564    0.0616         0.45658564   
    617000   246.89107     -5540.1435     -6293.0054      395.63952     -0.036724356    0.0617        -0.36724356   
    618000   258.10942     -5582.3285     -6369.3993      247.95522     -0.018363592    0.0618        -0.18363592   
    619000   249.11582     -5524.8807     -6284.5266      91.800508     -0.011584937    0.0619        -0.11584937   
    620000   240.63439     -5603.4898     -6337.2727      317.44521     -0.027943821    0.062         -0.27943821   
    621000   249.74106     -5590.5102     -6352.0628      513.31254     -0.046996622    0.0621        -0.46996622   
    622000   242.53031     -5591.0429     -6330.6073     -775.7019       0.07968148     0.0622         0.7968148    
    623000   253.07883     -5547.0795     -6318.8101      13.975064     -0.00072996325  0.0623        -0.0072996325 
    624000   244.59466     -5578.7401     -6324.5994     -600.85385      0.06076348     0.0624         0.6076348    
    625000   241.13323     -5580.7192     -6316.0234     -144.27167      0.013033997    0.0625         0.13033997   
    626000   234.26406     -5615.5193     -6329.8768     -1243.7623      0.12607121     0.0626         1.2607121    
    627000   246.98995     -5592.6124     -6345.7758      72.123897     -0.016512599    0.0627        -0.16512599   
    628000   258.03479     -5472.7638     -6259.607      -627.7705       0.066485747    0.0628         0.66485747   
    629000   236.2608      -5605.7308     -6326.1771     -180.29008      0.010079406    0.0629         0.10079406   
    630000   249.94367     -5481.3372     -6243.5076     -565.83314      0.055545495    0.063          0.55545495   
    631000   252.55991     -5558.2929     -6328.4412     -1044.0655      0.1014662      0.0631         1.014662     
    632000   244.98579     -5561.7416     -6308.7936     -521.37441      0.051967284    0.0632         0.51967284   
    633000   242.42429     -5566.5241     -6305.7652      60.670875      0.004653612    0.0633         0.04653612   
    634000   257.80069     -5567.9504     -6354.0797     -704.22806      0.070820452    0.0634         0.70820452   
    635000   251.66718     -5549.9033     -6317.3293     -182.06055      0.014328063    0.0635         0.14328063   
    636000   245.44119     -5584.5966     -6333.0373      246.84361     -0.024374405    0.0636        -0.24374405   
    637000   247.11411     -5539.4621     -6293.0041      69.730255      0.0018808551   0.0637         0.018808551  
    638000   234.47823     -5613.1076     -6328.1182     -112.85647      0.0050374988   0.0638         0.050374988  
    639000   239.38891     -5617.6088     -6347.5939      49.162214     -0.0042235215   0.0639        -0.042235215  
    640000   248.241       -5528.4638     -6285.4421      115.02935     -0.007224153    0.064         -0.07224153   
    641000   241.06654     -5577.606      -6312.7067      344.77389     -0.03306065     0.0641        -0.3306065    
    642000   247.45825     -5498.3415     -6252.9329     -562.87407      0.04380711     0.0642         0.4380711    
    643000   243.49189     -5559.9382     -6302.4347     -607.149        0.059831565    0.0643         0.59831565   
    644000   246.69565     -5583.2277     -6335.4937      286.90832     -0.027674743    0.0644        -0.27674743   
    645000   253.44723     -5533.6581     -6306.5122      865.92356     -0.0786456      0.0645        -0.786456     
    646000   245.45262     -5531.5393     -6280.0148      97.972096     -0.0098439057   0.0646        -0.098439057  
    647000   250.53372     -5561.5426     -6325.5123     -469.81045      0.048034418    0.0647         0.48034418   
    648000   247.03441     -5565.4823     -6318.7813     -489.78129      0.055619255    0.0648         0.55619255   
    649000   248.3537      -5542.1352     -6299.4572     -304.45813      0.030042868    0.0649         0.30042868   
    650000   244.67818     -5538.847      -6284.961       185.64844     -0.019166072    0.065         -0.19166072   
    651000   247.24553     -5538.5975     -6292.5403      748.43569     -0.080019527    0.0651        -0.80019527   
    652000   249.32785     -5503.5946     -6263.8871      163.33023     -0.026634427    0.0652        -0.26634427   
    653000   252.89699     -5528.9908     -6300.1669     -330.72783      0.036032965    0.0653         0.36032965   
    654000   243.24233     -5551.5785     -6293.314      -226.86716      0.024543335    0.0654         0.24543335   
    655000   245.9308      -5539.6009     -6289.5345     -574.72665      0.047889421    0.0655         0.47889421   
    656000   252.48646     -5487.8602     -6257.7845     -283.89841      0.029428703    0.0656         0.29428703   
    657000   244.54185     -5523.8983     -6269.5966     -819.80508      0.083630805    0.0657         0.83630805   
    658000   239.83255     -5542.0483     -6273.3862     -296.87509      0.03951313     0.0658         0.3951313    
    659000   244.19618     -5539.4291     -6284.0733     -641.65541      0.059151214    0.0659         0.59151214   
    660000   239.91078     -5627.6549     -6359.2313     -223.21988      0.031620458    0.066          0.31620458   
    661000   246.31832     -5475.8579     -6226.9733     -724.65186      0.067895105    0.0661         0.67895105   
    662000   248.30673     -5543.3662     -6300.545       595.89975     -0.053647157    0.0662        -0.53647157   
    663000   243.99891     -5554.0108     -6298.0535     -355.98513      0.044839788    0.0663         0.44839788   
    664000   246.40525     -5528.6787     -6280.0592     -91.277216      0.0079929856   0.0664         0.079929856  
    665000   250.58545     -5494.2288     -6258.3562     -458.71128      0.061761345    0.0665         0.61761345   
    666000   247.39665     -5584.7235     -6339.1271     -746.46569      0.075345177    0.0666         0.75345177   
    667000   240.99893     -5550.9224     -6285.817       398.74961     -0.039394819    0.0667        -0.39394819   
    668000   257.35156     -5534.4915     -6319.2513     -289.60629      0.026339477    0.0668         0.26339477   
    669000   251.97        -5517.3364     -6285.6859      925.42986     -0.090219719    0.0669        -0.90219719   
    670000   246.60433     -5565.9317     -6317.9193     -292.62884      0.032241112    0.067          0.32241112   
    671000   245.1595      -5507.8972     -6255.4789     -1105.4878      0.11458532     0.0671         1.1458532    
    672000   253.65897     -5523.5908     -6297.0905     -537.41701      0.04835264     0.0672         0.4835264    
    673000   235.28806     -5579.7958     -6297.2759      258.83973     -0.033179876    0.0673        -0.33179876   
    674000   248.13226     -5499.7063     -6256.3531     -1032.9031      0.09114997     0.0674         0.9114997    
    675000   252.78683     -5504.6407     -6275.481      -1089.0665      0.098555914    0.0675         0.98555914   
    676000   244.07977     -5583.4361     -6327.7253     -1181.676       0.11267328     0.0676         1.1267328    
    677000   247.49449     -5542.0499     -6296.7519      346.26113     -0.039184696    0.0677        -0.39184696   
    678000   255.4321      -5479.4357     -6258.3424     -1358.7561      0.12752836     0.0678         1.2752836    
    679000   246.93847     -5556.4437     -6309.4502     -663.62026      0.063916529    0.0679         0.63916529   
    680000   241.97601     -5576.8376     -6314.7117     -132.42164      0.022979796    0.068          0.22979796   
    681000   248.51284     -5514.6023     -6272.4096      378.9514      -0.034132671    0.0681        -0.34132671   
    682000   244.84695     -5572.4392     -6319.0678     -286.37716      0.029924169    0.0682         0.29924169   
    683000   240.58862     -5558.1537     -6291.7971      1280.9252     -0.1152941      0.0683        -1.152941     
    684000   251.12763     -5495.8953     -6261.676       157.37029     -0.02064295     0.0684        -0.2064295    
    685000   237.43079     -5574.2255     -6298.2395      433.8532      -0.040585183    0.0685        -0.40585183   
    686000   240.11614     -5553.1664     -6285.369       414.18298     -0.047606981    0.0686        -0.47606981   
    687000   259.02143     -5473.9402     -6263.7921      859.9467      -0.074039401    0.0687        -0.74039401   
    688000   236.85995     -5561.0887     -6283.362       117.91189     -0.0099577653   0.0688        -0.099577653  
    689000   238.23725     -5589.5737     -6316.0469      984.5342      -0.096927363    0.0689        -0.96927363   
    690000   253.53773     -5495.5504     -6268.6804     -553.61721      0.049518376    0.069          0.49518376   
    691000   243.52226     -5589.9954     -6332.5846      261.01344     -0.018337894    0.0691        -0.18337894   
    692000   244.14303     -5535.1398     -6279.6219      748.60491     -0.069914984    0.0692        -0.69914984   
    693000   251.02839     -5513.7517     -6279.2298      64.855046      0.0034055864   0.0693         0.034055864  
    694000   238.57604     -5541.5305     -6269.0368      114.35819     -0.002381368    0.0694        -0.02381368   
    695000   233.76788     -5616.7494     -6329.5938     -802.02327      0.084262241    0.0695         0.84262241   
    696000   252.21216     -5478.4105     -6247.4983      118.83534     -0.0150732      0.0696        -0.150732     
    697000   246.66637     -5508.2048     -6260.3815      776.03438     -0.072873593    0.0697        -0.72873593   
    698000   248.61503     -5506.1876     -6264.3065     -477.2606       0.043710282    0.0698         0.43710282   
    699000   249.59436     -5470.6674     -6231.7726     -349.36186      0.028610996    0.0699         0.28610996   
    700000   247.36116     -5502.4955     -6256.7909      384.81281     -0.035997169    0.07          -0.35997169   
Loop time of 89.1305 on 56 procs for 100000 steps with 1536 atoms

Performance: 96.936 ns/day, 0.248 hours/ns, 1121.950 timesteps/s, 1.723 Matom-step/s
99.8% CPU use with 56 MPI tasks x no OpenMP threads

MPI task timing breakdown:
Section |  min time  |  avg time  |  max time  |%varavg| %total
---------------------------------------------------------------
Pair    | 22.361     | 24.621     | 26.767     |  22.7 | 27.62
Bond    | 0.010667   | 0.014189   | 0.022117   |   1.8 |  0.02
Kspace  | 34.844     | 37.099     | 39.455     |  18.0 | 41.62
Neigh   | 1.649      | 1.6507     | 1.652      |   0.1 |  1.85
Comm    | 9.7216     | 10.02      | 10.345     |   4.8 | 11.24
Output  | 0.076409   | 0.1199     | 0.15496    |   6.1 |  0.13
Modify  | 10.852     | 12.905     | 14.856     |  31.1 | 14.48
Other   |            | 2.701      |            |       |  3.03

Nlocal:        27.4286 ave          35 max          18 min
Histogram: 1 2 7 4 7 14 4 9 6 2
Nghost:        4049.14 ave        4099 max        3993 min
Histogram: 2 7 3 6 6 8 7 8 6 3
Neighs:        12012.1 ave       15091 max        7737 min
Histogram: 1 2 3 8 7 8 9 6 7 5

Total # of neighbors = 672677
Ave neighs/atom = 437.94076
Ave special neighs/atom = 2
Neighbor list builds = 1075
Dangerous builds = 0
kspace_style pppm/tip4p 1.0e-5
next nloop
jump SELF loop_start
run 100000 # 100ps
PPPM initialization ...
  extracting TIP4P info from pair style
  using 12-bit tables for long-range coulomb
  G vector (1/distance) = 0.33152751
  grid = 27 27 27
  stencil order = 5
  estimated absolute RMS force accuracy = 0.0029262644
  estimated relative force accuracy = 8.8123584e-06
  using double precision KISS FFT
  3d grid and FFT values/proc = 4576 432
Generated 0 of 1 mixed pair_coeff terms from geometric mixing rule
Per MPI rank memory allocation (min/avg/max) = 9.737 | 9.758 | 9.777 Mbytes
   Step          Temp          TotEng         PotEng          Pxy           v_sxy         v_strain     v_viscosity  
    700000   247.36082     -5502.4968     -6256.7911      385.10415     -0.036027586    0.07          -0.36027586   
    701000   252.42999     -5501.5568     -6271.3089     -431.64386      0.047013384    0.0701         0.47013384   
    702000   237.41346     -5554.5323     -6278.4935      121.38306     -0.006908245    0.0702        -0.06908245   
    703000   245.18458     -5472.536      -6220.1941      512.48093     -0.044883927    0.0703        -0.44883927   
    704000   243.72835     -5472.332      -6215.5496     -71.29758      -0.007243398    0.0704        -0.07243398   
    705000   253.57576     -5470.9043     -6244.1502      882.9977      -0.098244205    0.0705        -0.98244205   
    706000   248.11217     -5455.2758     -6211.8613      775.10353     -0.087632177    0.0706        -0.87632177   
    707000   242.90166     -5550.2359     -6290.9326     -32.060986      0.0024164081   0.0707         0.024164081  
    708000   237.18202     -5508.1824     -6231.4378      328.87346     -0.031039751    0.0708        -0.31039751   
    709000   245.54812     -5525.671      -6274.4377      625.64654     -0.070288663    0.0709        -0.70288663   
    710000   245.77882     -5511.3767     -6260.847      -324.27022      0.032628532    0.071          0.32628532   
    711000   234.76513     -5528.5129     -6244.3984      1162.2654     -0.11567886     0.0711        -1.1567886    
    712000   246.6328      -5507.8847     -6259.9591     -99.433109      0.018213551    0.0712         0.18213551   
    713000   236.18624     -5519.2812     -6239.5001      368.53254     -0.028653715    0.0713        -0.28653715   
    714000   248.06903     -5503.187      -6259.6409      261.08618     -0.033381176    0.0714        -0.33381176   
    715000   238.74459     -5525.6652     -6253.6854      578.72096     -0.053593089    0.0715        -0.53593089   
    716000   245.35661     -5477.9954     -6226.1781      991.91806     -0.10456276     0.0716        -1.0456276    
    717000   236.29355     -5523.7314     -6244.2775     -300.46126      0.034973798    0.0717         0.34973798   
    718000   245.98779     -5512.3358     -6262.4432     -181.29418      0.0078412374   0.0718         0.078412374  
    719000   244.40023     -5537.5413     -6282.8077     -1129.3534      0.11515627     0.0719         1.1515627    
    720000   247.30053     -5533.0052     -6287.1157      407.56708     -0.036503276    0.072         -0.36503276   
    721000   256.08972     -5513.951      -6294.8629     -45.596178     -0.006962138    0.0721        -0.06962138   
    722000   247.40586     -5568.9986     -6323.4303      642.92485     -0.065837268    0.0722        -0.65837268   
    723000   240.25779     -5578.4006     -6311.0352     -996.60267      0.097317364    0.0723         0.97317364   
    724000   239.73353     -5567.2166     -6298.2525     -130.50032      0.0090744047   0.0724         0.090744047  
    725000   267.21311     -5477.8495     -6292.6808      268.90042     -0.019593752    0.0725        -0.19593752   
    726000   244.05804     -5597.913      -6342.136       640.14606     -0.068718754    0.0726        -0.68718754   
    727000   247.44528     -5500.4588     -6255.0107      389.51856     -0.034161934    0.0727        -0.34161934   
    728000   245.27347     -5566.2116     -6314.1408     -248.21292      0.02408581     0.0728         0.2408581    
    729000   239.35438     -5542.1178     -6271.9976     -171.95531      0.026521495    0.0729         0.26521495   
    730000   244.46245     -5517.7997     -6263.2559     -209.3236       0.022312512    0.073          0.22312512   
    731000   246.87777     -5552.9882     -6305.8095     -332.88142      0.032575018    0.0731         0.32575018   
    732000   245.23561     -5553.5307     -6301.3445      302.95703     -0.031012976    0.0732        -0.31012976   
    733000   253.23747     -5508.0063     -6280.2207     -729.24667      0.064324776    0.0733         0.64324776   
    734000   248.42343     -5510.591      -6268.1256      442.21917     -0.042194806    0.0734        -0.42194806   
    735000   237.93454     -5552.6152     -6278.1654      194.51177     -0.018537382    0.0735        -0.18537382   
    736000   244.77584     -5522.7138     -6269.1255     -122.21592      0.012573721    0.0736         0.12573721   
    737000   244.48165     -5540.6458     -6286.1605     -528.33772      0.045359421    0.0737         0.45359421   
    738000   246.01738     -5562.9042     -6313.102       330.19783     -0.0384323      0.0738        -0.384323     
    739000   247.47755     -5520.4328     -6275.0831     -131.95135      0.0022942279   0.0739         0.022942279  
    740000   249.50288     -5525.5526     -6286.3789     -750.5957       0.068924006    0.074          0.68924006   
    741000   241.48166     -5506.4413     -6242.8079     -716.19019      0.076948225    0.0741         0.76948225   
    742000   253.88781     -5477.6598     -6251.8573     -520.65711      0.045447489    0.0742         0.45447489   
    743000   242.61936     -5500.7743     -6240.6102     -634.56606      0.06700999     0.0743         0.6700999    
    744000   248.71959     -5515.8541     -6274.2918     -999.49108      0.097665566    0.0744         0.97665566   
    745000   242.59737     -5518.7274     -6258.4962     -716.14348      0.058646488    0.0745         0.58646488   
    746000   252.23831     -5525.1315     -6294.2991     -277.13607      0.018141348    0.0746         0.18141348   
    747000   251.34272     -5522.4529     -6288.8895     -334.93841      0.042666782    0.0747         0.42666782   
    748000   253.7912      -5564.1333     -6338.0362      19.317419     -0.00058780338  0.0748        -0.0058780338 
    749000   256.08022     -5531.4435     -6312.3265     -200.55321      0.025667986    0.0749         0.25667986   
    750000   237.89464     -5572.837      -6298.2655     -150.38424      0.019498122    0.075          0.19498122   
    751000   246.12196     -5509.1825     -6259.6991     -78.667339      0.0049042026   0.0751         0.049042026  
    752000   251.96806     -5553.1963     -6321.5398      608.42528     -0.064550982    0.0752        -0.64550982   
    753000   247.9959      -5511.1733     -6267.4042      328.4389      -0.038208629    0.0753        -0.38208629   
    754000   246.20647     -5519.7973     -6270.5717      756.60411     -0.081341358    0.0754        -0.81341358   
    755000   257.84026     -5534.2789     -6320.5289     -57.906765     -0.005682621    0.0755        -0.05682621   
    756000   243.53525     -5549.9462     -6292.5749      248.4505      -0.033742269    0.0756        -0.33742269   
    757000   240.89303     -5513.9753     -6248.547       515.81955     -0.05778931     0.0757        -0.5778931    
    758000   236.24356     -5523.6878     -6244.0815      805.38636     -0.095083941    0.0758        -0.95083941   
    759000   240.90164     -5567.6547     -6302.2526      960.83376     -0.10113419     0.0759        -1.0113419    
    760000   237.8456      -5605.4821     -6330.761       36.25002      -0.0099163776   0.076         -0.099163776  
    761000   249.10297     -5561.2311     -6320.8379     -297.6949       0.025254214    0.0761         0.25254214   
    762000   242.59191     -5555.5005     -6295.2526      1406.1435     -0.14928919     0.0762        -1.4928919    
    763000   244.53313     -5569.0955     -6314.7672      1355.6633     -0.14380576     0.0763        -1.4380576    
    764000   239.11332     -5545.688      -6274.8327      40.377942     -0.0034974202   0.0764        -0.034974202  
    765000   258.18175     -5504.4158     -6291.7072      663.58444     -0.069376452    0.0765        -0.69376452   
    766000   239.21181     -5590.5594     -6320.0044     -671.77998      0.071563402    0.0766         0.71563402   
    767000   245.57593     -5508.3292     -6257.1808      98.600899     -0.017150944    0.0767        -0.17150944   
    768000   251.39238     -5559.3308     -6325.9188     -499.58512      0.056357543    0.0768         0.56357543   
    769000   251.17903     -5576.066      -6342.0035      576.35885     -0.058194627    0.0769        -0.58194627   
    770000   259.55707     -5473.6915     -6265.1767     -530.04834      0.047065404    0.077          0.47065404   
    771000   241.72775     -5555.5025     -6292.6196     -31.172217      0.0025251844   0.0771         0.025251844  
    772000   249.39125     -5533.1471     -6293.633      -486.05718      0.046053126    0.0772         0.46053126   
    773000   242.73489     -5531.7264     -6271.9146     -239.18529      0.019789487    0.0773         0.19789487   
    774000   248.36641     -5501.1366     -6258.4973     -156.94093      0.015018757    0.0774         0.15018757   
    775000   254.32752     -5489.7399     -6265.2783      214.17232     -0.016747241    0.0775        -0.16747241   
    776000   251.03002     -5521.7854     -6287.2684     -63.332044      0.0087977679   0.0776         0.087977679  
    777000   242.34791     -5520.1063     -6259.1144      268.76946     -0.028135109    0.0777        -0.28135109   
    778000   251.09819     -5568.1027     -6333.7936      106.6174      -0.012690732    0.0778        -0.12690732   
    779000   253.62601     -5553.0446     -6326.4438     -641.24472      0.068568304    0.0779         0.68568304   
    780000   253.36142     -5523.1777     -6295.77        448.54329     -0.047533409    0.078         -0.47533409   
    781000   242.42731     -5531.9832     -6271.2335     -495.71928      0.048769671    0.0781         0.48769671   
    782000   249.95975     -5499.2095     -6261.4289     -160.91468      0.013879859    0.0782         0.13879859   
    783000   249.45837     -5542.4855     -6303.1761     -581.35905      0.057596319    0.0783         0.57596319   
    784000   246.88743     -5545.8986     -6298.7494     -774.05692      0.065768477    0.0784         0.65768477   
    785000   263.70975     -5486.2405     -6290.3887     -410.29705      0.046411988    0.0785         0.46411988   
    786000   242.27648     -5559.8552     -6298.6455     -4.6730519      0.0018000078   0.0786         0.018000078  
    787000   248.67967     -5528.1605     -6286.4765      101.848       -0.014371832    0.0787        -0.14371832   
    788000   262.72719     -5485.3949     -6286.547       760.59174     -0.073540658    0.0788        -0.73540658   
    789000   233.46516     -5653.9693     -6365.8906      153.00375     -0.010241014    0.0789        -0.10241014   
    790000   239.85149     -5589.4957     -6320.8914     -326.48719      0.023052272    0.079          0.23052272   
    791000   242.01237     -5574.2548     -6312.2398     -604.6608       0.057175713    0.0791         0.57175713   
    792000   245.75059     -5568.2976     -6317.6817      280.3655      -0.031836736    0.0792        -0.31836736   
    793000   239.65387     -5611.0447     -6341.8377     -75.165511      0.0076170703   0.0793         0.076170703  
    794000   238.8372      -5575.7141     -6304.0168      104.76658     -0.011509514    0.0794        -0.11509514   
    795000   239.19248     -5600.4321     -6329.8182     -437.47923      0.043245326    0.0795         0.43245326   
    796000   243.39304     -5567.7588     -6309.954       387.85978     -0.046427477    0.0796        -0.46427477   
    797000   253.34914     -5574.5536     -6347.1085      140.30978     -0.020202825    0.0797        -0.20202825   
    798000   236.84977     -5648.657      -6370.8993      140.66311     -0.010722455    0.0798        -0.10722455   
    799000   250.52611     -5508.1982     -6272.1447      61.350499     -0.0043026796   0.0799        -0.043026796  
    800000   246.08256     -5597.4275     -6347.8239     -206.64223      0.018590494    0.08           0.18590494   
Loop time of 89.1875 on 56 procs for 100000 steps with 1536 atoms

Performance: 96.875 ns/day, 0.248 hours/ns, 1121.233 timesteps/s, 1.722 Matom-step/s
99.8% CPU use with 56 MPI tasks x no OpenMP threads

MPI task timing breakdown:
Section |  min time  |  avg time  |  max time  |%varavg| %total
---------------------------------------------------------------
Pair    | 22.053     | 24.543     | 26.991     |  21.1 | 27.52
Bond    | 0.010736   | 0.014275   | 0.02092    |   1.7 |  0.02
Kspace  | 34.771     | 37.135     | 39.712     |  16.4 | 41.64
Neigh   | 1.6848     | 1.6864     | 1.6881     |   0.1 |  1.89
Comm    | 9.7767     | 10.067     | 10.419     |   4.8 | 11.29
Output  | 0.076215   | 0.12006    | 0.15521    |   6.1 |  0.13
Modify  | 10.834     | 12.92      | 14.888     |  31.3 | 14.49
Other   |            | 2.702      |            |       |  3.03

Nlocal:        27.4286 ave          35 max          21 min
Histogram: 2 1 15 7 6 11 4 6 0 4
Nghost:        4044.77 ave        4108 max        3972 min
Histogram: 1 7 5 6 4 8 9 7 5 4
Neighs:        12012.2 ave       15325 max        9227 min
Histogram: 2 3 12 8 11 6 5 5 0 4

Total # of neighbors = 672684
Ave neighs/atom = 437.94531
Ave special neighs/atom = 2
Neighbor list builds = 1101
Dangerous builds = 0
kspace_style pppm/tip4p 1.0e-5
next nloop
jump SELF loop_start
run 100000 # 100ps
PPPM initialization ...
  extracting TIP4P info from pair style
  using 12-bit tables for long-range coulomb
  G vector (1/distance) = 0.33107832
  grid = 27 27 27
  stencil order = 5
  estimated absolute RMS force accuracy = 0.003006659
  estimated relative force accuracy = 9.0544643e-06
  using double precision KISS FFT
  3d grid and FFT values/proc = 4576 432
Generated 0 of 1 mixed pair_coeff terms from geometric mixing rule
Per MPI rank memory allocation (min/avg/max) = 9.737 | 9.758 | 9.777 Mbytes
   Step          Temp          TotEng         PotEng          Pxy           v_sxy         v_strain     v_viscosity  
    800000   246.08255     -5597.4279     -6347.8243     -206.4519       0.018570924    0.08           0.18570924   
    801000   238.82903     -5584.7776     -6313.0554     -32.084198     -0.0026976416   0.0801        -0.026976416  
    802000   232.07827     -5603.2441     -6310.9363     -181.43435      0.013306504    0.0802         0.13306504   
    803000   246.32626     -5561.0715     -6312.2111     -568.49681      0.059356673    0.0803         0.59356673   
    804000   254.21899     -5530.2607     -6305.4682     -253.99917      0.026477649    0.0804         0.26477649   
    805000   254.11186     -5567.2154     -6342.0962     -174.8728       0.019973876    0.0805         0.19973876   
    806000   251.89995     -5554.7705     -6322.9063      547.6914      -0.06080851     0.0806        -0.6080851    
    807000   252.37276     -5539.2474     -6308.825       180.1089      -0.025526061    0.0807        -0.25526061   
    808000   255.16644     -5566.5457     -6344.6422      685.89322     -0.069851664    0.0808        -0.69851664   
    809000   248.54179     -5519.8746     -6277.7702      732.39348     -0.071385375    0.0809        -0.71385375   
    810000   252.05408     -5576.5477     -6345.1535      442.65662     -0.04420032     0.081         -0.4420032    
    811000   253.43636     -5517.393      -6290.2139      243.41766     -0.010904872    0.0811        -0.10904872   
    812000   248.83767     -5549.1257     -6307.9235      598.96065     -0.05869881     0.0812        -0.5869881    
    813000   255.83949     -5570.8707     -6351.0197     -353.54564      0.028527438    0.0813         0.28527438   
    814000   236.58555     -5593.1272     -6314.5637     -763.20455      0.082948855    0.0814         0.82948855   
    815000   241.31533     -5607.8797     -6343.7391      559.92667     -0.061952448    0.0815        -0.61952448   
    816000   245.82403     -5563.4542     -6313.0623      794.41655     -0.072421049    0.0816        -0.72421049   
    817000   250.29885     -5578.5604     -6341.8139     -680.47253      0.062278527    0.0817         0.62278527   
    818000   249.06444     -5563.879      -6323.3683      24.141702      0.009433757    0.0818         0.09433757   
    819000   247.74298     -5530.9693     -6286.429       398.37234     -0.045034676    0.0819        -0.45034676   
    820000   244.75198     -5560.4422     -6306.7812     -534.03874      0.058300282    0.082          0.58300282   
    821000   243.45832     -5640.4757     -6382.8699      228.14799     -0.016127717    0.0821        -0.16127717   
    822000   249.03165     -5550.275      -6309.6643      213.8544      -0.022731973    0.0822        -0.22731973   
    823000   236.87599     -5584.5169     -6306.8391     -346.79224      0.032865213    0.0823         0.32865213   
    824000   240.72816     -5623.2665     -6357.3354      1143.059      -0.10798046     0.0824        -1.0798046    
    825000   252.59506     -5575.6295     -6345.8849     -249.30584      0.021416494    0.0825         0.21416494   
    826000   246.73226     -5552.9785     -6305.3561      637.29614     -0.054000973    0.0826        -0.54000973   
    827000   241.92827     -5603.6622     -6341.3907      970.08579     -0.090424723    0.0827        -0.90424723   
    828000   252.17926     -5541.4542     -6310.4417     -18.692142     -0.0012616585   0.0828        -0.012616585  
    829000   243.53695     -5560.8118     -6303.4458     -397.90967      0.048347407    0.0829         0.48347407   
    830000   249.96313     -5567.1341     -6329.3638      116.18014     -0.015211709    0.083         -0.15211709   
    831000   252.26169     -5536.3409     -6305.5798     -118.77896      0.016269507    0.0831         0.16269507   
    832000   238.12656     -5590.3842     -6316.5199     -46.677628      0.0031076255   0.0832         0.031076255  
    833000   259.58363     -5489.0877     -6280.6539      366.95767     -0.046523815    0.0833        -0.46523815   
    834000   239.62954     -5569.1172     -6299.836      -248.32738      0.022693827    0.0834         0.22693827   
    835000   238.49602     -5534.1937     -6261.456      -321.71076      0.029725518    0.0835         0.29725518   
    836000   249.55609     -5561.2931     -6322.2817     -642.39295      0.066671389    0.0836         0.66671389   
    837000   248.17516     -5554.9177     -6311.6953     -534.08578      0.052789872    0.0837         0.52789872   
    838000   257.85428     -5492.5637     -6278.8564     -92.114216      0.0073361921   0.0838         0.073361921  
    839000   242.7985      -5578.9314     -6319.3136      1040.0983     -0.11051226     0.0839        -1.1051226    
    840000   239.07449     -5607.6291     -6336.6553      153.12204     -0.01614175     0.084         -0.1614175    
    841000   255.50891     -5516.7105     -6295.8514      436.81388     -0.035718774    0.0841        -0.35718774   
    842000   248.24949     -5588.4946     -6345.4988     -125.95914      0.0071863215   0.0842         0.071863215  
    843000   245.45521     -5551.0629     -6299.5463      29.217048      0.0010183829   0.0843         0.010183829  
    844000   252.95789     -5521.2627     -6292.6246      293.38141     -0.026487718    0.0844        -0.26487718   
    845000   244.57695     -5519.3293     -6265.1346      576.11347     -0.055932096    0.0845        -0.55932096   
    846000   237.29158     -5510.2915     -6233.881      -566.01665      0.056203947    0.0846         0.56203947   
    847000   247.85337     -5509.8118     -6265.6081     -271.62632      0.034332218    0.0847         0.34332218   
    848000   254.58883     -5461.4317     -6237.7669     -144.45479      0.015630414    0.0848         0.15630414   
    849000   244.6789      -5588.6333     -6334.7494      565.35473     -0.050604026    0.0849        -0.50604026   
    850000   250.98325     -5494.4721     -6259.8126      238.04141     -0.021061919    0.085         -0.21061919   
    851000   248.63524     -5555.1948     -6313.3753      744.82165     -0.078927415    0.0851        -0.78927415   
    852000   249.58692     -5543.5443     -6304.6268      199.39159     -0.012727746    0.0852        -0.12727746   
    853000   243.83918     -5593.8428     -6337.3984      81.094705     -0.0042348781   0.0853        -0.042348781  
    854000   239.62176     -5568.4774     -6299.1724     -372.00886      0.038218021    0.0854         0.38218021   
    855000   254.91031     -5517.0474     -6294.363       1354.4552     -0.12954914     0.0855        -1.2954914    
    856000   245.62654     -5554.6566     -6303.6625      419.10001     -0.046639808    0.0856        -0.46639808   
    857000   247.73179     -5549.7426     -6305.1682     -102.71657      0.010848619    0.0857         0.10848619   
    858000   254.96568     -5514.9623     -6292.4466     -1000.1207      0.10087518     0.0858         1.0087518    
    859000   239.6819      -5562.0239     -6292.9024     -371.34438      0.044147709    0.0859         0.44147709   
    860000   246.63999     -5478.3765     -6230.4727     -214.46223      0.017506884    0.086          0.17506884   
    861000   240.00976     -5566.0179     -6297.8961     -428.11297      0.041972927    0.0861         0.41972927   
    862000   247.76476     -5567.7793     -6323.3054     -19.277366      0.004893556    0.0862         0.04893556   
    863000   246.87736     -5502.4775     -6255.2976      37.358295      0.0032505635   0.0863         0.032505635  
    864000   254.37633     -5509.4215     -6285.1087     -167.77402      0.02245187     0.0864         0.2245187    
    865000   248.12921     -5548.2822     -6304.9197     -455.29735      0.050049568    0.0865         0.50049568   
    866000   246.41213     -5560.8903     -6312.2917      762.13731     -0.06922988     0.0866        -0.6922988    
    867000   250.68853     -5508.9921     -6273.4339     -23.144043      0.015403108    0.0867         0.15403108   
    868000   236.97697     -5561.3616     -6283.9918     -210.36641      0.030175237    0.0868         0.30175237   
    869000   247.96838     -5507.2684     -6263.4154     -550.12279      0.051481742    0.0869         0.51481742   
    870000   241.20601     -5546.09       -6281.6161      213.55766     -0.0090030217   0.087         -0.090030217  
    871000   247.19342     -5489.4129     -6243.1967     -670.06901      0.069829755    0.0871         0.69829755   
    872000   235.48963     -5576.7407     -6294.8354     -430.71268      0.036272688    0.0872         0.36272688   
    873000   256.54106     -5513.8929     -6296.1812      116.18195      0.010877102    0.0873         0.10877102   
    874000   236.46406     -5519.7176     -6240.7837     -607.37138      0.050599709    0.0874         0.50599709   
    875000   246.70646     -5510.7005     -6262.9994     -461.73932      0.053921482    0.0875         0.53921482   
    876000   255.26308     -5579.5386     -6357.9298     -593.33192      0.06232572     0.0876         0.6232572    
    877000   246.18048     -5534.6408     -6285.3358      115.70058     -0.010565384    0.0877        -0.10565384   
    878000   250.86494     -5508.2417     -6273.2214      7.5045983     -0.01516378     0.0878        -0.1516378    
    879000   237.83494     -5543.753      -6268.9995      701.76296     -0.068522169    0.0879        -0.68522169   
    880000   238.89968     -5525.7221     -6254.2153      631.20838     -0.058602512    0.088         -0.58602512   
    881000   240.18029     -5543.1461     -6275.5444      842.97828     -0.085773583    0.0881        -0.85773583   
    882000   235.10256     -5555.2585     -6272.1729      173.52778     -0.0085537846   0.0882        -0.085537846  
    883000   250.37434     -5544.3525     -6307.8362      509.65154     -0.066966191    0.0883        -0.66966191   
    884000   245.5482      -5507.566      -6256.333      -215.77694      0.022107405    0.0884         0.22107405   
    885000   245.85371     -5503.305      -6253.0036      591.08671     -0.071198868    0.0885        -0.71198868   
    886000   246.29282     -5562.5638     -6313.6014      830.09888     -0.084739656    0.0886        -0.84739656   
    887000   248.53237     -5520.5163     -6278.3831     -671.21347      0.065772383    0.0887         0.65772383   
    888000   245.94724     -5533.0284     -6283.0122      48.734583     -0.0070991422   0.0888        -0.070991422  
    889000   257.50107     -5500.8786     -6286.0943      56.663778     -0.019512826    0.0889        -0.19512826   
    890000   244.33089     -5573.9831     -6319.038       502.82319     -0.046167968    0.089         -0.46167968   
    891000   245.35409     -5561.1839     -6309.359      -270.14954      0.022011727    0.0891         0.22011727   
    892000   251.50041     -5512.9919     -6279.9094      373.02469     -0.041924021    0.0892        -0.41924021   
    893000   249.16953     -5541.115      -6300.9247     -306.06828      0.038607713    0.0893         0.38607713   
    894000   241.42479     -5544.8231     -6281.0163     -12.722417      0.0052816645   0.0894         0.052816645  
    895000   241.23121     -5563.2612     -6298.8641     -272.48992      0.030852101    0.0895         0.30852101   
    896000   248.83621     -5521.0694     -6279.8628     -99.60598       0.017610656    0.0896         0.17610656   
    897000   247.64002     -5564.5034     -6319.6492      512.18923     -0.056921493    0.0897        -0.56921493   
    898000   235.44396     -5532.599      -6250.5545     -68.509057      0.0097650962   0.0898         0.097650962  
    899000   247.22783     -5530.2039     -6284.0927     -347.30466      0.036266862    0.0899         0.36266862   
    900000   243.25675     -5593.745      -6335.5245     -255.59163      0.022890235    0.09           0.22890235   
Loop time of 89.0345 on 56 procs for 100000 steps with 1536 atoms

Performance: 97.041 ns/day, 0.247 hours/ns, 1123.161 timesteps/s, 1.725 Matom-step/s
99.8% CPU use with 56 MPI tasks x no OpenMP threads

MPI task timing breakdown:
Section |  min time  |  avg time  |  max time  |%varavg| %total
---------------------------------------------------------------
Pair    | 22.457     | 24.587     | 27.156     |  18.4 | 27.61
Bond    | 0.010718   | 0.014197   | 0.021781   |   1.7 |  0.02
Kspace  | 34.41      | 36.924     | 38.863     |  14.7 | 41.47
Neigh   | 1.6768     | 1.6782     | 1.6793     |   0.0 |  1.88
Comm    | 9.6846     | 10.043     | 10.344     |   4.9 | 11.28
Output  | 0.076594   | 0.12051    | 0.15554    |   6.1 |  0.14
Modify  | 10.857     | 12.935     | 14.899     |  31.3 | 14.53
Other   |            | 2.733      |            |       |  3.07

Nlocal:        27.4286 ave          36 max          21 min
Histogram: 2 4 12 5 15 6 5 3 3 1
Nghost:        4041.29 ave        4120 max        3964 min
Histogram: 1 3 6 11 8 10 8 2 5 2
Neighs:        12008.1 ave       15805 max        9120 min
Histogram: 2 4 12 7 13 6 5 5 1 1

Total # of neighbors = 672454
Ave neighs/atom = 437.79557
Ave special neighs/atom = 2
Neighbor list builds = 1085
Dangerous builds = 0
kspace_style pppm/tip4p 1.0e-5
next nloop
jump SELF loop_start
run 100000 # 100ps
PPPM initialization ...
  extracting TIP4P info from pair style
  using 12-bit tables for long-range coulomb
  G vector (1/distance) = 0.33439407
  grid = 27 30 27
  stencil order = 5
  estimated absolute RMS force accuracy = 0.0024660701
  estimated relative force accuracy = 7.4264968e-06
  using double precision KISS FFT
  3d grid and FFT values/proc = 4576 448
Generated 0 of 1 mixed pair_coeff terms from geometric mixing rule
Per MPI rank memory allocation (min/avg/max) = 9.749 | 9.767 | 9.779 Mbytes
   Step          Temp          TotEng         PotEng          Pxy           v_sxy         v_strain     v_viscosity  
    900000   243.25677     -5593.7437     -6335.5232     -255.31956      0.022862303    0.09           0.22862303   
    901000   250.79646     -5546.546      -6311.3168     -486.52916      0.045667197    0.0901         0.45667197   
    902000   246.01701     -5518.4903     -6268.6869     -1361.2177      0.13341824     0.0902         1.3341824    
    903000   250.69222     -5531.6926     -6296.1456     -447.53455      0.052722625    0.0903         0.52722625   
    904000   253.84045     -5475.3557     -6249.4088     -134.82993      0.025641105    0.0904         0.25641105   
    905000   247.41884     -5491.3493     -6245.8206     -742.878        0.077120708    0.0905         0.77120708   
    906000   241.3405      -5542.9233     -6278.8594     -1141.0466      0.10445538     0.0906         1.0445538    
    907000   248.81967     -5516.7042     -6275.4471      32.222961     -0.0026907576   0.0907        -0.026907576  
    908000   256.02176     -5519.9888     -6300.6935     -5.7515795     -0.0047509217   0.0908        -0.047509217  
    909000   253.76145     -5500.0092     -6273.8214     -129.41711      0.0055224132   0.0909         0.055224132  
    910000   246.96272     -5562.9619     -6316.0423     -693.12202      0.067250395    0.091          0.67250395   
    911000   243.46544     -5543.7975     -6286.2134      208.13377     -0.022675457    0.0911        -0.22675457   
    912000   254.20243     -5490.13       -6265.2869      345.45175     -0.044579188    0.0912        -0.44579188   
    913000   246.83971     -5526.0027     -6278.708       253.50589     -0.037709921    0.0913        -0.37709921   
    914000   241.75739     -5561.2264     -6298.4338      264.1824      -0.022951783    0.0914        -0.22951783   
    915000   245.257       -5536.8303     -6284.7093     -431.73778      0.046460446    0.0915         0.46460446   
    916000   243.78985     -5578.6894     -6322.0945      219.63612     -0.02643664     0.0916        -0.2643664    
    917000   234.09439     -5578.5213     -6292.3614      370.68593     -0.03124885     0.0917        -0.3124885    
    918000   252.94783     -5475.3266     -6246.6578      9.1465867     -0.0031290349   0.0918        -0.031290349  
    919000   243.47516     -5581.1968     -6323.6424     -27.234058     -0.0042440303   0.0919        -0.042440303  
    920000   240.06346     -5540.829      -6272.871      -12.210821      0.0056412156   0.092          0.056412156  
    921000   243.43595     -5536.5068     -6278.8327      294.78892     -0.028319434    0.0921        -0.28319434   
    922000   253.2376      -5528.5246     -6300.7393      306.18385     -0.037968316    0.0922        -0.37968316   
    923000   246.79947     -5549.4484     -6302.031      -532.4233       0.049671032    0.0923         0.49671032   
    924000   241.1563      -5545.6342     -6281.0086      115.87006     -0.021862159    0.0924        -0.21862159   
    925000   242.53851     -5520.9315     -6260.5208      87.039291     -0.010405999    0.0925        -0.10405999   
    926000   242.2999      -5550.4554     -6289.3171      444.91108     -0.045978094    0.0926        -0.45978094   
    927000   236.97204     -5612.6821     -6335.2972      262.05046     -0.022596822    0.0927        -0.22596822   
    928000   250.79747     -5520.489      -6285.263       478.83464     -0.051949621    0.0928        -0.51949621   
    929000   245.19014     -5555.3752     -6303.0503      415.68167     -0.048411397    0.0929        -0.48411397   
    930000   238.20538     -5592.4951     -6318.8711     -39.248073     -0.0094370112   0.093         -0.094370112  
    931000   252.32495     -5459.9604     -6229.3922     -263.84795      0.026902147    0.0931         0.26902147   
    932000   249.22207     -5540.4397     -6300.4096      47.010235     -0.011933227    0.0932        -0.11933227   
    933000   244.647       -5536.1774     -6282.1963      329.85013     -0.032456268    0.0933        -0.32456268   
    934000   252.9596      -5465.9328     -6237.2999      819.75437     -0.095889972    0.0934        -0.95889972   
    935000   241.1197      -5532.8094     -6268.0723      350.03013     -0.034071731    0.0935        -0.34071731   
    936000   244.50828     -5547.5707     -6293.1666      123.5074      -0.011072206    0.0936        -0.11072206   
    937000   250.77796     -5545.0248     -6309.7392      609.12087     -0.06167786     0.0937        -0.6167786    
    938000   243.48324     -5551.6388     -6294.1089      42.338143      0.00039261341  0.0938         0.0039261341 
    939000   244.89566     -5531.4234     -6278.2006      746.91675     -0.07493124     0.0939        -0.7493124    
    940000   242.70934     -5547.9136     -6288.0238     -257.18863      0.024476499    0.094          0.24476499   
    941000   240.09718     -5544.0816     -6276.2264      765.96586     -0.077643395    0.0941        -0.77643395   
    942000   243.05178     -5556.9021     -6298.0566     -476.40959      0.043945064    0.0942         0.43945064   
    943000   249.45655     -5487.8704     -6248.5553     -271.80233      0.019873901    0.0943         0.19873901   
    944000   245.87063     -5532.6856     -6282.4358     -152.67227      0.017723219    0.0944         0.17723219   
    945000   248.45096     -5501.3635     -6258.9821     -507.90689      0.051297645    0.0945         0.51297645   
    946000   244.26147     -5566.7933     -6311.6365     -940.77409      0.088694535    0.0946         0.88694535   
    947000   255.11663     -5471.4735     -6249.4182     -716.40033      0.067056418    0.0947         0.67056418   
    948000   236.53499     -5597.002      -6318.2844      679.97429     -0.064045207    0.0948        -0.64045207   
    949000   247.70954     -5502.7557     -6258.1134     -595.08209      0.05906797     0.0949         0.5906797    
    950000   241.7206      -5551.5892     -6288.6844     -311.19823      0.039160074    0.095          0.39160074   
    951000   246.93864     -5581.418      -6334.425      -218.19827      0.034630778    0.0951         0.34630778   
    952000   251.07595     -5539.8519     -6305.475       10.792216      0.0010136076   0.0952         0.010136076  
    953000   245.49076     -5555.0115     -6303.6033     -313.03237      0.036909994    0.0953         0.36909994   
    954000   246.37084     -5565.116      -6316.3916      483.54778     -0.056681375    0.0954        -0.56681375   
    955000   249.8656      -5571.0194     -6332.9517      406.89589     -0.034489614    0.0955        -0.34489614   
    956000   253.86023     -5511.0584     -6285.1718      173.30525     -0.013479326    0.0956        -0.13479326   
    957000   259.06077     -5514.5618     -6304.5336     -441.25756      0.04809457     0.0957         0.4809457    
    958000   241.14518     -5604.5256     -6339.8661     -365.71447      0.040843999    0.0958         0.40843999   
    959000   252.42598     -5510.0231     -6279.763      -435.98171      0.040612687    0.0959         0.40612687   
    960000   237.92046     -5560.2597     -6285.7669     -396.55886      0.043754289    0.096          0.43754289   
    961000   245.30085     -5540.821      -6288.8337     -18.210899     -0.0054121104   0.0961        -0.054121104  
    962000   252.62601     -5468.8627     -6239.2125      1067.0499     -0.11140512     0.0962        -1.1140512    
    963000   252.20917     -5500.1174     -6269.1961      0.65967625    -0.011427488    0.0963        -0.11427488   
    964000   241.86516     -5544.1379     -6281.674      -74.840564      0.0039262322   0.0964         0.039262322  
    965000   246.2637      -5509.8883     -6260.8371      445.67547     -0.044810403    0.0965        -0.44810403   
    966000   233.27712     -5567.9756     -6279.3236     -116.85515      0.0098651474   0.0966         0.098651474  
    967000   259.4904      -5412.3003     -6203.5822      86.830923     -0.015431008    0.0967        -0.15431008   
    968000   249.58153     -5500.0306     -6261.0967     -476.3218       0.056708765    0.0968         0.56708765   
    969000   241.37229     -5520.4653     -6256.4984     -140.71038      0.013651956    0.0969         0.13651956   
    970000   244.19753     -5527.6588     -6272.3072      1029.5128     -0.1058131      0.097         -1.058131     
    971000   243.14784     -5500.4759     -6241.9233     -35.503607      0.0087813847   0.0971         0.087813847  
    972000   242.57743     -5499.3144     -6239.0225     -418.25186      0.042822401    0.0972         0.42822401   
    973000   249.73439     -5536.6041     -6298.1363      578.9088      -0.057608512    0.0973        -0.57608512   
    974000   244.86925     -5530.3285     -6277.0251     -220.11387      0.019538493    0.0974         0.19538493   
    975000   250.77475     -5518.6731     -6283.3778     -335.60509      0.036361547    0.0975         0.36361547   
    976000   243.44608     -5533.8306     -6276.1875      553.34085     -0.054898525    0.0976        -0.54898525   
    977000   239.06522     -5555.4369     -6284.4349      340.99053     -0.024210064    0.0977        -0.24210064   
    978000   250.132       -5442.9318     -6205.6765     -136.90605      0.0034862382   0.0978         0.034862382  
    979000   234.56435     -5595.652      -6310.9252      613.48529     -0.063735505    0.0979        -0.63735505   
    980000   247.15646     -5511.1591     -6264.8303     -1051.5091      0.10324887     0.098          1.0324887    
    981000   239.16349     -5547.6911     -6276.9888     -785.00048      0.075547015    0.0981         0.75547015   
    982000   252.14424     -5535.9001     -6304.7808     -617.2294       0.063983035    0.0982         0.63983035   
    983000   242.26051     -5548.4978     -6287.2394      918.15269     -0.086653132    0.0983        -0.86653132   
    984000   242.48964     -5525.2542     -6264.6945      496.42477     -0.040947555    0.0984        -0.40947555   
    985000   233.59164     -5580.1035     -6292.4105     -41.231779      0.0043059581   0.0985         0.043059581  
    986000   243.84868     -5547.8538     -6291.4383      776.7727      -0.081794653    0.0986        -0.81794653   
    987000   230.56254     -5571.7847     -6274.8549      320.96079     -0.029103441    0.0987        -0.29103441   
    988000   250.61146     -5463.7515     -6227.9583      25.802066     -0.00025639179  0.0988        -0.0025639179 
    989000   241.26964     -5563.7776     -6299.4977      537.44258     -0.053821921    0.0989        -0.53821921   
    990000   251.04259     -5514.9448     -6280.4662      1010.3657     -0.109794       0.099         -1.09794      
    991000   244.04292     -5540.9057     -6285.0826      630.90199     -0.070635398    0.0991        -0.70635398   
    992000   248.53842     -5555.0497     -6312.935       765.85533     -0.074454971    0.0992        -0.74454971   
    993000   247.81661     -5508.3573     -6264.0415      7.0347731      0.0011748544   0.0993         0.011748544  
    994000   245.26061     -5579.1061     -6326.9961      377.70697     -0.025835639    0.0994        -0.25835639   
    995000   240.26768     -5494.6944     -6227.3592      133.30641     -0.017760897    0.0995        -0.17760897   
    996000   246.39156     -5514.4992     -6265.8379      578.85878     -0.054592008    0.0996        -0.54592008   
    997000   248.27622     -5518.3401     -6275.4258     -443.04858      0.045526667    0.0997         0.45526667   
    998000   250.4066      -5518.9638     -6282.5458     -1176.7192      0.11422566     0.0998         1.1422566    
    999000   241.16007     -5553.3093     -6288.6953      90.437289     -0.013577706    0.0999        -0.13577706   
   1000000   245.12077     -5539.1263     -6286.5899     -433.61174      0.04947361     0.1            0.4947361    
Loop time of 90.7416 on 56 procs for 100000 steps with 1536 atoms

Performance: 95.215 ns/day, 0.252 hours/ns, 1102.031 timesteps/s, 1.693 Matom-step/s
99.8% CPU use with 56 MPI tasks x no OpenMP threads

MPI task timing breakdown:
Section |  min time  |  avg time  |  max time  |%varavg| %total
---------------------------------------------------------------
Pair    | 22.842     | 24.667     | 26.407     |  20.0 | 27.18
Bond    | 0.011004   | 0.01432    | 0.022455   |   1.8 |  0.02
Kspace  | 36.636     | 38.487     | 40.298     |  15.7 | 42.41
Neigh   | 1.6843     | 1.6858     | 1.6876     |   0.0 |  1.86
Comm    | 9.9604     | 10.144     | 10.382     |   3.4 | 11.18
Output  | 0.076073   | 0.11926    | 0.15445    |   6.1 |  0.13
Modify  | 10.738     | 13.621     | 14.81      |  30.8 | 15.01
Other   |            | 2.004      |            |       |  2.21

Nlocal:        27.4286 ave          38 max          17 min
Histogram: 2 2 8 8 12 8 6 2 5 3
Nghost:        4048.29 ave        4095 max        3999 min
Histogram: 4 3 4 6 10 8 8 3 7 3
Neighs:        12006.1 ave       16864 max        7369 min
Histogram: 2 2 8 8 12 9 6 4 3 2

Total # of neighbors = 672342
Ave neighs/atom = 437.72266
Ave special neighs/atom = 2
Neighbor list builds = 1085
Dangerous builds = 0
kspace_style pppm/tip4p 1.0e-5
next nloop
jump SELF loop_start
run 100000 # 100ps
PPPM initialization ...
  extracting TIP4P info from pair style
  using 12-bit tables for long-range coulomb
  G vector (1/distance) = 0.33418119
  grid = 27 30 27
  stencil order = 5
  estimated absolute RMS force accuracy = 0.0024979469
  estimated relative force accuracy = 7.522493e-06
  using double precision KISS FFT
  3d grid and FFT values/proc = 4576 448
Generated 0 of 1 mixed pair_coeff terms from geometric mixing rule
Per MPI rank memory allocation (min/avg/max) = 9.749 | 9.768 | 9.779 Mbytes
   Step          Temp          TotEng         PotEng          Pxy           v_sxy         v_strain     v_viscosity  
   1000000   245.12074     -5539.1263     -6286.5898     -433.41563      0.049453187    0.1            0.49453187   
   1001000   259.4762      -5512.718      -6303.9567      1125.363      -0.11585043     0.1001        -1.1585043    
   1002000   248.50377     -5549.4551     -6307.2347      852.63952     -0.088991979    0.1002        -0.88991979   
   1003000   246.03784     -5524.2687     -6274.5288     -500.73218      0.05124429     0.1003         0.5124429    
   1004000   242.63828     -5545.2528     -6285.1464      203.42082     -0.017281653    0.1004        -0.17281653   
   1005000   240.71477     -5568.7097     -6302.7378      501.54287     -0.047768939    0.1005        -0.47768939   
   1006000   246.89265     -5566.0614     -6318.9281      694.18947     -0.070013696    0.1006        -0.70013696   
   1007000   264.57065     -5489.9595     -6296.7329      19.61736       0.0030582608   0.1007         0.030582608  
   1008000   243.57707     -5512.7459     -6255.5023      387.37457     -0.048741268    0.1008        -0.48741268   
   1009000   241.62533     -5551.8373     -6288.6421     -883.01361      0.074186304    0.1009         0.74186304   
   1010000   238.79873     -5483.6396     -6211.825       241.11325     -0.014247883    0.101         -0.14247883   
   1011000   242.81688     -5557.4745     -6297.9127      1110.622      -0.11439895     0.1011        -1.1439895    
   1012000   230.65386     -5575.1744     -6278.523      -305.06972      0.035264865    0.1012         0.35264865   
   1013000   246.18874     -5515.9478     -6266.6681      429.32916     -0.038825206    0.1013        -0.38825206   
   1014000   245.51805     -5543.2115     -6291.8865      774.45611     -0.072653043    0.1014        -0.72653043   
   1015000   259.75642     -5507.3721     -6299.4652      230.16956     -0.014885195    0.1015        -0.14885195   
   1016000   245.76007     -5540.2019     -6289.615      -517.16877      0.056503767    0.1016         0.56503767   
   1017000   244.29037     -5543.7098     -6288.6412      128.79964     -0.0063661011   0.1017        -0.063661011  
   1018000   241.38576     -5526.1934     -6262.2676      271.22648     -0.024070061    0.1018        -0.24070061   
   1019000   239.93615     -5540.4182     -6272.072      -35.014269     -0.0038248973   0.1019        -0.038248973  
   1020000   257.13219     -5575.6931     -6359.784       245.96673     -0.02837915     0.102         -0.2837915    
   1021000   256.75677     -5508.6684     -6291.6144      313.66045     -0.028131838    0.1021        -0.28131838   
   1022000   245.0222      -5546.3142     -6293.4773     -171.9587       0.010420734    0.1022         0.10420734   
   1023000   253.04025     -5564.9129     -6336.5259      1270.1597     -0.13361966     0.1023        -1.3361966    
   1024000   243.57197     -5542.6771     -6285.4179      500.86177     -0.047642633    0.1024        -0.47642633   
   1025000   244.53536     -5526.2458     -6271.9243      291.26305     -0.013504076    0.1025        -0.13504076   
   1026000   245.4117      -5564.0933     -6312.444      -209.73088      0.022764158    0.1026         0.22764158   
   1027000   250.49196     -5519.6026     -6283.4449     -565.01151      0.048988421    0.1027         0.48988421   
   1028000   260.80225     -5503.7746     -6299.0568     -75.827009      0.0052125748   0.1028         0.052125748  
   1029000   251.852       -5530.6673     -6298.6569      190.86699     -0.023093883    0.1029        -0.23093883   
   1030000   247.68914     -5535.7033     -6290.9988      356.60246     -0.030610381    0.103         -0.30610381   
   1031000   247.5923      -5483.6075     -6238.6077      7.9291564      0.001415626    0.1031         0.01415626   
   1032000   244.40277     -5513.362      -6258.6361      1125.0726     -0.11063924     0.1032        -1.1063924    
   1033000   244.59254     -5516.6767     -6262.5295      644.96419     -0.06998661     0.1033        -0.6998661    
   1034000   243.43228     -5485.6118     -6227.9266      603.96687     -0.057641923    0.1034        -0.57641923   
   1035000   242.1713      -5522.3196     -6260.7892     -363.97389      0.033590423    0.1035         0.33590423   
   1036000   258.58903     -5444.0968     -6232.6301      416.68046     -0.038428935    0.1036        -0.38428935   
   1037000   257.16802     -5477.5094     -6261.7095      183.49097     -0.021126166    0.1037        -0.21126166   
   1038000   240.10404     -5529.5175     -6261.6833     -86.753155      0.015977625    0.1038         0.15977625   
   1039000   236.72172     -5500.965      -6222.8168      648.15137     -0.064119899    0.1039        -0.64119899   
   1040000   237.42801     -5496.5863     -6220.5918      924.47374     -0.093885457    0.104         -0.93885457   
   1041000   252.40654     -5514.6398     -6284.3204      393.32869     -0.047013144    0.1041        -0.47013144   
   1042000   245.19117     -5494.8862     -6242.5645      229.27729     -0.022903943    0.1042        -0.22903943   
   1043000   240.13148     -5559.621      -6291.8704     -211.84327      0.019614019    0.1043         0.19614019   
   1044000   250.10802     -5508.9179     -6271.5894      129.36363     -0.027646955    0.1044        -0.27646955   
   1045000   240.01038     -5559.1191     -6290.9993      445.91875     -0.049698977    0.1045        -0.49698977   
   1046000   250.32712     -5491.7422     -6255.0819      526.9834      -0.056795457    0.1046        -0.56795457   
   1047000   245.19741     -5532.7928     -6280.4901     -95.204225      0.0086294802   0.1047         0.086294802  
   1048000   241.21424     -5508.343      -6243.8941     -831.12499      0.077964409    0.1048         0.77964409   
   1049000   241.20672     -5506.5676     -6242.0958      775.37461     -0.079635719    0.1049        -0.79635719   
   1050000   249.31201     -5526.722      -6286.9663     -162.12027     -0.00028253637  0.105         -0.0028253637 
   1051000   243.26722     -5544.4195     -6286.2309      114.26243      0.0014287183   0.1051         0.014287183  
   1052000   250.39926     -5473.9066     -6237.4663     -1044.4677      0.099333887    0.1052         0.99333887   
   1053000   242.10458     -5529.0145     -6267.2806      267.44171     -0.025429597    0.1053        -0.25429597   
   1054000   248.55932     -5498.3142     -6256.2632      302.13242     -0.016939115    0.1054        -0.16939115   
   1055000   255.79429     -5490.617      -6270.6281      204.04912     -0.018395987    0.1055        -0.18395987   
   1056000   236.93557     -5527.0724     -6249.5763     -364.83826      0.03567414     0.1056         0.3567414    
   1057000   239.17194     -5510.1706     -6239.494      -93.536599      0.0042430192   0.1057         0.042430192  
   1058000   231.94749     -5547.7095     -6255.003       230.08197     -0.016106677    0.1058        -0.16106677   
   1059000   250.73521     -5493.2075     -6257.7916      194.73871     -0.010376751    0.1059        -0.10376751   
   1060000   245.32126     -5546.3286     -6294.4036      923.1095      -0.090845151    0.106         -0.90845151   
   1061000   243.11589     -5537.7716     -6279.1216      135.70635     -0.014209507    0.1061        -0.14209507   
   1062000   252.91313     -5489.1919     -6260.4173     -56.541877      0.010436779    0.1062         0.10436779   
   1063000   240.71029     -5517.2821     -6251.2965     -475.00694      0.06249363     0.1063         0.6249363    
   1064000   237.8639      -5496.9418     -6222.2766     -130.03907      0.00940743     0.1064         0.0940743    
   1065000   241.84028     -5559.8895     -6297.3497     -336.09589      0.030748753    0.1065         0.30748753   
   1066000   235.22992     -5635.3772     -6352.68       -6.9046109      0.0020425329   0.1066         0.020425329  
   1067000   256.21103     -5446.9803     -6228.2622      170.48128     -0.020044956    0.1067        -0.20044956   
   1068000   242.16222     -5575.7593     -6314.2012     -700.64786      0.075249815    0.1068         0.75249815   
   1069000   245.36248     -5545.0382     -6293.2389     -205.46803      0.026369075    0.1069         0.26369075   
   1070000   241.37875     -5535.3764     -6271.4292      567.52105     -0.058773594    0.107         -0.58773594   
   1071000   254.90797     -5491.1884     -6268.4967      893.035       -0.087093652    0.1071        -0.87093652   
   1072000   240.02257     -5546.667      -6278.5843      567.86928     -0.063853035    0.1072        -0.63853035   
   1073000   246.88371     -5547.5078     -6300.3473     -2.956322       0.0076886253   0.1073         0.076886253  
   1074000   248.75262     -5523.5774     -6282.1158      230.14428     -0.021283578    0.1074        -0.21283578   
   1075000   235.02242     -5547.9739     -6264.6439      173.97349     -0.014086435    0.1075        -0.14086435   
   1076000   236.29114     -5563.9165     -6284.4553      507.79698     -0.050498467    0.1076        -0.50498467   
   1077000   239.51966     -5540.1778     -6270.5616     -433.23316      0.040804798    0.1077         0.40804798   
   1078000   243.0903      -5499.7281     -6241.0001     -137.29623      0.012854453    0.1078         0.12854453   
   1079000   249.71684     -5506.4681     -6267.9468     -401.15871      0.038055316    0.1079         0.38055316   
   1080000   238.00884     -5563.525      -6289.3017      429.25146     -0.051441411    0.108         -0.51441411   
   1081000   247.85245     -5528.4207     -6284.2142     -354.26839      0.032965511    0.1081         0.32965511   
   1082000   241.34816     -5527.9815     -6263.941       660.88383     -0.052511057    0.1082        -0.52511057   
   1083000   243.52771     -5564.3716     -6306.9774      209.40584     -0.010662718    0.1083        -0.10662718   
   1084000   241.21732     -5584.4686     -6320.0291     -115.71349      0.01982316     0.1084         0.1982316    
   1085000   253.84601     -5527.0163     -6301.0864      394.52063     -0.03728058     0.1085        -0.3728058    
   1086000   236.84178     -5575.3328     -6297.5507     -190.54538      0.025874277    0.1086         0.25874277   
   1087000   248.35436     -5558.9761     -6316.3001      385.91623     -0.049054496    0.1087        -0.49054496   
   1088000   243.71059     -5536.5268     -6279.6902     -187.99851      0.023528622    0.1088         0.23528622   
   1089000   239.98726     -5578.5379     -6310.3475     -86.557204      0.005147084    0.1089         0.05147084   
   1090000   240.22273     -5533.072      -6265.5996     -243.59004      0.019355972    0.109          0.19355972   
   1091000   244.8736      -5549.2933     -6296.0032     -586.99839      0.065000248    0.1091         0.65000248   
   1092000   249.96072     -5540.3623     -6302.5846      225.82084     -0.020812921    0.1092        -0.20812921   
   1093000   248.64907     -5459.9549     -6218.1776     -656.96283      0.070463993    0.1093         0.70463993   
   1094000   238.01432     -5529.7764     -6255.5698     -407.60494      0.03560068     0.1094         0.3560068    
   1095000   247.33428     -5534.5123     -6288.7257     -349.40363      0.034215354    0.1095         0.34215354   
   1096000   246.45217     -5521.6494     -6273.173      -594.04145      0.056520464    0.1096         0.56520464   
   1097000   252.25773     -5514.5273     -6283.7541     -433.95401      0.042605713    0.1097         0.42605713   
   1098000   236.05171     -5542.2051     -6262.0138      463.98015     -0.047192908    0.1098        -0.47192908   
   1099000   243.23074     -5550.0451     -6291.7453     -304.52652      0.011303038    0.1099         0.11303038   
   1100000   256.09574     -5478.7783     -6259.7087     -258.04145      0.022857151    0.11           0.22857151   
Loop time of 90.8917 on 56 procs for 100000 steps with 1536 atoms

Performance: 95.058 ns/day, 0.252 hours/ns, 1100.211 timesteps/s, 1.690 Matom-step/s
99.8% CPU use with 56 MPI tasks x no OpenMP threads

MPI task timing breakdown:
Section |  min time  |  avg time  |  max time  |%varavg| %total
---------------------------------------------------------------
Pair    | 22.456     | 24.593     | 26.741     |  19.2 | 27.06
Bond    | 0.011163   | 0.014295   | 0.023745   |   1.9 |  0.02
Kspace  | 36.763     | 38.644     | 40.619     |  14.7 | 42.52
Neigh   | 1.7311     | 1.7395     | 1.7419     |   0.2 |  1.91
Comm    | 9.9177     | 10.121     | 10.404     |   3.5 | 11.13
Output  | 0.076605   | 0.12001    | 0.15482    |   6.1 |  0.13
Modify  | 10.729     | 13.6       | 14.756     |  30.9 | 14.96
Other   |            | 2.06       |            |       |  2.27

Nlocal:        27.4286 ave          34 max          18 min
Histogram: 1 0 1 7 5 10 21 3 6 2
Nghost:        4063.34 ave        4110 max        3987 min
Histogram: 1 1 2 6 10 1 11 8 11 5
Neighs:        12008.6 ave       14919 max        7867 min
Histogram: 1 0 2 6 6 9 21 3 6 2

Total # of neighbors = 672483
Ave neighs/atom = 437.81445
Ave special neighs/atom = 2
Neighbor list builds = 1102
Dangerous builds = 0
kspace_style pppm/tip4p 1.0e-5
next nloop
jump SELF loop_start
run 100000 # 100ps
PPPM initialization ...
  extracting TIP4P info from pair style
  using 12-bit tables for long-range coulomb
  G vector (1/distance) = 0.33394757
  grid = 27 30 27
  stencil order = 5
  estimated absolute RMS force accuracy = 0.0025333793
  estimated relative force accuracy = 7.6291964e-06
  using double precision KISS FFT
  3d grid and FFT values/proc = 4576 448
Generated 0 of 1 mixed pair_coeff terms from geometric mixing rule
Per MPI rank memory allocation (min/avg/max) = 9.749 | 9.768 | 9.779 Mbytes
   Step          Temp          TotEng         PotEng          Pxy           v_sxy         v_strain     v_viscosity  
   1100000   256.09539     -5478.7789     -6259.7082     -257.81147      0.022833074    0.11           0.22833074   
   1101000   244.16999     -5502.4344     -6246.9987     -206.93073      0.019689199    0.1101         0.19689199   
   1102000   245.5914      -5524.2682     -6273.1669     -589.74504      0.061120284    0.1102         0.61120284   
   1103000   238.50752     -5588.673      -6315.9704     -848.87045      0.088433746    0.1103         0.88433746   
   1104000   248.58619     -5531.848      -6289.8789      156.33086      0.0013556469   0.1104         0.013556469  
   1105000   241.78871     -5545.7681     -6283.0711     -101.98765      0.012988278    0.1105         0.12988278   
   1106000   248.18595     -5496.1466     -6252.957       575.72771     -0.053890083    0.1106        -0.53890083   
   1107000   238.49293     -5593.4975     -6320.7504      304.67463     -0.029449722    0.1107        -0.29449722   
   1108000   237.52482     -5524.2907     -6248.5915      931.50692     -0.092966847    0.1108        -0.92966847   
   1109000   241.13609     -5588.7699     -6324.0827     -246.31774      0.017709123    0.1109         0.17709123   
   1110000   242.98048     -5548.9051     -6289.8422      255.17657     -0.023168095    0.111         -0.23168095   
   1111000   248.90463     -5558.6348     -6317.6367      179.93845     -0.0079011658   0.1111        -0.079011658  
   1112000   244.58506     -5545.3878     -6291.2178      449.68239     -0.043949692    0.1112        -0.43949692   
   1113000   243.66281     -5506.5525     -6249.5702     -423.32478      0.047126503    0.1113         0.47126503   
   1114000   237.51322     -5519.2336     -6243.4989      226.74127     -0.023892123    0.1114        -0.23892123   
   1115000   244.32763     -5557.6037     -6302.6487      728.54887     -0.077833562    0.1115        -0.77833562   
   1116000   243.26581     -5550.4171     -6292.2242      303.63585     -0.035002353    0.1116        -0.35002353   
   1117000   241.89333     -5573.0828     -6310.7047     -472.4397       0.037639571    0.1117         0.37639571   
   1118000   239.74951     -5577.3593     -6308.444      -959.05197      0.097882963    0.1118         0.97882963   
   1119000   245.4856      -5607.9824     -6356.5585     -499.95063      0.042572631    0.1119         0.42572631   
   1120000   249.84182     -5590.6821     -6352.542       637.49041     -0.054862735    0.112         -0.54862735   
   1121000   230.34889     -5640.9125     -6343.3312     -412.24834      0.037349494    0.1121         0.37349494   
   1122000   250.69411     -5521.9606     -6286.4194     -761.1938       0.055685286    0.1122         0.55685286   
   1123000   248.51521     -5597.5446     -6355.3591      434.03334     -0.03782733     0.1123        -0.3782733    
   1124000   245.48596     -5600.7998     -6349.377      -704.62997      0.071355379    0.1124         0.71355379   
   1125000   236.80388     -5546.7722     -6268.8745      1004.0641     -0.10294462     0.1125        -1.0294462    
   1126000   250.8301      -5539.1113     -6303.9848      879.90012     -0.093373341    0.1126        -0.93373341   
   1127000   252.27804     -5514.7552     -6284.0439      413.78957     -0.048253021    0.1127        -0.48253021   
   1128000   246.90868     -5530.9254     -6283.841       345.96364     -0.04820687     0.1128        -0.4820687    
   1129000   244.53704     -5525.3641     -6271.0476     -204.00557      0.024881897    0.1129         0.24881897   
   1130000   247.09666     -5544.6502     -6298.1391      518.95335     -0.051874997    0.113         -0.51874997   
   1131000   246.25841     -5596.7053     -6347.638      -192.01346      0.020198428    0.1131         0.20198428   
   1132000   247.61108     -5529.3219     -6284.3794     -1244.5189      0.11968427     0.1132         1.1968427    
   1133000   232.75878     -5609.9729     -6319.7403     -683.36187      0.067275149    0.1133         0.67275149   
   1134000   246.22457     -5555.8757     -6306.7052      223.30588     -0.027001951    0.1134        -0.27001951   
   1135000   251.11545     -5517.561      -6283.3046     -1052.1719      0.10518617     0.1135         1.0518617    
   1136000   246.47878     -5594.2401     -6345.8448      351.57042     -0.039684962    0.1136        -0.39684962   
   1137000   246.44123     -5551.3741     -6302.8643     -84.578333     -0.0019423869   0.1137        -0.019423869  
   1138000   253.34583     -5510.566      -6283.1108      478.67138     -0.046662338    0.1138        -0.46662338   
   1139000   251.14532     -5593.1317     -6358.9663     -957.56537      0.099219866    0.1139         0.99219866   
   1140000   253.55066     -5520.8296     -6293.9991      606.86537     -0.047940439    0.114         -0.47940439   
   1141000   242.47796     -5592.9442     -6332.3489      115.80801      0.0027411772   0.1141         0.027411772  
   1142000   251.69332     -5498.4055     -6265.9112     -111.97776      0.011117519    0.1142         0.11117519   
   1143000   236.20703     -5578.9014     -6299.1837      943.09355     -0.082679145    0.1143        -0.82679145   
   1144000   242.37116     -5524.7985     -6263.8775      389.81559     -0.043256596    0.1144        -0.43256596   
   1145000   250.99745     -5493.4791     -6258.8629     -790.04487      0.073207425    0.1145         0.73207425   
   1146000   245.44492     -5532.508      -6280.96        682.13435     -0.082202832    0.1146        -0.82202832   
   1147000   241.4981      -5569.2764     -6305.6931      131.93649     -0.016734936    0.1147        -0.16734936   
   1148000   242.72411     -5547.0413     -6287.1966     -260.00177      0.030555158    0.1148         0.30555158   
   1149000   242.08803     -5531.076      -6269.2916      795.11773     -0.074777919    0.1149        -0.74777919   
   1150000   246.3941      -5490.0659     -6241.4124     -961.05288      0.091412792    0.115          0.91412792   
   1151000   238.75041     -5567.5672     -6295.6053     -124.71779      0.007083913    0.1151         0.07083913   
   1152000   250.09392     -5470.5095     -6233.1381      704.03002     -0.077243853    0.1152        -0.77243853   
   1153000   241.35734     -5501.6566     -6237.6441     -415.0753       0.044101339    0.1153         0.44101339   
   1154000   246.0642      -5545.8027     -6296.1432      49.913285     -0.025480762    0.1154        -0.25480762   
   1155000   248.93847     -5467.6604     -6226.7656     -552.12094      0.05999039     0.1155         0.5999039    
   1156000   246.90567     -5538.0342     -6290.9406     -31.594895      0.0050666013   0.1156         0.050666013  
   1157000   251.43029     -5468.5233     -6235.2269     -472.38446      0.058523675    0.1157         0.58523675   
   1158000   254.39772     -5499.5706     -6275.323      -294.64998      0.050664144    0.1158         0.50664144   
   1159000   241.52852     -5533.3199     -6269.8294     -125.87129      0.0053492775   0.1159         0.053492775  
   1160000   240.93954     -5529.7802     -6264.4937      61.347417     -0.011432575    0.116         -0.11432575   
   1161000   243.97929     -5527.6693     -6271.6521      448.437       -0.053112175    0.1161        -0.53112175   
   1162000   247.22141     -5539.6924     -6293.5616      412.91682     -0.044362101    0.1162        -0.44362101   
   1163000   249.13338     -5541.6442     -6301.3437      352.55592     -0.026441754    0.1163        -0.26441754   
   1164000   249.548       -5489.1123     -6250.0761      1037.5955     -0.093912474    0.1164        -0.93912474   
   1165000   246.12373     -5541.023      -6291.545      -274.5678       0.028896223    0.1165         0.28896223   
   1166000   244.69099     -5519.922      -6266.075      -1000.8168      0.10786704     0.1166         1.0786704    
   1167000   248.46724     -5505.4697     -6263.1379      378.27904     -0.035817604    0.1167        -0.35817604   
   1168000   246.09123     -5493.3079     -6243.7308     -199.59214      0.012862394    0.1168         0.12862394   
   1169000   251.6283      -5460.9117     -6228.2192     -721.16206      0.070648787    0.1169         0.70648787   
   1170000   250.63441     -5497.9827     -6262.2594     -818.9317       0.072249189    0.117          0.72249189   
   1171000   239.21555     -5573.46       -6302.9164      996.66409     -0.10876759     0.1171        -1.0876759    
   1172000   245.08683     -5498.3041     -6245.6642      55.631155     -0.0083064783   0.1172        -0.083064783  
   1173000   249.74179     -5518.5912     -6280.146       948.68315     -0.097031207    0.1173        -0.97031207   
   1174000   241.40025     -5572.3493     -6308.4677     -376.80742      0.042191414    0.1174         0.42191414   
   1175000   245.1103      -5571.0314     -6318.4631      866.048       -0.087750242    0.1175        -0.87750242   
   1176000   252.94826     -5532.4505     -6303.783      -409.52546      0.037291417    0.1176         0.37291417   
   1177000   240.56228     -5619.8743     -6353.4374     -398.55311      0.037164214    0.1177         0.37164214   
   1178000   252.49072     -5550.4805     -6320.4178      93.452767     -0.016706267    0.1178        -0.16706267   
   1179000   241.24854     -5581.3531     -6317.0088     -212.03671      0.021360614    0.1179         0.21360614   
   1180000   250.6587      -5552.7765     -6317.1273      679.82647     -0.057586269    0.118         -0.57586269   
   1181000   241.9341      -5555.0625     -6292.8088     -820.427        0.082949452    0.1181         0.82949452   
   1182000   249.54072     -5574.4114     -6335.353       256.11699     -0.020451444    0.1182        -0.20451444   
   1183000   242.85643     -5623.0475     -6363.6063     -280.40715      0.019073492    0.1183         0.19073492   
   1184000   242.15498     -5544.7125     -6283.1323     -327.5967       0.027507309    0.1184         0.27507309   
   1185000   239.73582     -5580.51       -6311.553       693.93694     -0.059440969    0.1185        -0.59440969   
   1186000   238.71455     -5550.0905     -6278.0192     -33.544272     -0.0032171845   0.1186        -0.032171845  
   1187000   233.97513     -5618.8485     -6332.325       396.54604     -0.043501088    0.1187        -0.43501088   
   1188000   242.00742     -5554.7523     -6292.7222      704.13028     -0.065790883    0.1188        -0.65790883   
   1189000   240.14953     -5552.7251     -6285.0296      206.05942     -0.032381099    0.1189        -0.32381099   
   1190000   247.51108     -5534.8328     -6289.5853     -375.40324      0.042036477    0.119          0.42036477   
   1191000   248.28786     -5620.0517     -6377.1729     -488.53969      0.056460513    0.1191         0.56460513   
   1192000   260.18242     -5520.5313     -6313.9234      3.6177718      0.000699461    0.1192         0.00699461   
   1193000   247.47044     -5544.9192     -6299.5479     -288.27547      0.023875272    0.1193         0.23875272   
   1194000   238.46692     -5606.6786     -6333.8521      281.09076     -0.024643452    0.1194        -0.24643452   
   1195000   240.98957     -5560.6954     -6295.5615     -270.72361      0.024717281    0.1195         0.24717281   
   1196000   251.05715     -5583.2613     -6348.8271      798.44544     -0.08500174     0.1196        -0.8500174    
   1197000   239.03352     -5546.7669     -6275.6683      411.99195     -0.043637063    0.1197        -0.43637063   
   1198000   236.75015     -5590.2974     -6312.2359     -6.2953769     -0.00026369055  0.1198        -0.0026369055 
   1199000   243.11348     -5529.6598     -6271.0024      331.63154     -0.031143445    0.1199        -0.31143445   
   1200000   234.6708      -5626.0741     -6341.6718     -37.041871     -0.0036515717   0.12          -0.036515717  
Loop time of 90.6136 on 56 procs for 100000 steps with 1536 atoms

Performance: 95.350 ns/day, 0.252 hours/ns, 1103.588 timesteps/s, 1.695 Matom-step/s
99.8% CPU use with 56 MPI tasks x no OpenMP threads

MPI task timing breakdown:
Section |  min time  |  avg time  |  max time  |%varavg| %total
---------------------------------------------------------------
Pair    | 21.422     | 24.583     | 26.481     |  20.6 | 27.13
Bond    | 0.011137   | 0.014271   | 0.023667   |   1.9 |  0.02
Kspace  | 36.517     | 38.454     | 41.386     |  15.9 | 42.44
Neigh   | 1.699      | 1.7003     | 1.702      |   0.1 |  1.88
Comm    | 9.9297     | 10.12      | 10.377     |   4.1 | 11.17
Output  | 0.076      | 0.11897    | 0.15374    |   6.1 |  0.13
Modify  | 10.721     | 13.599     | 14.762     |  30.9 | 15.01
Other   |            | 2.025      |            |       |  2.23

Nlocal:        27.4286 ave          32 max          20 min
Histogram: 2 3 1 4 4 12 6 7 9 8
Nghost:        4050.25 ave        4109 max        3972 min
Histogram: 3 0 4 4 8 10 12 7 6 2
Neighs:          12012 ave       14089 max        8699 min
Histogram: 2 3 1 4 7 9 6 8 9 7

Total # of neighbors = 672671
Ave neighs/atom = 437.93685
Ave special neighs/atom = 2
Neighbor list builds = 1085
Dangerous builds = 0
kspace_style pppm/tip4p 1.0e-5
next nloop
jump SELF loop_start
run 100000 # 100ps
PPPM initialization ...
  extracting TIP4P info from pair style
  using 12-bit tables for long-range coulomb
  G vector (1/distance) = 0.33369167
  grid = 27 30 27
  stencil order = 5
  estimated absolute RMS force accuracy = 0.0025727382
  estimated relative force accuracy = 7.7477247e-06
  using double precision KISS FFT
  3d grid and FFT values/proc = 4576 448
Generated 0 of 1 mixed pair_coeff terms from geometric mixing rule
Per MPI rank memory allocation (min/avg/max) = 9.75 | 9.768 | 9.779 Mbytes
   Step          Temp          TotEng         PotEng          Pxy           v_sxy         v_strain     v_viscosity  
   1200000   234.67077     -5626.0734     -6341.6711     -36.793517     -0.0036767872   0.12          -0.036767872  
   1201000   242.45697     -5589.6011     -6328.9418      792.56609     -0.075493197    0.1201        -0.75493197   
   1202000   244.34857     -5609.4107     -6354.5195     -48.994235      0.0061123407   0.1202         0.061123407  
   1203000   252.22321     -5567.1385     -6336.2601      676.02226     -0.069548638    0.1203        -0.69548638   
   1204000   258.60336     -5570.9997     -6359.5767      171.8522      -0.011841511    0.1204        -0.11841511   
   1205000   245.44973     -5607.4632     -6355.9299      1107.9946     -0.1081285      0.1205        -1.081285     
   1206000   252.94454     -5543.1561     -6314.4772     -232.74965      0.013494384    0.1206         0.13494384   
   1207000   233.22026     -5616.7943     -6327.9688      412.53998     -0.043677355    0.1207        -0.43677355   
   1208000   258.61266     -5521.2316     -6309.837      -521.43604      0.05412091     0.1208         0.5412091    
   1209000   238.78341     -5581.2653     -6309.404       671.91802     -0.066750747    0.1209        -0.66750747   
   1210000   252.24081     -5528.6491     -6297.8243      201.99983     -0.02657734     0.121         -0.2657734    
   1211000   237.86293     -5592.4284     -6317.7601      175.08155     -0.0077588517   0.1211        -0.077588517  
   1212000   254.54919     -5519.3785     -6295.5928     -567.89006      0.056443456    0.1212         0.56443456   
   1213000   241.81126     -5551.7174     -6289.089      -635.49002      0.060536427    0.1213         0.60536427   
   1214000   242.73836     -5566.9115     -6307.1102     -540.57237      0.053552253    0.1214         0.53552253   
   1215000   245.07317     -5487.7899     -6235.1084     -1.4430888      0.00018491343  0.1215         0.0018491343 
   1216000   250.13552     -5508.0267     -6270.7822      406.88835     -0.035404852    0.1216        -0.35404852   
   1217000   243.14762     -5555.4063     -6296.853       450.42671     -0.036057537    0.1217        -0.36057537   
   1218000   251.98066     -5533.2476     -6301.6295     -22.635776      0.0067990949   0.1218         0.067990949  
   1219000   249.41125     -5495.552      -6256.0989     -224.11827      0.020397829    0.1219         0.20397829   
   1220000   246.84264     -5498.6812     -6251.3955      404.42437     -0.032527124    0.122         -0.32527124   
   1221000   235.6218      -5575.3717     -6293.8694      37.059068     -0.0073022049   0.1221        -0.073022049  
   1222000   255.77354     -5465.9005     -6245.8483      288.85359     -0.030860024    0.1222        -0.30860024   
   1223000   244.86708     -5563.6246     -6310.3146      616.20614     -0.063802573    0.1223        -0.63802573   
   1224000   245.62036     -5514.7409     -6263.728       264.71159     -0.03169102     0.1224        -0.3169102    
   1225000   244.82098     -5500.3911     -6246.9405      609.30805     -0.069618346    0.1225        -0.69618346   
   1226000   240.26642     -5560.6992     -6293.3601      108.89428     -0.0038280642   0.1226        -0.038280642  
   1227000   247.87304     -5475.8949     -6231.7512     -10.287781     -0.003309783    0.1227        -0.03309783   
   1228000   247.82803     -5559.4623     -6315.1814      120.09313     -0.018405403    0.1228        -0.18405403   
   1229000   247.58658     -5505.9868     -6260.9695      24.377582     -0.0079415531   0.1229        -0.079415531  
   1230000   244.61781     -5533.7929     -6279.7228      949.65703     -0.097983418    0.123         -0.97983418   
   1231000   249.1072      -5472.7854     -6232.4051      212.60491     -0.035650445    0.1231        -0.35650445   
   1232000   245.3836      -5496.6783     -6244.9433     -666.75538      0.069210452    0.1232         0.69210452   
   1233000   242.14665     -5513.6153     -6252.0097      27.416064     -0.0064575308   0.1233        -0.064575308  
   1234000   248.19277     -5501.0954     -6257.9266      710.56308     -0.077960308    0.1234        -0.77960308   
   1235000   246.52232     -5537.1046     -6288.842       443.7693      -0.041759909    0.1235        -0.41759909   
   1236000   254.53233     -5508.3491     -6284.512       644.30232     -0.06744652     0.1236        -0.6744652    
   1237000   236.65969     -5599.0791     -6320.7418     -492.58171      0.044061457    0.1237         0.44061457   
   1238000   238.00092     -5537.2301     -6262.9826      302.3039      -0.026517439    0.1238        -0.26517439   
   1239000   243.29536     -5584.0947     -6325.9919      291.36629     -0.029985505    0.1239        -0.29985505   
   1240000   241.1637      -5531.0618     -6266.4588     -281.84924      0.032426696    0.124          0.32426696   
   1241000   257.08412     -5525.8822     -6309.8264      558.34062     -0.055855693    0.1241        -0.55855693   
   1242000   244.71548     -5588.1728     -6334.4005      491.43167     -0.06010858     0.1242        -0.6010858    
   1243000   235.57889     -5574.337      -6292.7039     -258.91812      0.024038019    0.1243         0.24038019   
   1244000   233.19522     -5574.5173     -6285.6155      76.256271     -0.0041982317   0.1244        -0.041982317  
   1245000   241.6169      -5580.2828     -6317.0618      90.582442     -0.0053972228   0.1245        -0.053972228  
   1246000   243.00394     -5571.8686     -6312.8772     -137.52954      0.022954463    0.1246         0.22954463   
   1247000   239.94058     -5557.8337     -6289.501       253.94889     -0.028824237    0.1247        -0.28824237   
   1248000   241.52889     -5525.9096     -6262.4203     -53.615061      0.00801463     0.1248         0.0801463    
   1249000   244.87667     -5606.8713     -6353.5905      759.78401     -0.084867294    0.1249        -0.84867294   
   1250000   243.45977     -5579.1676     -6321.5662     -25.414391      0.005483969    0.125          0.05483969   
   1251000   249.40393     -5544.2296     -6304.7541     -347.50023      0.035393919    0.1251         0.35393919   
   1252000   246.75942     -5558.1648     -6310.6253     -359.28027      0.034072566    0.1252         0.34072566   
   1253000   242.17037     -5577.0963     -6315.5631      1295.0611     -0.13547633     0.1253        -1.3547633    
   1254000   245.10796     -5559.2777     -6306.7022      284.0825      -0.023622155    0.1254        -0.23622155   
   1255000   236.73091     -5612.332      -6334.2118      925.11656     -0.089440638    0.1255        -0.89440638   
   1256000   244.03018     -5562.9964     -6307.1343     -1000.0763      0.097135945    0.1256         0.97135945   
   1257000   240.85537     -5569.4511     -6303.9079     -456.03741      0.050455323    0.1257         0.50455323   
   1258000   242.18577     -5504.2907     -6242.8044      455.66185     -0.05333812     0.1258        -0.5333812    
   1259000   243.68625     -5540.019      -6283.1082      599.57588     -0.05737905     0.1259        -0.5737905    
   1260000   240.37627     -5558.9965     -6291.9924     -278.72202      0.027615912    0.126          0.27615912   
   1261000   259.02368     -5535.8558     -6325.7145     -345.94482      0.028135093    0.1261         0.28135093   
   1262000   235.81546     -5637.4009     -6356.4892      546.51945     -0.049540331    0.1262        -0.49540331   
   1263000   252.69783     -5537.5438     -6308.1126     -84.930388      0.0075970823   0.1263         0.075970823  
   1264000   242.00038     -5582.5223     -6320.4707      267.52294     -0.023338875    0.1264        -0.23338875   
   1265000   247.85023     -5616.2619     -6372.0486     -14.868094      0.0017598953   0.1265         0.017598953  
   1266000   242.37774     -5533.2419     -6272.341      -11.708121      0.0084981791   0.1266         0.084981791  
   1267000   241.50598     -5556.8435     -6293.2843      589.18798     -0.066163066    0.1267        -0.66163066   
   1268000   237.68801     -5621.8128     -6346.6111      138.21402     -0.0018695686   0.1268        -0.018695686  
   1269000   244.89847     -5545.4605     -6292.2462      378.9869      -0.037343953    0.1269        -0.37343953   
   1270000   237.78495     -5649.431      -6374.525      -190.09159      0.018846255    0.127          0.18846255   
   1271000   247.04235     -5540.036      -6293.3592     -643.86417      0.068163375    0.1271         0.68163375   
   1272000   246.69476     -5606.9546     -6359.2179     -809.10602      0.083890745    0.1272         0.83890745   
   1273000   245.708       -5557.4572     -6306.7115      60.81766      -0.0071156436   0.1273        -0.071156436  
   1274000   251.12708     -5587.2891     -6353.0681      152.48443     -0.0053287292   0.1274        -0.053287292  
   1275000   237.54921     -5572.7884     -6297.1635      252.08122     -0.02913421     0.1275        -0.2913421    
   1276000   256.8523      -5537.5993     -6320.8366      283.90309     -0.027859272    0.1276        -0.27859272   
   1277000   246.80811     -5600.8202     -6353.4291     -284.30004      0.038350112    0.1277         0.38350112   
   1278000   250.65389     -5539.7461     -6304.0823      139.67558     -0.013722033    0.1278        -0.13722033   
   1279000   231.82338     -5556.8397     -6263.7546      634.39321     -0.072604456    0.1279        -0.72604456   
   1280000   247.96685     -5566.6102     -6322.7526      446.10742     -0.047726367    0.128         -0.47726367   
   1281000   252.89986     -5526.3505     -6297.5354      328.89488     -0.030263738    0.1281        -0.30263738   
   1282000   233.79617     -5621.885      -6334.8157      195.18734     -0.017654213    0.1282        -0.17654213   
   1283000   248.55409     -5523.6207     -6281.5537     -488.46054      0.049226278    0.1283         0.49226278   
   1284000   237.66653     -5619.7884     -6344.5212     -452.75347      0.04957613     0.1284         0.4957613    
   1285000   240.25453     -5591.9023     -6324.527      -127.80194      0.024336739    0.1285         0.24336739   
   1286000   247.17602     -5563.1267     -6316.8575     -127.00117      0.018576217    0.1286         0.18576217   
   1287000   238.49807     -5633.4473     -6360.7159     -950.50063      0.093330781    0.1287         0.93330781   
   1288000   246.2397      -5535.4839     -6286.3595      413.14244     -0.038543294    0.1288        -0.38543294   
   1289000   240.08271     -5588.762      -6320.8627      218.01546     -0.025711896    0.1289        -0.25711896   
   1290000   251.64415     -5565.7601     -6333.1159      800.46386     -0.080219293    0.129         -0.80219293   
   1291000   244.80653     -5594.2605     -6340.7658      66.846777     -0.0096425088   0.1291        -0.096425088  
   1292000   246.95293     -5557.1119     -6310.1625      601.92822     -0.055959859    0.1292        -0.55959859   
   1293000   240.84867     -5623.7711     -6358.2075      861.74426     -0.095010815    0.1293        -0.95010815   
   1294000   251.88128     -5551.7609     -6319.8398      720.94195     -0.061643967    0.1294        -0.61643967   
   1295000   247.00408     -5584.9477     -6338.1542      669.48505     -0.061188758    0.1295        -0.61188758   
   1296000   243.98708     -5530.1021     -6274.1086      1115.0583     -0.10721518     0.1296        -1.0721518    
   1297000   243.90401     -5550.8517     -6294.605       757.1335      -0.065333267    0.1297        -0.65333267   
   1298000   241.54832     -5519.2482     -6255.8181      967.51134     -0.093450781    0.1298        -0.93450781   
   1299000   246.08206     -5557.0021     -6307.397       297.92249     -0.035916258    0.1299        -0.35916258   
   1300000   251.11315     -5559.4691     -6325.2056      91.211543     -0.010347292    0.13          -0.10347292   
Loop time of 90.8632 on 56 procs for 100000 steps with 1536 atoms

Performance: 95.088 ns/day, 0.252 hours/ns, 1100.555 timesteps/s, 1.690 Matom-step/s
99.8% CPU use with 56 MPI tasks x no OpenMP threads

MPI task timing breakdown:
Section |  min time  |  avg time  |  max time  |%varavg| %total
---------------------------------------------------------------
Pair    | 20.858     | 24.59      | 26.467     |  22.5 | 27.06
Bond    | 0.011188   | 0.014274   | 0.02318    |   1.9 |  0.02
Kspace  | 36.854     | 38.649     | 42.171     |  17.1 | 42.54
Neigh   | 1.7001     | 1.7014     | 1.7025     |   0.0 |  1.87
Comm    | 9.9594     | 10.122     | 10.331     |   3.2 | 11.14
Output  | 0.076096   | 0.11994    | 0.15497    |   6.1 |  0.13
Modify  | 10.699     | 13.617     | 14.774     |  31.0 | 14.99
Other   |            | 2.05       |            |       |  2.26

Nlocal:        27.4286 ave          37 max          18 min
Histogram: 1 0 6 11 12 11 9 2 2 2
Nghost:        4065.54 ave        4125 max        3987 min
Histogram: 2 3 0 8 8 8 9 11 4 3
Neighs:        11996.1 ave       16171 max        7883 min
Histogram: 1 1 5 11 12 11 9 2 2 2

Total # of neighbors = 671782
Ave neighs/atom = 437.35807
Ave special neighs/atom = 2
Neighbor list builds = 1075
Dangerous builds = 0
kspace_style pppm/tip4p 1.0e-5
next nloop
jump SELF loop_start
run 100000 # 100ps
PPPM initialization ...
  extracting TIP4P info from pair style
  using 12-bit tables for long-range coulomb
  G vector (1/distance) = 0.33334408
  grid = 27 30 27
  stencil order = 5
  estimated absolute RMS force accuracy = 0.0026200866
  estimated relative force accuracy = 7.8903131e-06
  using double precision KISS FFT
  3d grid and FFT values/proc = 4576 448
Generated 0 of 1 mixed pair_coeff terms from geometric mixing rule
Per MPI rank memory allocation (min/avg/max) = 9.75 | 9.768 | 9.779 Mbytes
   Step          Temp          TotEng         PotEng          Pxy           v_sxy         v_strain     v_viscosity  
   1300000   251.11334     -5559.4687     -6325.2059      91.530429     -0.010380521    0.13          -0.10380521   
   1301000   241.56997     -5572.4838     -6309.1197      565.47653     -0.056905271    0.1301        -0.56905271   
   1302000   250.95548     -5580.341      -6345.5968      1068.1945     -0.10746489     0.1302        -1.0746489    
   1303000   245.01212     -5556.3904     -6303.5226      391.32745     -0.03806126     0.1303        -0.3806126    
   1304000   243.87297     -5544.3404     -6287.999      -510.94734      0.04106799     0.1304         0.4106799    
   1305000   246.77934     -5533.4697     -6285.9908     -120.54291      0.0073289503   0.1305         0.073289503  
   1306000   246.47405     -5550.0223     -6301.6126     -543.09852      0.059163491    0.1306         0.59163491   
   1307000   246.93083     -5585.3169     -6338.3001     -464.67474      0.037168271    0.1307         0.37168271   
   1308000   240.68922     -5524.97       -6258.9202      377.50329     -0.043200392    0.1308        -0.43200392   
   1309000   229.38103     -5590.0918     -6289.5591     -242.40576      0.019297184    0.1309         0.19297184   
   1310000   246.5065      -5508.5901     -6260.2793     -174.63665      0.0046401657   0.131          0.046401657  
   1311000   243.58846     -5533.1485     -6275.9395      814.60625     -0.077746994    0.1311        -0.77746994   
   1312000   243.87841     -5508.2996     -6251.9748     -470.48716      0.045947533    0.1312         0.45947533   
   1313000   247.88664     -5490.1723     -6246.0701      458.29317     -0.049618617    0.1313        -0.49618617   
   1314000   243.62485     -5528.8852     -6271.7871      104.88408     -0.0089864794   0.1314        -0.089864794  
   1315000   241.58031     -5521.3225     -6257.9899     -724.03218      0.074820669    0.1315         0.74820669   
   1316000   241.38257     -5564.9485     -6301.013      -458.31007      0.054864352    0.1316         0.54864352   
   1317000   251.10766     -5488.6949     -6254.4147     -553.99462      0.052759644    0.1317         0.52759644   
   1318000   244.57156     -5527.6462     -6273.4351     -778.5126       0.076200282    0.1318         0.76200282   
   1319000   249.87829     -5542.9211     -6304.8922      87.921179     -0.010825353    0.1319        -0.10825353   
   1320000   248.75839     -5577.539      -6336.0951      272.24477     -0.032654367    0.132         -0.32654367   
   1321000   248.5818      -5535.9211     -6293.9386      104.39578     -0.0030976827   0.1321        -0.030976827  
   1322000   243.94679     -5620.3599     -6364.2436     -340.20281      0.039180513    0.1322         0.39180513   
   1323000   246.61983     -5538.1321     -6290.1668     -480.99265      0.046503777    0.1323         0.46503777   
   1324000   243.69733     -5559.5888     -6302.7118      104.81301      0.0018154912   0.1324         0.018154912  
   1325000   246.58115     -5604.3994     -6356.3162     -178.23762      0.018664637    0.1325         0.18664637   
   1326000   255.43519     -5528.4905     -6307.4065     -494.39806      0.056970218    0.1326         0.56970218   
   1327000   245.88977     -5573.0794     -6322.888       309.89617     -0.024755542    0.1327        -0.24755542   
   1328000   250.89204     -5526.0927     -6291.155       890.34666     -0.090682167    0.1328        -0.90682167   
   1329000   242.52094     -5591.7189     -6331.2546      25.531359     -0.0015345049   0.1329        -0.015345049  
   1330000   248.16516     -5550.9057     -6307.6528      909.05007     -0.10119399     0.133         -1.0119399    
   1331000   238.16954     -5583.1245     -6309.3912      160.80122     -0.0077639159   0.1331        -0.077639159  
   1332000   247.27249     -5565.0229     -6319.0479     -1571.877       0.16390603     0.1332         1.6390603    
   1333000   238.12733     -5590.8657     -6317.0037      511.94642     -0.052088722    0.1333        -0.52088722   
   1334000   245.98072     -5557.974      -6308.0599      90.213043     -0.018528373    0.1334        -0.18528373   
   1335000   251.62677     -5514.29       -6281.5928      550.11404     -0.043952974    0.1335        -0.43952974   
   1336000   243.63639     -5548.961      -6291.8981      339.92461     -0.030774093    0.1336        -0.30774093   
   1337000   250.64617     -5516.6294     -6280.942      -655.38405      0.072258577    0.1337         0.72258577   
   1338000   238.73568     -5546.2196     -6274.2127      338.87768     -0.031541838    0.1338        -0.31541838   
   1339000   247.07704     -5510.8665     -6264.2955     -767.71492      0.073777745    0.1339         0.73777745   
   1340000   243.12048     -5595.3386     -6336.7026     -82.725681      0.0079942785   0.134          0.079942785  
   1341000   239.36043     -5580.0852     -6309.9834     -104.43063      0.014322723    0.1341         0.14322723   
   1342000   238.67729     -5528.1291     -6255.9442     -21.89891       0.0065634926   0.1342         0.065634926  
   1343000   237.33722     -5557.8096     -6281.5382     -418.32095      0.042889304    0.1343         0.42889304   
   1344000   247.91753     -5557.8948     -6313.8868      14.103208      0.0041019105   0.1344         0.041019105  
   1345000   244.32119     -5558.1751     -6303.2005      485.44467     -0.0399771      0.1345        -0.399771     
   1346000   233.49078     -5545.5596     -6257.5591      484.19365     -0.048166022    0.1346        -0.48166022   
   1347000   249.22746     -5598.6026     -6358.589      -1317.934       0.12823176     0.1347         1.2823176    
   1348000   252.21917     -5493.5712     -6262.6804     -656.32254      0.067520694    0.1348         0.67520694   
   1349000   235.50366     -5562.501      -6280.6385      178.16058     -0.017188524    0.1349        -0.17188524   
   1350000   249.61101     -5559.6042     -6320.7602     -694.32726      0.074628552    0.135          0.74628552   
   1351000   246.95354     -5551.9547     -6305.0071      840.21697     -0.08369299     0.1351        -0.8369299    
   1352000   241.60851     -5586.4153     -6323.1687     -978.76625      0.098667909    0.1352         0.98667909   
   1353000   246.3452      -5528.4437     -6279.6411     -989.59995      0.093358819    0.1353         0.93358819   
   1354000   244.09234     -5546.0827     -6290.4103      462.30223     -0.046794611    0.1354        -0.46794611   
   1355000   253.68726     -5527.782      -6301.3679     -122.06306      0.012488807    0.1355         0.12488807   
   1356000   247.36956     -5559.3645     -6313.6855      291.83252     -0.023093496    0.1356        -0.23093496   
   1357000   242.73506     -5519.1635     -6259.3522      519.04846     -0.053538181    0.1357        -0.53538181   
   1358000   237.83251     -5603.9218     -6329.1608      667.97963     -0.066711464    0.1358        -0.66711464   
   1359000   242.37718     -5563.1449     -6302.2422     -348.0973       0.028373176    0.1359         0.28373176   
   1360000   252.29071     -5523.4253     -6292.7527      657.93219     -0.065630463    0.136         -0.65630463   
   1361000   242.04643     -5559.8483     -6297.9371      300.4621      -0.03447133     0.1361        -0.3447133    
   1362000   248.57658     -5580.0109     -6338.0125     -532.19191      0.04699227     0.1362         0.4699227    
   1363000   249.53524     -5545.1573     -6306.0822     -345.26343      0.036373761    0.1363         0.36373761   
   1364000   241.15577     -5607.1427     -6342.5156      421.95881     -0.038671337    0.1364        -0.38671337   
   1365000   240.09155     -5579.9393     -6312.067      -825.49663      0.082808067    0.1365         0.82808067   
   1366000   241.95993     -5553.9984     -6291.8234      143.14119     -0.019149422    0.1366        -0.19149422   
   1367000   247.89128     -5579.729      -6335.6409      297.05165     -0.017724709    0.1367        -0.17724709   
   1368000   244.11738     -5568.8583     -6313.2622     -254.46098      0.019386335    0.1368         0.19386335   
   1369000   239.619       -5614.7461     -6345.4328      113.9552      -0.012594617    0.1369        -0.12594617   
   1370000   250.57099     -5524.4979     -6288.5812      1136.1821     -0.11282517     0.137         -1.1282517    
   1371000   249.43873     -5518.8743     -6279.5049      195.66892     -0.032663462    0.1371        -0.32663462   
   1372000   242.86841     -5523.9627     -6264.558      -404.70312      0.042898555    0.1372         0.42898555   
   1373000   245.63728     -5547.3121     -6296.3507      719.78789     -0.07369615     0.1373        -0.7369615    
   1374000   242.97996     -5567.0386     -6307.9741     -1151.5692      0.1106007      0.1374         1.106007     
   1375000   245.58776     -5533.6423     -6282.5299      491.76796     -0.050660571    0.1375        -0.50660571   
   1376000   249.78307     -5484.3682     -6246.0489      743.62061     -0.084575873    0.1376        -0.84575873   
   1377000   242.68821     -5563.9839     -6304.0297     -390.96317      0.043304026    0.1377         0.43304026   
   1378000   242.88803     -5534.4712     -6275.1264     -1740.5503      0.16436313     0.1378         1.6436313    
   1379000   251.10875     -5484.5927     -6250.3158      607.22663     -0.069022997    0.1379        -0.69022997   
   1380000   249.13341     -5514.5274     -6274.227      -752.68454      0.079089782    0.138          0.79089782   
   1381000   237.15717     -5565.1855     -6288.3652      472.05132     -0.049699772    0.1381        -0.49699772   
   1382000   240.54337     -5464.4045     -6197.9099      639.9091      -0.052899732    0.1382        -0.52899732   
   1383000   236.68315     -5525.8712     -6247.6054      730.56965     -0.07349706     0.1383        -0.7349706    
   1384000   254.30666     -5439.5189     -6214.9937      75.703618     -0.013729073    0.1384        -0.13729073   
   1385000   251.82802     -5505.859      -6273.7755     -489.40334      0.058985945    0.1385         0.58985945   
   1386000   263.82095     -5472.2095     -6276.6968     -440.70676      0.053998345    0.1386         0.53998345   
   1387000   236.76489     -5575.871      -6297.8545      672.2124      -0.068210011    0.1387        -0.68210011   
   1388000   241.217       -5489.455      -6225.0145      177.20458     -0.01411315     0.1388        -0.1411315    
   1389000   239.30899     -5558.3289     -6288.0702      492.38592     -0.045502005    0.1389        -0.45502005   
   1390000   240.20871     -5487.7147     -6220.1997     -5.6461296     -0.0055856502   0.139         -0.055856502  
   1391000   238.63528     -5536.0323     -6263.7192      673.72352     -0.057612059    0.1391        -0.57612059   
   1392000   245.0277      -5457.7943     -6204.9741      42.475062     -0.0014826068   0.1392        -0.014826068  
   1393000   250.87356     -5497.3877     -6262.3937      974.31601     -0.087713077    0.1393        -0.87713077   
   1394000   254.80903     -5545.6464     -6322.6531      85.779741     -0.012108355    0.1394        -0.12108355   
   1395000   246.23389     -5561.3347     -6312.1926     -175.35671      0.017947425    0.1395         0.17947425   
   1396000   264.29342     -5519.8292     -6325.7572      491.93937     -0.047747583    0.1396        -0.47747583   
   1397000   254.10824     -5478.4628     -6253.3325     -233.22356      0.019908334    0.1397         0.19908334   
   1398000   239.93122     -5568.5389     -6300.1777     -103.07611      0.018336047    0.1398         0.18336047   
   1399000   256.86251     -5506.298      -6289.5665     -338.53089      0.040536244    0.1399         0.40536244   
   1400000   244.77188     -5534.6416     -6281.0413      251.83538     -0.016707399    0.14          -0.16707399   
Loop time of 90.8911 on 56 procs for 100000 steps with 1536 atoms

Performance: 95.059 ns/day, 0.252 hours/ns, 1100.217 timesteps/s, 1.690 Matom-step/s
99.8% CPU use with 56 MPI tasks x no OpenMP threads

MPI task timing breakdown:
Section |  min time  |  avg time  |  max time  |%varavg| %total
---------------------------------------------------------------
Pair    | 22.169     | 24.693     | 27.01      |  20.6 | 27.17
Bond    | 0.011275   | 0.014407   | 0.025322   |   2.0 |  0.02
Kspace  | 36.389     | 38.538     | 41.039     |  16.1 | 42.40
Neigh   | 1.6848     | 1.6863     | 1.6875     |   0.0 |  1.86
Comm    | 9.9289     | 10.11      | 10.373     |   3.4 | 11.12
Output  | 0.076426   | 0.11955    | 0.1545     |   6.1 |  0.13
Modify  | 10.712     | 13.603     | 14.769     |  31.1 | 14.97
Other   |            | 2.127      |            |       |  2.34

Nlocal:        27.4286 ave          34 max          21 min
Histogram: 7 2 4 9 6 8 7 6 2 5
Nghost:        4063.09 ave        4155 max        4006 min
Histogram: 7 6 9 11 5 6 6 3 2 1
Neighs:        12002.4 ave       14918 max        9160 min
Histogram: 6 4 4 7 7 8 6 7 2 5

Total # of neighbors = 672133
Ave neighs/atom = 437.58659
Ave special neighs/atom = 2
Neighbor list builds = 1068
Dangerous builds = 0
kspace_style pppm/tip4p 1.0e-5
next nloop
jump SELF loop_start
run 100000 # 100ps
PPPM initialization ...
  extracting TIP4P info from pair style
  using 12-bit tables for long-range coulomb
  G vector (1/distance) = 0.33304713
  grid = 27 30 27
  stencil order = 5
  estimated absolute RMS force accuracy = 0.0026681475
  estimated relative force accuracy = 8.0350471e-06
  using double precision KISS FFT
  3d grid and FFT values/proc = 4576 448
Generated 0 of 1 mixed pair_coeff terms from geometric mixing rule
Per MPI rank memory allocation (min/avg/max) = 9.75 | 9.768 | 9.779 Mbytes
   Step          Temp          TotEng         PotEng          Pxy           v_sxy         v_strain     v_viscosity  
   1400000   244.77222     -5534.6398     -6281.0406      251.97895     -0.016722412    0.14          -0.16722412   
   1401000   261.60955     -5455.6731     -6253.417      -357.55729      0.041533895    0.1401         0.41533895   
   1402000   241.15271     -5555.8996     -6291.2631     -563.12328      0.048897898    0.1402         0.48897898   
   1403000   250.21847     -5510.4239     -6273.4323      201.97441     -0.019753969    0.1403        -0.19753969   
   1404000   252.70762     -5448.7244     -6219.323      -304.41799      0.035441766    0.1404         0.35441766   
   1405000   254.27022     -5522.1747     -6297.5384     -889.04294      0.083297081    0.1405         0.83297081   
   1406000   246.03116     -5536.516      -6286.7557     -39.251608      0.0031756394   0.1406         0.031756394  
   1407000   257.59948     -5492.6441     -6278.1599      459.57788     -0.049158178    0.1407        -0.49158178   
   1408000   254.87243     -5530.4435     -6307.6435      16.157118      0.0028325456   0.1408         0.028325456  
   1409000   242.03468     -5560.8336     -6298.8866      155.97766     -0.02412552     0.1409        -0.2412552    
   1410000   239.07198     -5527.56       -6256.5786     -641.5524       0.067054612    0.141          0.67054612   
   1411000   241.59095     -5508.851      -6245.5509     -815.53567      0.082818902    0.1411         0.82818902   
   1412000   249.43813     -5555.7292     -6316.3581     -329.84054      0.024683418    0.1412         0.24683418   
   1413000   252.5506      -5536.8282     -6306.9481     -377.22567      0.033071715    0.1413         0.33071715   
   1414000   248.37565     -5569.3514     -6326.7404     -566.6368       0.058361437    0.1414         0.58361437   
   1415000   250.19875     -5492.0385     -6254.9867     -667.02923      0.064730395    0.1415         0.64730395   
   1416000   246.8247      -5519.9841     -6272.6436     -85.75599       0.0085609726   0.1416         0.085609726  
   1417000   234.80213     -5585.4523     -6301.4505      290.03647     -0.020084678    0.1417        -0.20084678   
   1418000   256.86417     -5514.2332     -6297.5068      666.15666     -0.064120372    0.1418        -0.64120372   
   1419000   251.71497     -5528.9744     -6296.5462      579.10234     -0.049705357    0.1419        -0.49705357   
   1420000   245.19121     -5502.7856     -6250.464      -587.80673      0.063895671    0.142          0.63895671   
   1421000   254.82653     -5524.7913     -6301.8513     -121.90938      0.011421229    0.1421         0.11421229   
   1422000   235.45539     -5567.4695     -6285.4598     -287.25053      0.028965623    0.1422         0.28965623   
   1423000   245.65039     -5553.625      -6302.7036     -17.685418      0.0009085344   0.1423         0.009085344  
   1424000   233.56891     -5589.4798     -6301.7176     -552.76892      0.05434633     0.1424         0.5434633    
   1425000   238.20499     -5552.744      -6279.1188     -33.497964      0.0096852665   0.1425         0.096852665  
   1426000   238.42896     -5571.3522     -6298.41        665.57871     -0.069384646    0.1426        -0.69384646   
   1427000   250.75843     -5560.6745     -6325.3294      320.39941     -0.038666055    0.1427        -0.38666055   
   1428000   241.20092     -5535.0338     -6270.5444      211.55113     -0.019652161    0.1428        -0.19652161   
   1429000   251.11292     -5520.2925     -6286.0284      262.76171     -0.0284862      0.1429        -0.284862     
   1430000   242.75388     -5581.1924     -6321.4384     -686.97474      0.064716824    0.143          0.64716824   
   1431000   239.10115     -5570.6044     -6299.712      -275.46128      0.028776948    0.1431         0.28776948   
   1432000   246.60909     -5551.4637     -6303.4658     -1005.6001      0.099215369    0.1432         0.99215369   
   1433000   245.13907     -5564.1252     -6311.6446     -125.60036      0.0090300756   0.1433         0.090300756  
   1434000   247.5228      -5514.9318     -6269.7201      640.57524     -0.059703646    0.1434        -0.59703646   
   1435000   255.23902     -5513.44       -6291.7579      203.79441     -0.013499439    0.1435        -0.13499439   
   1436000   255.68508     -5525.1662     -6304.8442     -382.48318      0.03177427     0.1436         0.3177427    
   1437000   255.82175     -5501.2452     -6281.34       -832.67423      0.074160007    0.1437         0.74160007   
   1438000   236.00639     -5585.0157     -6304.6861     -1109.1091      0.11569739     0.1438         1.1569739    
   1439000   246.76404     -5556.1871     -6308.6616      223.29453     -0.00946955     0.1439        -0.0946955    
   1440000   241.3978      -5618.1328     -6354.2437     -461.79934      0.053659101    0.144          0.53659101   
   1441000   254.72361     -5525.739      -6302.4852      408.70526     -0.020614071    0.1441        -0.20614071   
   1442000   243.69359     -5550.3256     -6293.4372      50.209848     -0.0045040237   0.1442        -0.045040237  
   1443000   248.19048     -5536.8667     -6293.691       135.55927     -0.018056502    0.1443        -0.18056502   
   1444000   241.29841     -5590.434      -6326.2418      18.821374     -0.0035518104   0.1444        -0.035518104  
   1445000   245.33848     -5533.6843     -6281.8118     -61.149259      0.0083172035   0.1445         0.083172035  
   1446000   249.43445     -5479.3017     -6239.9193      387.6459      -0.033506568    0.1446        -0.33506568   
   1447000   245.97661     -5515.735      -6265.8084     -62.932069      0.00082017518  0.1447         0.0082017518 
   1448000   249.86899     -5464.5538     -6226.4965      205.48181      0.0031363712   0.1448         0.031363712  
   1449000   252.00348     -5487.7156     -6256.1671      22.894536     -0.013127318    0.1449        -0.13127318   
   1450000   258.83571     -5457.4901     -6246.7756      10.142392      0.0058144862   0.145          0.058144862  
   1451000   240.04903     -5532.6375     -6264.6355     -826.01401      0.098533153    0.1451         0.98533153   
   1452000   245.49141     -5487.0853     -6235.6791      585.0236      -0.057151903    0.1452        -0.57151903   
   1453000   234.46931     -5554.3127     -6269.2961     -1.4588845     -9.2206984e-05  0.1453        -0.00092206984
   1454000   254.42981     -5497.3415     -6273.1918      487.77419     -0.042474072    0.1454        -0.42474072   
   1455000   239.91567     -5536.8777     -6268.469      -500.77853      0.043253803    0.1455         0.43253803   
   1456000   263.00879     -5440.9037     -6242.9144     -111.47211      0.020682743    0.1456         0.20682743   
   1457000   231.97047     -5559.6557     -6267.0191     -218.84287      0.018712574    0.1457         0.18712574   
   1458000   246.68415     -5558.6846     -6310.9156     -342.31122      0.049268396    0.1458         0.49268396   
   1459000   247.77249     -5529.1899     -6284.7396     -208.99445      0.03008142     0.1459         0.3008142    
   1460000   254.75257     -5538.2203     -6315.0547     -463.71782      0.050199954    0.146          0.50199954   
   1461000   242.73415     -5507.2714     -6247.4573     -307.65744      0.028922002    0.1461         0.28922002   
   1462000   245.44125     -5542.3699     -6290.8108     -628.12171      0.055148835    0.1462         0.55148835   
   1463000   249.45498     -5473.6739     -6234.3541      207.72484     -0.01765741     0.1463        -0.1765741    
   1464000   238.62589     -5533.6299     -6261.2883      474.94772     -0.041868365    0.1464        -0.41868365   
   1465000   252.56564     -5504.4982     -6274.664       45.097539      0.00056888918  0.1465         0.0056888918 
   1466000   249.43846     -5518.1156     -6278.7454      533.56107     -0.052729332    0.1466        -0.52729332   
   1467000   250.41055     -5472.5463     -6236.1404      142.19786     -0.0093904269   0.1467        -0.093904269  
   1468000   243.43838     -5510.1083     -6252.4417      269.65828     -0.041236914    0.1468        -0.41236914   
   1469000   253.11077     -5476.418      -6248.246      -794.31761      0.074450461    0.1469         0.74450461   
   1470000   235.89588     -5577.6018     -6296.9354     -299.02023      0.027032788    0.147          0.27032788   
   1471000   254.98402     -5514.502      -6292.0423     -134.72759      0.013000244    0.1471         0.13000244   
   1472000   239.78897     -5570.2237     -6301.4287     -1062.7866      0.10275249     0.1472         1.0275249    
   1473000   242.15079     -5561.6136     -6300.0207     -437.15985      0.049856134    0.1473         0.49856134   
   1474000   246.83124     -5558.5568     -6311.2363     -344.25163      0.040178089    0.1474         0.40178089   
   1475000   255.81543     -5535.6667     -6315.7423     -323.66648      0.026387941    0.1475         0.26387941   
   1476000   249.81758     -5545.071      -6306.8569     -109.83832      0.0064059076   0.1476         0.064059076  
   1477000   250.84062     -5538.4004     -6303.3059     -541.26011      0.058255558    0.1477         0.58255558   
   1478000   245.43328     -5558.9651     -6307.3816     -988.16826      0.11246423     0.1478         1.1246423    
   1479000   254.84824     -5532.1013     -6309.2276     -1118.3231      0.11525362     0.1479         1.1525362    
   1480000   249.94282     -5572.688      -6334.8559     -254.81429      0.019592689    0.148          0.19592689   
   1481000   253.49075     -5478.4822     -6251.469       150.98145     -0.015591813    0.1481        -0.15591813   
   1482000   239.48606     -5589.8555     -6320.1367      237.72808     -0.020218589    0.1482        -0.20218589   
   1483000   247.9208      -5492.5539     -6248.5558      168.51662     -0.017412536    0.1483        -0.17412536   
   1484000   250.89369     -5526.9667     -6292.0341      322.56478     -0.035185458    0.1484        -0.35185458   
   1485000   236.86555     -5551.6007     -6273.8911     -517.20834      0.043678166    0.1485         0.43678166   
   1486000   269.1081      -5416.4698     -6237.0796     -603.37107      0.071064841    0.1486         0.71064841   
   1487000   244.84179     -5509.9927     -6256.6056     -285.00368      0.043606137    0.1487         0.43606137   
   1488000   235.68532     -5574.117      -6292.8084     -485.93744      0.050634136    0.1488         0.50634136   
   1489000   249.34492     -5487.1866     -6247.5312      489.58833     -0.038135657    0.1489        -0.38135657   
   1490000   242.80358     -5551.2489     -6291.6466      116.73589     -0.021577527    0.149         -0.21577527   
   1491000   252.01003     -5495.5192     -6263.9907      813.73286     -0.085779606    0.1491        -0.85779606   
   1492000   247.91047     -5428.1934     -6184.1638      551.55682     -0.044681081    0.1492        -0.44681081   
   1493000   250.56289     -5527.3974     -6291.456       558.02668     -0.058830549    0.1493        -0.58830549   
   1494000   250.36403     -5528.0421     -6291.4943     -56.747112     -0.0054865763   0.1494        -0.054865763  
   1495000   245.76135     -5550.7359     -6300.1529      214.949       -0.014275615    0.1495        -0.14275615   
   1496000   241.92596     -5498.0699     -6235.7913      31.458746     -0.0064445047   0.1496        -0.064445047  
   1497000   251.00286     -5536.5933     -6301.9936     -631.36063      0.059338845    0.1497         0.59338845   
   1498000   242.22588     -5545.9157     -6284.5518      451.15731     -0.048759913    0.1498        -0.48759913   
   1499000   242.055       -5574.9358     -6313.0507      376.60588     -0.044946403    0.1499        -0.44946403   
   1500000   241.43631     -5494.079      -6230.3074      336.30996     -0.031532047    0.15          -0.31532047   
Loop time of 90.9999 on 56 procs for 100000 steps with 1536 atoms

Performance: 94.945 ns/day, 0.253 hours/ns, 1098.903 timesteps/s, 1.688 Matom-step/s
99.8% CPU use with 56 MPI tasks x no OpenMP threads

MPI task timing breakdown:
Section |  min time  |  avg time  |  max time  |%varavg| %total
---------------------------------------------------------------
Pair    | 22.276     | 24.58      | 27.122     |  20.1 | 27.01
Bond    | 0.011227   | 0.014312   | 0.024942   |   1.9 |  0.02
Kspace  | 36.342     | 38.671     | 41.019     |  15.7 | 42.50
Neigh   | 1.7545     | 1.756      | 1.7573     |   0.0 |  1.93
Comm    | 9.9974     | 10.174     | 10.391     |   3.4 | 11.18
Output  | 0.07611    | 0.11941    | 0.15458    |   6.1 |  0.13
Modify  | 10.727     | 13.63      | 14.815     |  30.9 | 14.98
Other   |            | 2.054      |            |       |  2.26

Nlocal:        27.4286 ave          36 max          20 min
Histogram: 2 7 6 9 2 14 7 5 3 1
Nghost:        4071.55 ave        4117 max        4032 min
Histogram: 5 4 5 8 12 4 7 5 4 2
Neighs:          12002 ave       15775 max        8720 min
Histogram: 2 6 7 9 4 12 7 5 3 1

Total # of neighbors = 672110
Ave neighs/atom = 437.57161
Ave special neighs/atom = 2
Neighbor list builds = 1104
Dangerous builds = 0
kspace_style pppm/tip4p 1.0e-5
next nloop
jump SELF loop_start
run 100000 # 100ps
PPPM initialization ...
  extracting TIP4P info from pair style
  using 12-bit tables for long-range coulomb
  G vector (1/distance) = 0.33272324
  grid = 27 30 27
  stencil order = 5
  estimated absolute RMS force accuracy = 0.0027214312
  estimated relative force accuracy = 8.1955093e-06
  using double precision KISS FFT
  3d grid and FFT values/proc = 4576 448
Generated 0 of 1 mixed pair_coeff terms from geometric mixing rule
Per MPI rank memory allocation (min/avg/max) = 9.75 | 9.768 | 9.779 Mbytes
   Step          Temp          TotEng         PotEng          Pxy           v_sxy         v_strain     v_viscosity  
   1500000   241.43635     -5494.0785     -6230.3069      336.52353     -0.031553793    0.15          -0.31553793   
   1501000   240.25201     -5553.0248     -6285.6417      206.3857      -0.028126312    0.1501        -0.28126312   
   1502000   242.47767     -5539.5917     -6278.9955      294.41384     -0.028924898    0.1502        -0.28924898   
   1503000   245.96573     -5474.2341     -6224.2743     -1144.6447      0.11860614     0.1503         1.1860614    
   1504000   242.28819     -5519.7195     -6258.5455      249.2854      -0.030589391    0.1504        -0.30589391   
   1505000   241.24455     -5508.4771     -6244.1207     -37.736168      0.0024750045   0.1505         0.024750045  
   1506000   253.71166     -5519.7507     -6293.4111     -296.7812       0.012021496    0.1506         0.12021496   
   1507000   238.23255     -5530.0905     -6256.5494      203.93522     -0.015254592    0.1507        -0.15254592   
   1508000   240.18932     -5564.5472     -6296.973      -746.99464      0.068565302    0.1508         0.68565302   
   1509000   243.80357     -5511.2499     -6254.6969     -808.45307      0.08449498     0.1509         0.8449498    
   1510000   246.09658     -5557.8608     -6308.3        -133.45476      0.019059312    0.151          0.19059312   
   1511000   237.37536     -5524.4803     -6248.3253      287.56558     -0.029533009    0.1511        -0.29533009   
   1512000   241.35982     -5519.3058     -6255.3009     -488.13367      0.043099207    0.1512         0.43099207   
   1513000   249.02969     -5499.3629     -6258.7463     -133.45722      0.018381774    0.1513         0.18381774   
   1514000   243.05897     -5546.146      -6287.3225     -484.18573      0.048681619    0.1514         0.48681619   
   1515000   235.77582     -5562.2994     -6281.2668     -732.36282      0.06708176     0.1515         0.6708176    
   1516000   251.90179     -5527.8869     -6296.0283     -394.85838      0.023930089    0.1516         0.23930089   
   1517000   243.61993     -5567.8961     -6310.7831     -351.24608      0.038253032    0.1517         0.38253032   
   1518000   238.58984     -5533.9096     -6261.458      -961.31068      0.093838076    0.1518         0.93838076   
   1519000   239.84323     -5577.8065     -6309.177      -330.08917      0.041449382    0.1519         0.41449382   
   1520000   241.85525     -5510.6569     -6248.1627     -102.30797      0.010762285    0.152          0.10762285   
   1521000   236.05702     -5530.6365     -6250.4614     -200.31259      0.017681333    0.1521         0.17681333   
   1522000   241.83619     -5559.6957     -6297.1434      188.68083     -0.0093431927   0.1522        -0.093431927  
   1523000   248.80046     -5506.0169     -6264.7013      345.25556     -0.044144299    0.1523        -0.44144299   
   1524000   246.23261     -5488.1829     -6239.0369     -671.75323      0.067524007    0.1524         0.67524007   
   1525000   243.3558      -5546.4953     -6288.5768     -172.49122      0.013822349    0.1525         0.13822349   
   1526000   253.60358     -5448.7475     -6222.0783     -208.72602      0.011133364    0.1526         0.11133364   
   1527000   238.94499     -5515.6608     -6244.2922     -957.57261      0.092855247    0.1527         0.92855247   
   1528000   256.16052     -5474.194      -6255.3219     -282.31729      0.028576332    0.1528         0.28576332   
   1529000   241.21257     -5508.0076     -6243.5536      518.46195     -0.057511216    0.1529        -0.57511216   
   1530000   246.95335     -5492.5318     -6245.5836      862.06673     -0.088255749    0.153         -0.88255749   
   1531000   245.58485     -5486.7176     -6235.5964      240.87942     -0.027793038    0.1531        -0.27793038   
   1532000   248.07389     -5473.0266     -6229.4954      1057.193      -0.1031271      0.1532        -1.031271     
   1533000   241.30311     -5568.1089     -6303.9311      424.37741     -0.049109263    0.1533        -0.49109263   
   1534000   250.84304     -5474.5332     -6239.4461      337.57766     -0.038025196    0.1534        -0.38025196   
   1535000   242.46083     -5565.1657     -6304.5181      283.93924     -0.031855529    0.1535        -0.31855529   
   1536000   252.91447     -5465.7237     -6236.9532      403.489       -0.042181919    0.1536        -0.42181919   
   1537000   252.59256     -5499.3407     -6269.5885     -444.47369      0.046250848    0.1537         0.46250848   
   1538000   240.00759     -5553.7457     -6285.6173      886.49779     -0.080922783    0.1538        -0.80922783   
   1539000   237.08935     -5563.1644     -6286.1372      127.48881     -0.002787504    0.1539        -0.02787504   
   1540000   250.16328     -5470.1015     -6232.9416      242.07016     -0.029501419    0.154         -0.29501419   
   1541000   246.49475     -5527.1233     -6278.7767     -734.0647       0.080863116    0.1541         0.80863116   
   1542000   239.77018     -5599.5769     -6330.7246     -218.85988      0.019711028    0.1542         0.19711028   
   1543000   253.23184     -5505.4761     -6277.6734      357.31604     -0.030502619    0.1543        -0.30502619   
   1544000   255.1987      -5515.1126     -6293.3076     -113.3303      -1.092454e-05   0.1544        -0.0001092454 
   1545000   248.60949     -5569.7095     -6327.8115     -1171.2996      0.1201858      0.1545         1.201858     
   1546000   244.06105     -5560.5002     -6304.7323     -422.49463      0.040877771    0.1546         0.40877771   
   1547000   255.33732     -5513.1336     -6291.7512     -169.1998       0.013961454    0.1547         0.13961454   
   1548000   237.8551      -5563.2591     -6288.567       627.73792     -0.071661571    0.1548        -0.71661571   
   1549000   253.87558     -5536.1857     -6310.3459      549.3731      -0.048466247    0.1549        -0.48466247   
   1550000   243.48512     -5535.9104     -6278.3863      228.50058     -0.028359729    0.155         -0.28359729   
   1551000   250.12667     -5555.3044     -6318.0329      164.00419     -0.018174825    0.1551        -0.18174825   
   1552000   247.51469     -5524.012      -6278.7755      245.6509      -0.013894768    0.1552        -0.13894768   
   1553000   251.18862     -5553.1237     -6319.0905      327.81366     -0.034861924    0.1553        -0.34861924   
   1554000   247.96239     -5560.2135     -6316.3422     -427.03692      0.043233176    0.1554         0.43233176   
   1555000   246.91226     -5534.2745     -6287.2011      489.22465     -0.053030243    0.1555        -0.53030243   
   1556000   237.74783     -5548.2504     -6273.2312     -116.7788       0.012777575    0.1556         0.12777575   
   1557000   249.24765     -5589.8679     -6349.9158     -515.76888      0.055926586    0.1557         0.55926586   
   1558000   253.34422     -5579.1229     -6351.6628      98.788724     -0.025797586    0.1558        -0.25797586   
   1559000   243.99545     -5574.4208     -6318.4529      60.60001      -0.004512331    0.1559        -0.04512331   
   1560000   246.99645     -5588.4329     -6341.6161      220.1465      -0.014392575    0.156         -0.14392575   
   1561000   255.76696     -5577.829      -6357.7568     -103.26032      0.011203382    0.1561         0.11203382   
   1562000   245.34714     -5582.876      -6331.0299     -502.53009      0.059914594    0.1562         0.59914594   
   1563000   251.62575     -5607.7586     -6375.0583     -412.9264       0.03730361     0.1563         0.3730361    
   1564000   246.56092     -5567.89       -6319.7452      297.72155     -0.033396157    0.1564        -0.33396157   
   1565000   244.56585     -5592.5737     -6338.3451     -21.731574     -0.0037641561   0.1565        -0.037641561  
   1566000   251.69897     -5590.7122     -6358.2352     -22.58862       0.0025954387   0.1566         0.025954387  
   1567000   244.66655     -5590.3495     -6336.428      -205.04804      0.027846478    0.1567         0.27846478   
   1568000   247.54647     -5585.7659     -6340.6264      2.6894256      0.0083911575   0.1568         0.083911575  
   1569000   249.93169     -5563.9889     -6326.1228      64.033905     -0.0011956789   0.1569        -0.011956789  
   1570000   242.39935     -5601.0955     -6340.2605      393.31051     -0.039633053    0.157         -0.39633053   
   1571000   248.06101     -5586.7289     -6343.1584     -646.04354      0.06820267     0.1571         0.6820267    
   1572000   253.71985     -5528.4446     -6302.13        601.46038     -0.060384707    0.1572        -0.60384707   
   1573000   236.53325     -5642.1057     -6363.3828     -404.53138      0.038277455    0.1573         0.38277455   
   1574000   254.04625     -5547.7701     -6322.4507     -340.63337      0.047429591    0.1574         0.47429591   
   1575000   248.91839     -5560.5624     -6319.6064      1005.974      -0.087452182    0.1575        -0.87452182   
   1576000   243.41335     -5578.7926     -6321.0497     -118.37812      0.0060562054   0.1576         0.060562054  
   1577000   249.0677      -5547.4813     -6306.9806     -130.34943      0.01012311     0.1577         0.1012311    
   1578000   249.69398     -5513.3457     -6274.7547     -43.608418     -0.0085511937   0.1578        -0.085511937  
   1579000   245.9551      -5525.8904     -6275.8982     -359.34908      0.037279535    0.1579         0.37279535   
   1580000   243.15819     -5532.2484     -6273.7273      139.76364     -0.012351921    0.158         -0.12351921   
   1581000   238.6756      -5578.9567     -6306.7666      915.30133     -0.087853094    0.1581        -0.87853094   
   1582000   248.68878     -5555.5599     -6313.9037     -171.34861      0.027818218    0.1582         0.27818218   
   1583000   248.33615     -5553.8255     -6311.094       233.1152      -0.028997242    0.1583        -0.28997242   
   1584000   230.93631     -5599.4483     -6303.6582      454.37043     -0.048191509    0.1584        -0.48191509   
   1585000   249.70634     -5533.741      -6295.1876      80.215179     -0.0077426981   0.1585        -0.077426981  
   1586000   248.65049     -5581.6815     -6339.9085     -22.393056     -0.007081057    0.1586        -0.07081057   
   1587000   240.1781      -5564.8589     -6297.2505      471.41745     -0.053563585    0.1587        -0.53563585   
   1588000   256.22813     -5485.964      -6267.298       1773.0226     -0.17986572     0.1588        -1.7986572    
   1589000   241.66563     -5548.909      -6285.8366      377.70854     -0.03122988     0.1589        -0.3122988    
   1590000   247.29148     -5522.2618     -6276.3447      290.26005     -0.031037723    0.159         -0.31037723   
   1591000   244.22083     -5498.9332     -6243.6525      475.87286     -0.045324532    0.1591        -0.45324532   
   1592000   236.64725     -5606.7517     -6328.3764      439.67337     -0.050266459    0.1592        -0.50266459   
   1593000   244.00504     -5574.7633     -6318.8246      10.819201     -0.0072700616   0.1593        -0.072700616  
   1594000   245.04835     -5521.8137     -6269.0565      398.82501     -0.036269043    0.1594        -0.36269043   
   1595000   233.84103     -5557.0292     -6270.0967      717.01289     -0.075310215    0.1595        -0.75310215   
   1596000   245.3475      -5487.3141     -6235.4691      100.636       -0.012831275    0.1596        -0.12831275   
   1597000   253.96386     -5536.2792     -6310.7087     -480.9138       0.036440345    0.1597         0.36440345   
   1598000   236.13154     -5584.4868     -6304.539      -146.95288      0.005272036    0.1598         0.05272036   
   1599000   249.95173     -5504.9357     -6267.1307     -420.07036      0.03280194     0.1599         0.3280194    
   1600000   244.64683     -5539.5233     -6285.5417     -500.72856      0.056721826    0.16           0.56721826   
Loop time of 91.0336 on 56 procs for 100000 steps with 1536 atoms

Performance: 94.910 ns/day, 0.253 hours/ns, 1098.496 timesteps/s, 1.687 Matom-step/s
99.8% CPU use with 56 MPI tasks x no OpenMP threads

MPI task timing breakdown:
Section |  min time  |  avg time  |  max time  |%varavg| %total
---------------------------------------------------------------
Pair    | 21.33      | 24.553     | 26.496     |  22.4 | 26.97
Bond    | 0.011103   | 0.014244   | 0.024794   |   2.0 |  0.02
Kspace  | 36.958     | 38.72      | 41.681     |  16.8 | 42.53
Neigh   | 1.7259     | 1.7279     | 1.729      |   0.1 |  1.90
Comm    | 9.9529     | 10.187     | 10.47      |   4.3 | 11.19
Output  | 0.077382   | 0.1216     | 0.15716    |   6.2 |  0.13
Modify  | 10.743     | 13.625     | 14.811     |  30.9 | 14.97
Other   |            | 2.085      |            |       |  2.29

Nlocal:        27.4286 ave          33 max          22 min
Histogram: 3 7 3 4 11 7 9 7 3 2
Nghost:           4078 ave        4137 max        4027 min
Histogram: 6 3 7 7 8 8 6 5 1 5
Neighs:        11997.2 ave       14375 max        9615 min
Histogram: 2 7 4 4 11 7 9 7 4 1

Total # of neighbors = 671846
Ave neighs/atom = 437.39974
Ave special neighs/atom = 2
Neighbor list builds = 1082
Dangerous builds = 0
kspace_style pppm/tip4p 1.0e-5
next nloop
jump SELF loop_start
run 100000 # 100ps
PPPM initialization ...
  extracting TIP4P info from pair style
  using 12-bit tables for long-range coulomb
  G vector (1/distance) = 0.33237091
  grid = 27 30 27
  stencil order = 5
  estimated absolute RMS force accuracy = 0.0027804397
  estimated relative force accuracy = 8.3732115e-06
  using double precision KISS FFT
  3d grid and FFT values/proc = 4576 448
Generated 0 of 1 mixed pair_coeff terms from geometric mixing rule
Per MPI rank memory allocation (min/avg/max) = 9.75 | 9.768 | 9.779 Mbytes
   Step          Temp          TotEng         PotEng          Pxy           v_sxy         v_strain     v_viscosity  
   1600000   244.64682     -5539.5226     -6285.541      -500.55943      0.056704558    0.16           0.56704558   
   1601000   244.34869     -5543.2866     -6288.3959     -195.1697       0.018586423    0.1601         0.18586423   
   1602000   248.40164     -5527.3748     -6284.8429     -143.76046      0.017112858    0.1602         0.17112858   
   1603000   247.13774     -5471.3381     -6224.9522      387.19596     -0.03865808     0.1603        -0.3865808    
   1604000   237.78018     -5586.416      -6311.4954     -1005.1952      0.10639565     0.1604         1.0639565    
   1605000   250.06505     -5490.2034     -6252.7439     -222.58162      0.026658248    0.1605         0.26658248   
   1606000   243.00665     -5537.0364     -6278.0533      704.36501     -0.069428597    0.1606        -0.69428597   
   1607000   237.8023      -5504.7672     -6229.914       383.10228     -0.031072663    0.1607        -0.31072663   
   1608000   243.90072     -5534.2732     -6278.0164     -19.646485      0.0077648894   0.1608         0.077648894  
   1609000   234.53385     -5585.8915     -6301.0716     -366.01991      0.034957624    0.1609         0.34957624   
   1610000   248.66107     -5500.7736     -6259.0329     -210.50122      0.022757857    0.161          0.22757857   
   1611000   245.64907     -5475.6384     -6224.713       192.49428     -0.019125016    0.1611        -0.19125016   
   1612000   242.50919     -5550.3806     -6289.8805      252.61591     -0.035395617    0.1612        -0.35395617   
   1613000   246.33922     -5500.1888     -6251.3679     -384.1073       0.031977791    0.1613         0.31977791   
   1614000   240.06671     -5528.3861     -6260.438       848.82909     -0.075698788    0.1614        -0.75698788   
   1615000   254.0597      -5472.8029     -6247.5246     -523.48515      0.050491336    0.1615         0.50491336   
   1616000   250.23093     -5510.8541     -6273.9005      714.66237     -0.072122387    0.1616        -0.72122387   
   1617000   251.18421     -5490.9654     -6256.9187     -744.406        0.068490026    0.1617         0.68490026   
   1618000   238.37662     -5563.3861     -6290.2843      670.37254     -0.064931769    0.1618        -0.64931769   
   1619000   236.59594     -5538.6741     -6260.1424      207.77344     -0.016711859    0.1619        -0.16711859   
   1620000   249.91138     -5469.1528     -6231.2247      393.66866     -0.042982888    0.162         -0.42982888   
   1621000   248.06357     -5465.9711     -6222.4084     -1074.1484      0.10726426     0.1621         1.0726426    
   1622000   243.92093     -5513.4927     -6257.2975      480.62204     -0.050672719    0.1622        -0.50672719   
   1623000   237.28419     -5523.7497     -6247.3166      535.69418     -0.05991358     0.1623        -0.5991358    
   1624000   242.78168     -5473.8054     -6214.1362      731.18964     -0.074215199    0.1624        -0.74215199   
   1625000   242.34066     -5516.8822     -6255.8682      211.92461     -0.013427359    0.1625        -0.13427359   
   1626000   250.32937     -5469.4219     -6232.7684      726.36591     -0.077451375    0.1626        -0.77451375   
   1627000   240.03731     -5491.9104     -6223.8726      352.43655     -0.033671925    0.1627        -0.33671925   
   1628000   241.23735     -5531.1477     -6266.7693     -134.20686      0.018566932    0.1628         0.18566932   
   1629000   237.52739     -5504.4182     -6228.7268      256.19606     -0.025688207    0.1629        -0.25688207   
   1630000   242.41322     -5517.4827     -6256.69        247.99442     -0.024835741    0.163         -0.24835741   
   1631000   251.29558     -5561.0475     -6327.3403      468.04696     -0.055792361    0.1631        -0.55792361   
   1632000   254.70237     -5475.0774     -6251.7588      606.81181     -0.068238253    0.1632        -0.68238253   
   1633000   256.21055     -5513.3969     -6294.6773     -459.85899      0.041744482    0.1633         0.41744482   
   1634000   245.47128     -5533.6307     -6282.1631      95.90261      -0.0081914874   0.1634        -0.081914874  
   1635000   236.81352     -5608.9466     -6331.0783     -140.61686      0.011119954    0.1635         0.11119954   
   1636000   246.69046     -5494.0519     -6246.302      -320.10668      0.026916425    0.1636         0.26916425   
   1637000   246.24021     -5526.5416     -6277.4188     -695.19034      0.071911114    0.1637         0.71911114   
   1638000   250.21823     -5515.1812     -6278.1889     -171.59234      0.021882666    0.1638         0.21882666   
   1639000   253.25817     -5517.5537     -6289.8312      556.0331      -0.05418269     0.1639        -0.5418269    
   1640000   242.82989     -5567.9073     -6308.3852      309.01722     -0.030272249    0.164         -0.30272249   
   1641000   238.63922     -5517.2145     -6244.9134      114.48721     -0.011514688    0.1641        -0.11514688   
   1642000   250.37255     -5497.2697     -6260.7479     -252.27962      0.010012364    0.1642         0.10012364   
   1643000   237.33612     -5595.1109     -6318.8362     -121.61858      0.012354717    0.1643         0.12354717   
   1644000   249.46949     -5556.4282     -6317.1527      546.27546     -0.051138674    0.1644        -0.51138674   
   1645000   243.83187     -5544.2255     -6287.7587     -206.45697      0.033695658    0.1645         0.33695658   
   1646000   246.09348     -5540.1219     -6290.5517     -446.49852      0.053613458    0.1646         0.53613458   
   1647000   244.08992     -5543.4287     -6287.7488      527.26026     -0.047814981    0.1647        -0.47814981   
   1648000   251.08928     -5542.8321     -6308.4959     -212.74674      0.026955909    0.1648         0.26955909   
   1649000   241.70785     -5600.1579     -6337.2143     -457.515        0.041417542    0.1649         0.41417542   
   1650000   240.51202     -5581.7931     -6315.2029     -411.38986      0.036544401    0.165          0.36544401   
   1651000   249.96794     -5545.2104     -6307.4548      112.10711      0.00035702429  0.1651         0.0035702429 
   1652000   246.67642     -5530.2652     -6282.4726      40.546944     -0.0025730337   0.1652        -0.025730337  
   1653000   244.66188     -5593.0166     -6339.0809      505.36209     -0.041215906    0.1653        -0.41215906   
   1654000   239.26168     -5525.4986     -6255.0957     -213.16157      0.02130257     0.1654         0.2130257    
   1655000   250.02298     -5502.913      -6265.3252     -792.20084      0.076985394    0.1655         0.76985394   
   1656000   242.21344     -5496.4971     -6235.0952     -475.85511      0.051576542    0.1656         0.51576542   
   1657000   246.17455     -5521.2727     -6271.9496      334.523       -0.034068747    0.1657        -0.34068747   
   1658000   249.12196     -5513.5704     -6273.2351     -4.2431191      0.0023808164   0.1658         0.023808164  
   1659000   253.53361     -5504.5014     -6277.6188      146.31066     -0.019529448    0.1659        -0.19529448   
   1660000   234.98649     -5536.7688     -6253.3293      566.65674     -0.057347866    0.166         -0.57347866   
   1661000   241.1806      -5478.556      -6214.0046      1024.8931     -0.10545649     0.1661        -1.0545649    
   1662000   247.73873     -5467.6577     -6223.1044      485.46894     -0.050326533    0.1662        -0.50326533   
   1663000   236.78999     -5525.2288     -6247.2888     -364.69699      0.039522304    0.1663         0.39522304   
   1664000   253.25977     -5469.3867     -6241.6691      1587.4662     -0.15898617     0.1664        -1.5898617    
   1665000   245.87673     -5470.2572     -6220.0259      113.43914     -0.018750515    0.1665        -0.18750515   
   1666000   240.83196     -5530.759      -6265.1444      540.32761     -0.046766522    0.1666        -0.46766522   
   1667000   253.4242      -5446.411      -6219.1948      615.44151     -0.061383133    0.1667        -0.61383133   
   1668000   242.38064     -5519.8999     -6259.0078      633.99396     -0.060507356    0.1668        -0.60507356   
   1669000   235.8118      -5529.6134     -6248.6905      480.93039     -0.051705587    0.1669        -0.51705587   
   1670000   246.68959     -5542.1945     -6294.442      -674.93038      0.05882485     0.167          0.5882485    
   1671000   253.89808     -5529.8103     -6304.0392      239.83882     -0.030118998    0.1671        -0.30118998   
   1672000   243.55567     -5550.9972     -6293.6882     -4.5602022      0.0012323595   0.1672         0.012323595  
   1673000   248.91595     -5474.2446     -6233.2811      4.5806385      0.0027905605   0.1673         0.027905605  
   1674000   246.04394     -5578.0235     -6328.3022     -986.15742      0.10086287     0.1674         1.0086287    
   1675000   256.49421     -5429.4517     -6211.5971     -721.65905      0.068897849    0.1675         0.68897849   
   1676000   238.64424     -5579.1617     -6306.876       890.83852     -0.087368676    0.1676        -0.87368676   
   1677000   237.98981     -5510.4683     -6236.1869      504.63135     -0.048670654    0.1677        -0.48670654   
   1678000   243.14288     -5507.1479     -6248.5802     -601.95823      0.057228839    0.1678         0.57228839   
   1679000   235.91816     -5540.0172     -6259.4186     -131.41742      0.019897658    0.1679         0.19897658   
   1680000   256.67306     -5431.0088     -6213.6995     -206.02954      0.018139791    0.168          0.18139791   
   1681000   236.0445      -5473.8679     -6193.6546     -694.82156      0.066310949    0.1681         0.66310949   
   1682000   245.53778     -5486.6348     -6235.3701      113.28718     -0.011613488    0.1682        -0.11613488   
   1683000   243.11257     -5498.4317     -6239.7715     -255.72869      0.024327263    0.1683         0.24327263   
   1684000   245.1615      -5507.5442     -6255.132      -474.83499      0.052126192    0.1684         0.52126192   
   1685000   243.79597     -5566.1219     -6309.5457      0.28572522    -0.0066739911   0.1685        -0.066739911  
   1686000   251.06525     -5519.5804     -6285.1709     -90.34078       0.013688878    0.1686         0.13688878   
   1687000   239.70889     -5549.449      -6280.4098      470.30304     -0.048440301    0.1687        -0.48440301   
   1688000   242.00296     -5537.4146     -6275.3708     -767.01174      0.076267179    0.1688         0.76267179   
   1689000   246.68737     -5532.3382     -6284.579      -562.37418      0.063296404    0.1689         0.63296404   
   1690000   243.09283     -5564.0189     -6305.2985     -515.41979      0.048406013    0.169          0.48406013   
   1691000   252.5264      -5496.5037     -6266.5498     -63.611158      0.0018011663   0.1691         0.018011663  
   1692000   246.92518     -5509.4553     -6262.4212     -61.292856      0.005872541    0.1692         0.05872541   
   1693000   244.519       -5549.1642     -6294.7927      50.655185     -0.010365971    0.1693        -0.10365971   
   1694000   243.02671     -5563.4034     -6304.4814     -804.39812      0.081239989    0.1694         0.81239989   
   1695000   251.47523     -5489.0229     -6255.8636     -435.27168      0.05137718     0.1695         0.5137718    
   1696000   244.03441     -5533.7339     -6277.8848     -660.26712      0.067650265    0.1696         0.67650265   
   1697000   250.74839     -5525.4075     -6290.0318      47.853285      0.0034477181   0.1697         0.034477181  
   1698000   248.86254     -5549.1204     -6307.994      -364.56907      0.037440065    0.1698         0.37440065   
   1699000   253.74653     -5491.5456     -6265.3123     -698.97814      0.067670092    0.1699         0.67670092   
   1700000   245.10012     -5531.0235     -6278.4241      599.74137     -0.064580863    0.17          -0.64580863   
Loop time of 91.1888 on 56 procs for 100000 steps with 1536 atoms

Performance: 94.748 ns/day, 0.253 hours/ns, 1096.626 timesteps/s, 1.684 Matom-step/s
99.8% CPU use with 56 MPI tasks x no OpenMP threads

MPI task timing breakdown:
Section |  min time  |  avg time  |  max time  |%varavg| %total
---------------------------------------------------------------
Pair    | 22.073     | 24.54      | 27.299     |  21.3 | 26.91
Bond    | 0.011251   | 0.014315   | 0.025266   |   2.0 |  0.02
Kspace  | 36.196     | 38.818     | 41.185     |  16.3 | 42.57
Neigh   | 1.7992     | 1.8009     | 1.8027     |   0.1 |  1.97
Comm    | 9.9932     | 10.182     | 10.397     |   3.6 | 11.17
Output  | 0.076513   | 0.12067    | 0.15617    |   6.2 |  0.13
Modify  | 10.733     | 13.631     | 14.816     |  30.9 | 14.95
Other   |            | 2.081      |            |       |  2.28

Nlocal:        27.4286 ave          36 max          17 min
Histogram: 1 1 4 3 14 15 4 8 5 1
Nghost:        4087.43 ave        4168 max        4019 min
Histogram: 3 4 4 10 14 7 7 3 2 2
Neighs:          12007 ave       15809 max        7456 min
Histogram: 1 1 5 2 14 15 4 8 4 2

Total # of neighbors = 672391
Ave neighs/atom = 437.75456
Ave special neighs/atom = 2
Neighbor list builds = 1115
Dangerous builds = 0
kspace_style pppm/tip4p 1.0e-5
next nloop
jump SELF loop_start
run 100000 # 100ps
PPPM initialization ...
  extracting TIP4P info from pair style
  using 12-bit tables for long-range coulomb
  G vector (1/distance) = 0.33198872
  grid = 27 30 27
  stencil order = 5
  estimated absolute RMS force accuracy = 0.0028457083
  estimated relative force accuracy = 8.5697661e-06
  using double precision KISS FFT
  3d grid and FFT values/proc = 4576 448
Generated 0 of 1 mixed pair_coeff terms from geometric mixing rule
Per MPI rank memory allocation (min/avg/max) = 9.75 | 9.768 | 9.779 Mbytes
   Step          Temp          TotEng         PotEng          Pxy           v_sxy         v_strain     v_viscosity  
   1700000   245.10021     -5531.0239     -6278.4248      599.86937     -0.064594398    0.17          -0.64594398   
   1701000   230.60561     -5551.4155     -6254.617      -284.7896       0.019729196    0.1701         0.19729196   
   1702000   254.93765     -5447.029      -6224.4279     -20.064378     -0.0092873928   0.1702        -0.092873928  
   1703000   252.33569     -5549.6448     -6319.1093     -11.97143      -0.0016470762   0.1703        -0.016470762  
   1704000   246.54595     -5545.5833     -6297.3928      154.93795     -0.010292102    0.1704        -0.10292102   
   1705000   240.64875     -5607.8187     -6341.6455     -742.05554      0.074713723    0.1705         0.74713723   
   1706000   253.35065     -5524.5151     -6297.0747     -256.53332      0.025778184    0.1706         0.25778184   
   1707000   243.70719     -5515.5999     -6258.753       128.07822     -0.010843872    0.1707        -0.10843872   
   1708000   236.66812     -5520.0138     -6241.7021      407.62654     -0.046228062    0.1708        -0.46228062   
   1709000   247.2401      -5529.36       -6283.2862     -280.24129      0.029514563    0.1709         0.29514563   
   1710000   260.98189     -5462.9332     -6258.7632     -658.95483      0.062543349    0.171          0.62543349   
   1711000   245.12655     -5532.462      -6279.9432      407.54175     -0.032718502    0.1711        -0.32718502   
   1712000   250.02365     -5507.3475     -6269.7618      1267.7567     -0.1277075      0.1712        -1.277075     
   1713000   253.55645     -5521.397      -6294.5841     -194.62852      0.028488793    0.1713         0.28488793   
   1714000   261.70878     -5506.4436     -6304.4902      181.09955     -0.028985565    0.1714        -0.28985565   
   1715000   245.91682     -5507.8076     -6257.6987     -244.44329      0.022767654    0.1715         0.22767654   
   1716000   243.92097     -5573.4998     -6317.3048      51.582592     -0.0097192486   0.1716        -0.097192486  
   1717000   247.91647     -5517.605      -6273.5938      121.0299      -0.0028945847   0.1717        -0.028945847  
   1718000   237.81221     -5524.2438     -6249.4209      381.2398      -0.042799334    0.1718        -0.42799334   
   1719000   240.93845     -5508.3131     -6243.0233      859.8087      -0.080057903    0.1719        -0.80057903   
   1720000   249.48558     -5537.7741     -6298.5477     -835.20927      0.073106391    0.172          0.73106391   
   1721000   250.28502     -5449.8918     -6213.1031      184.06336     -0.019602485    0.1721        -0.19602485   
   1722000   241.21721     -5525.5092     -6261.0694     -612.44428      0.067574606    0.1722         0.67574606   
   1723000   252.64629     -5542.2466     -6312.6583      869.95951     -0.074482422    0.1723        -0.74482422   
   1724000   247.42232     -5534.6525     -6289.1343      91.972408     -0.0085746475   0.1724        -0.085746475  
   1725000   244.81208     -5544.8853     -6291.4076      185.07294     -0.014530261    0.1725        -0.14530261   
   1726000   249.55316     -5518.0096     -6278.9892      993.14462     -0.087208396    0.1726        -0.87208396   
   1727000   250.01896     -5522.0941     -6284.4941      33.048628     -0.0048154847   0.1727        -0.048154847  
   1728000   238.52173     -5569.4661     -6296.8068      478.79312     -0.044569658    0.1728        -0.44569658   
   1729000   241.08035     -5553.4303     -6288.5732      190.31337     -0.024111117    0.1729        -0.24111117   
   1730000   243.45058     -5550.543      -6292.9135     -138.13219      0.010942488    0.173          0.10942488   
   1731000   243.82682     -5582.0293     -6325.5472     -87.03028       0.012701621    0.1731         0.12701621   
   1732000   240.87479     -5567.5262     -6302.0423     -109.67687      0.018484812    0.1732         0.18484812   
   1733000   244.32958     -5520.7362     -6265.7871     -455.27105      0.049354287    0.1733         0.49354287   
   1734000   241.04715     -5566.7192     -6301.7609      95.028272     -0.0064899393   0.1734        -0.064899393  
   1735000   244.58875     -5590.9941     -6336.8354     -174.88347      0.017073394    0.1735         0.17073394   
   1736000   251.62972     -5521.6512     -6288.9629     -496.97498      0.042001626    0.1736         0.42001626   
   1737000   241.12761     -5613.2343     -6348.5212     -715.64154      0.061334993    0.1737         0.61334993   
   1738000   238.28849     -5605.2992     -6331.9287     -343.87661      0.034346746    0.1738         0.34346746   
   1739000   250.11169     -5508.2241     -6270.9069      163.33885     -0.016192166    0.1739        -0.16192166   
   1740000   239.72948     -5581.7736     -6312.7971     -551.78093      0.056467076    0.174          0.56467076   
   1741000   238.55145     -5586.9193     -6314.3506     -82.54319       0.0058601033   0.1741         0.058601033  
   1742000   255.76602     -5501.6143     -6281.5392     -579.6006       0.051997664    0.1742         0.51997664   
   1743000   244.31705     -5565.1993     -6310.2121     -542.34946      0.054241081    0.1743         0.54241081   
   1744000   228.64276     -5652.5323     -6349.7483     -449.38541      0.041543224    0.1744         0.41543224   
   1745000   243.12065     -5538.4221     -6279.7866      188.11937     -0.011516423    0.1745        -0.11516423   
   1746000   246.58568     -5577.7755     -6329.7061     -134.03083      0.015194013    0.1746         0.15194013   
   1747000   257.03047     -5571.4938     -6355.2744      235.70857     -0.035698635    0.1747        -0.35698635   
   1748000   252.20954     -5550.9375     -6320.0174      420.33535     -0.041422044    0.1748        -0.41422044   
   1749000   244.06749     -5522.8382     -6267.09       -7.4350797      0.001244226    0.1749         0.01244226   
   1750000   243.74296     -5566.9327     -6310.1948      281.66439     -0.032029047    0.175         -0.32029047   
   1751000   244.3608      -5538.3712     -6283.5174      1136.4996     -0.10995043     0.1751        -1.0995043    
   1752000   247.09869     -5607.0263     -6360.5213      145.77127     -0.024374389    0.1752        -0.24374389   
   1753000   255.98537     -5541.1581     -6321.7519      555.83185     -0.056420867    0.1753        -0.56420867   
   1754000   235.102       -5635.2218     -6352.1345      190.21502     -0.016339387    0.1754        -0.16339387   
   1755000   257.56609     -5575.2722     -6360.6861     -25.424088      0.0040478824   0.1755         0.040478824  
   1756000   245.23986     -5578.0355     -6325.8623     -693.79768      0.064991737    0.1756         0.64991737   
   1757000   245.2816      -5567.1155     -6315.0695      654.39211     -0.056067069    0.1757        -0.56067069   
   1758000   240.95311     -5596.4385     -6331.1933     -26.965403     -0.0017425803   0.1758        -0.017425803  
   1759000   248.53714     -5539.2095     -6297.0909     -10.919551      0.010698076    0.1759         0.10698076   
   1760000   245.77352     -5567.4032     -6316.8573      210.25479     -0.024187484    0.176         -0.24187484   
   1761000   238.07185     -5577.7134     -6303.6822     -1039.9858      0.10804703     0.1761         1.0804703    
   1762000   252.63294     -5533.3647     -6303.7357     -455.73664      0.045814617    0.1762         0.45814617   
   1763000   240.46843     -5577.4684     -6310.7453      279.2901      -0.027430228    0.1763        -0.27430228   
   1764000   247.59036     -5530.4453     -6285.4396      471.65914     -0.041935223    0.1764        -0.41935223   
   1765000   254.6309      -5534.0995     -6310.563       1481.2687     -0.15521128     0.1765        -1.5521128    
   1766000   236.38348     -5565.9451     -6286.7655     -285.14391      0.035759269    0.1766         0.35759269   
   1767000   250.93876     -5580.3807     -6345.5855      270.14397     -0.022884874    0.1767        -0.22884874   
   1768000   248.54287     -5554.3945     -6312.2933      544.21727     -0.055608106    0.1768        -0.55608106   
   1769000   256.7155      -5520.2844     -6303.1046     -97.397984      0.017009254    0.1769         0.17009254   
   1770000   249.95922     -5592.09       -6354.3078     -71.032344      0.007233666    0.177          0.07233666   
   1771000   244.01099     -5597.4246     -6341.5041     -41.867734      0.0041974865   0.1771         0.041974865  
   1772000   251.21373     -5521.1756     -6287.2189     -75.30637       0.0043889543   0.1772         0.043889543  
   1773000   237.6397      -5602.4321     -6327.0832      602.90952     -0.059064915    0.1773        -0.59064915   
   1774000   244.6176      -5489.9601     -6235.8894     -146.72867      0.029619409    0.1774         0.29619409   
   1775000   238.93966     -5570.4747     -6299.0898      349.02937     -0.035805414    0.1775        -0.35805414   
   1776000   239.80372     -5522.5566     -6253.8066     -315.21251      0.031331403    0.1776         0.31331403   
   1777000   248.30827     -5581.9019     -6339.0854      163.89246     -0.015187048    0.1777        -0.15187048   
   1778000   255.56925     -5508.4121     -6287.7369     -113.1791       0.014654407    0.1778         0.14654407   
   1779000   236.139       -5582.1784     -6302.2533     -60.928287      0.0098541447   0.1779         0.098541447  
   1780000   254.01814     -5551.3639     -6325.9588      625.24502     -0.055455734    0.178         -0.55455734   
   1781000   242.35129     -5574.9658     -6313.9842      324.81654     -0.037827267    0.1781        -0.37827267   
   1782000   248.42915     -5541.2092     -6298.7612      320.05723     -0.038713128    0.1782        -0.38713128   
   1783000   234.1672      -5560.827      -6274.8892     -291.05936      0.021838926    0.1783         0.21838926   
   1784000   246.00627     -5535.0102     -6285.174      -53.370962      0.013577902    0.1784         0.13577902   
   1785000   246.60514     -5522.4516     -6274.4416     -323.42071      0.032371945    0.1785         0.32371945   
   1786000   242.68405     -5512.6888     -6252.7219      300.99841     -0.033635887    0.1786        -0.33635887   
   1787000   236.34095     -5565.5003     -6286.191       248.43933     -0.028792911    0.1787        -0.28792911   
   1788000   261.24133     -5532.5815     -6329.2026      384.87161     -0.038710825    0.1788        -0.38710825   
   1789000   241.9496      -5560.5819     -6298.3755     -421.31904      0.039923223    0.1789         0.39923223   
   1790000   249.24611     -5516.5208     -6276.564       460.79591     -0.04692835     0.179         -0.4692835    
   1791000   241.70348     -5585.3746     -6322.4176      590.44983     -0.069304198    0.1791        -0.69304198   
   1792000   239.03909     -5537.187      -6266.1054      29.250191     -0.004961984    0.1792        -0.04961984   
   1793000   248.81182     -5505.2597     -6263.9787     -1097.4397      0.1091412      0.1793         1.091412     
   1794000   247.51411     -5467.2435     -6222.0053     -259.37849      0.025019938    0.1794         0.25019938   
   1795000   231.63371     -5637.8206     -6344.1572      285.7324      -0.028744452    0.1795        -0.28744452   
   1796000   244.56452     -5515.86       -6261.6274     -244.82367      0.032909263    0.1796         0.32909263   
   1797000   239.44618     -5534.9326     -6265.0923      391.97366     -0.04169304     0.1797        -0.4169304    
   1798000   245.91632     -5554.6399     -6304.5294     -538.94724      0.047918146    0.1798         0.47918146   
   1799000   243.78541     -5522.1827     -6265.5743      63.105963     -0.0051962743   0.1799        -0.051962743  
   1800000   234.85093     -5585.2302     -6301.3773     -544.90302      0.059715645    0.18           0.59715645   
Loop time of 90.9 on 56 procs for 100000 steps with 1536 atoms

Performance: 95.050 ns/day, 0.252 hours/ns, 1100.110 timesteps/s, 1.690 Matom-step/s
99.8% CPU use with 56 MPI tasks x no OpenMP threads

MPI task timing breakdown:
Section |  min time  |  avg time  |  max time  |%varavg| %total
---------------------------------------------------------------
Pair    | 21.093     | 24.549     | 27.625     |  25.2 | 27.01
Bond    | 0.011139   | 0.014326   | 0.02584    |   2.0 |  0.02
Kspace  | 35.424     | 38.596     | 42.003     |  19.5 | 42.46
Neigh   | 1.7439     | 1.7459     | 1.7474     |   0.1 |  1.92
Comm    | 9.9964     | 10.177     | 10.473     |   4.0 | 11.20
Output  | 0.076356   | 0.11948    | 0.15469    |   6.1 |  0.13
Modify  | 10.719     | 13.632     | 14.792     |  30.9 | 15.00
Other   |            | 2.067      |            |       |  2.27

Nlocal:        27.4286 ave          35 max          17 min
Histogram: 2 1 3 8 4 8 10 11 7 2
Nghost:        4085.46 ave        4153 max        3990 min
Histogram: 2 0 5 8 5 8 8 11 3 6
Neighs:          12011 ave       15480 max        7307 min
Histogram: 2 1 2 9 7 7 10 8 8 2

Total # of neighbors = 672615
Ave neighs/atom = 437.90039
Ave special neighs/atom = 2
Neighbor list builds = 1085
Dangerous builds = 0
kspace_style pppm/tip4p 1.0e-5
next nloop
jump SELF loop_start
run 100000 # 100ps
PPPM initialization ...
  extracting TIP4P info from pair style
  using 12-bit tables for long-range coulomb
  G vector (1/distance) = 0.33157541
  grid = 27 30 27
  stencil order = 5
  estimated absolute RMS force accuracy = 0.0029178061
  estimated relative force accuracy = 8.7868865e-06
  using double precision KISS FFT
  3d grid and FFT values/proc = 4576 448
Generated 0 of 1 mixed pair_coeff terms from geometric mixing rule
Per MPI rank memory allocation (min/avg/max) = 9.75 | 9.768 | 9.779 Mbytes
   Step          Temp          TotEng         PotEng          Pxy           v_sxy         v_strain     v_viscosity  
   1800000   234.85083     -5585.2299     -6301.3766     -544.59461      0.059684229    0.18           0.59684229   
   1801000   250.37366     -5523.231      -6286.7126     -132.54467      0.022808709    0.1801         0.22808709   
   1802000   240.47025     -5567.5756     -6300.8581      51.5311        0.00030789352  0.1802         0.0030789352 
   1803000   250.45963     -5475.0995     -6238.8433     -253.04785      0.022231382    0.1803         0.22231382   
   1804000   237.33336     -5543.7414     -6267.4583      574.38408     -0.05923305     0.1804        -0.5923305    
   1805000   235.87536     -5540.6074     -6259.8783     -19.83646       0.009602557    0.1805         0.09602557   
   1806000   241.37991     -5511.123      -6247.1794     -355.71823      0.034964014    0.1806         0.34964014   
   1807000   242.49491     -5588.9692     -6328.4256      385.42944     -0.040428915    0.1807        -0.40428915   
   1808000   256.16502     -5501.9721     -6283.1137     -425.2861       0.043541491    0.1808         0.43541491   
   1809000   252.28859     -5520.5069     -6289.8278     -750.87144      0.078615357    0.1809         0.78615357   
   1810000   260.06721     -5501.9325     -6294.9733     -637.43194      0.060860337    0.181          0.60860337   
   1811000   235.92523     -5581.59       -6301.013      -85.745665      0.015864661    0.1811         0.15864661   
   1812000   244.27744     -5558.7961     -6303.688       370.64723     -0.0330528      0.1812        -0.330528     
   1813000   242.87871     -5532.6652     -6273.2919      439.99913     -0.037472318    0.1813        -0.37472318   
   1814000   251.76154     -5529.9515     -6297.6652      1008.7807     -0.10901156     0.1814        -1.0901156    
   1815000   244.69937     -5551.9602     -6298.1388      164.05086     -0.0082060411   0.1815        -0.082060411  
   1816000   249.98113     -5560.6084     -6322.893      -59.869444      0.0052453768   0.1816         0.052453768  
   1817000   248.7479      -5532.3327     -6290.8567      372.24121     -0.033826046    0.1817        -0.33826046   
   1818000   242.3903      -5521.5637     -6260.7011     -986.2017       0.095587473    0.1818         0.95587473   
   1819000   252.50544     -5505.6355     -6275.6177      1090.7032     -0.098346601    0.1819        -0.98346601   
   1820000   246.71924     -5559.0136     -6311.3515     -242.81066      0.021394355    0.182          0.21394355   
   1821000   248.84019     -5557.4426     -6316.2481     -546.15498      0.047328478    0.1821         0.47328478   
   1822000   247.30781     -5547.5976     -6301.7303      104.63039     -0.011754327    0.1822        -0.11754327   
   1823000   243.77375     -5565.3501     -6308.7062     -361.09917      0.031363169    0.1823         0.31363169   
   1824000   242.755       -5540.8379     -6281.0874      176.99062     -0.012296166    0.1824        -0.12296166   
   1825000   234.86598     -5535.034      -6251.227       202.51782     -0.026805265    0.1825        -0.26805265   
   1826000   246.92261     -5550.5091     -6303.4672     -626.51067      0.066102047    0.1826         0.66102047   
   1827000   253.74424     -5568.2062     -6341.9659      517.73936     -0.04789053     0.1827        -0.4789053    
   1828000   253.38599     -5542.3331     -6315.0003      624.99205     -0.062010044    0.1828        -0.62010044   
   1829000   250.86335     -5511.1843     -6276.1591      272.30195     -0.030327305    0.1829        -0.30327305   
   1830000   251.39566     -5500.1013     -6266.6994     -335.31164      0.029847954    0.183          0.29847954   
   1831000   239.1886      -5589.847      -6319.2212      346.66628     -0.033377997    0.1831        -0.33377997   
   1832000   248.98514     -5539.7384     -6298.9859     -322.37799      0.026304386    0.1832         0.26304386   
   1833000   242.64409     -5579.3483     -6319.2595      751.09492     -0.075361568    0.1833        -0.75361568   
   1834000   253.32276     -5569.3901     -6341.8646     -179.6492       0.016491465    0.1834         0.16491465   
   1835000   241.66789     -5581.7778     -6318.7123      233.85641     -0.021799286    0.1835        -0.21799286   
   1836000   243.75655     -5582.111      -6325.4146     -107.33891      0.0011634882   0.1836         0.011634882  
   1837000   247.82732     -5463.5427     -6219.2595      435.5034      -0.036898567    0.1837        -0.36898567   
   1838000   237.49134     -5571.9303     -6296.129       423.72426     -0.042010681    0.1838        -0.42010681   
   1839000   246.27396     -5510.0233     -6261.0034      542.70197     -0.056693597    0.1839        -0.56693597   
   1840000   232.46223     -5600.2155     -6309.0785     -5.0876079      0.0082363692   0.184          0.082363692  
   1841000   242.25482     -5525.2237     -6263.9479     -1.1459972      0.0033362128   0.1841         0.033362128  
   1842000   251.54136     -5511.2035     -6278.2458     -427.26925      0.043502984    0.1842         0.43502984   
   1843000   236.19116     -5541.1099     -6261.3438      95.492192      0.00551003     0.1843         0.0551003    
   1844000   251.8896      -5491.2183     -6259.3225     -86.645986      0.016537888    0.1844         0.16537888   
   1845000   235.60524     -5546.8945     -6265.3417     -15.493118      0.0061080641   0.1845         0.061080641  
   1846000   247.49818     -5498.3818     -6253.095       180.12722     -0.021833886    0.1846        -0.21833886   
   1847000   250.4915      -5526.1423     -6289.9833      1050.7043     -0.10060597     0.1847        -1.0060597    
   1848000   256.32765     -5491.0233     -6272.6608     -14.513559     -0.00034141276  0.1848        -0.0034141276 
   1849000   240.06463     -5586.7417     -6318.7873     -30.439263      0.0063240436   0.1849         0.063240436  
   1850000   242.4984      -5518.3863     -6257.8533     -650.20331      0.066275328    0.185          0.66275328   
   1851000   241.57403     -5525.4622     -6262.1105     -50.893926      0.011321752    0.1851         0.11321752   
   1852000   235.44071     -5549.4324     -6267.3779      417.28212     -0.042413078    0.1852        -0.42413078   
   1853000   254.71373     -5482.6974     -6259.4135      222.41387     -0.021715195    0.1853        -0.21715195   
   1854000   241.74007     -5566.2643     -6303.4189      486.53134     -0.052637759    0.1854        -0.52637759   
   1855000   248.15444     -5544.8454     -6301.5598      672.83526     -0.070571403    0.1855        -0.70571403   
   1856000   242.97165     -5577.9118     -6318.822       107.72685     -0.0052661238   0.1856        -0.052661238  
   1857000   254.05569     -5569.1785     -6343.888      -126.69011      0.016308262    0.1857         0.16308262   
   1858000   243.23644     -5552.4397     -6294.1573     -911.11401      0.085772602    0.1858         0.85772602   
   1859000   248.04431     -5532.4119     -6288.7905      153.82237     -0.011330406    0.1859        -0.11330406   
   1860000   249.54156     -5560.7543     -6321.6985     -129.06693      0.010833609    0.186          0.10833609   
   1861000   252.07376     -5497.7722     -6266.438       623.20974     -0.056592233    0.1861        -0.56592233   
   1862000   252.20733     -5571.6718     -6340.745       131.79054     -0.013649891    0.1862        -0.13649891   
   1863000   233.10986     -5601.8487     -6312.6866      854.97403     -0.080750912    0.1863        -0.80750912   
   1864000   259.67438     -5497.1696     -6289.0125      376.4661      -0.035495726    0.1864        -0.35495726   
   1865000   248.57076     -5607.3146     -6365.2985     -991.66006      0.099659351    0.1865         0.99659351   
   1866000   254.07762     -5544.0098     -6318.7862      62.981445     -0.015313437    0.1866        -0.15313437   
   1867000   251.07917     -5511.6786     -6277.3115     -87.424856      0.0097434409   0.1867         0.097434409  
   1868000   241.60387     -5586.2634     -6323.0026      87.832788     -0.0081837785   0.1868        -0.081837785  
   1869000   233.66844     -5625.8564     -6338.3977     -637.70581      0.058175861    0.1869         0.58175861   
   1870000   252.18072     -5505.8823     -6274.8743     -228.79238      0.037065786    0.187          0.37065786   
   1871000   252.92339     -5534.7469     -6306.0036     -296.20401      0.042283947    0.1871         0.42283947   
   1872000   246.50642     -5545.3785     -6297.0674     -350.53741      0.018253699    0.1872         0.18253699   
   1873000   254.12285     -5554.1958     -6329.1101     -901.64387      0.0820233      0.1873         0.820233     
   1874000   246.04506     -5468.9878     -6219.2699     -388.97208      0.030889076    0.1874         0.30889076   
   1875000   238.683       -5572.8397     -6300.6722      231.45687     -0.020825699    0.1875        -0.20825699   
   1876000   258.31091     -5480.7006     -6268.3858     -29.674221      0.0041604781   0.1876         0.041604781  
   1877000   241.55284     -5556.4273     -6293.011      -636.14439      0.061344807    0.1877         0.61344807   
   1878000   243.76832     -5569.2407     -6312.5802     -145.62281      0.023747185    0.1878         0.23747185   
   1879000   253.93675     -5491.7768     -6266.1236      579.62245     -0.068855903    0.1879        -0.68855903   
   1880000   246.35123     -5543.2715     -6294.4873     -940.40755      0.10774018     0.188          1.0774018    
   1881000   239.5364      -5568.9228     -6299.3576      244.06756     -0.022736613    0.1881        -0.22736613   
   1882000   241.19024     -5549.7798     -6285.2578      420.96993     -0.033848936    0.1882        -0.33848936   
   1883000   239.29528     -5519.2987     -6248.9982      74.040838     -0.0014886      0.1883        -0.014886     
   1884000   233.74111     -5631.8999     -6344.6627     -56.794769      0.004948194    0.1884         0.04948194   
   1885000   254.12466     -5508.2806     -6283.2003      922.34984     -0.10504979     0.1885        -1.0504979    
   1886000   230.7394      -5591.2204     -6294.8299     -636.20951      0.064612271    0.1886         0.64612271   
   1887000   246.24223     -5513.0261     -6263.9094     -612.99528      0.066393074    0.1887         0.66393074   
   1888000   228.85218     -5639.22       -6337.0747     -192.86337      0.027389809    0.1888         0.27389809   
   1889000   255.46096     -5504.4157     -6283.4104      913.47877     -0.095705147    0.1889        -0.95705147   
   1890000   253.97155     -5547.7367     -6322.1896      158.44663     -0.012703319    0.189         -0.12703319   
   1891000   244.49935     -5571.4755     -6317.0442      662.55451     -0.060918107    0.1891        -0.60918107   
   1892000   235.22867     -5564.6696     -6281.9686     -309.76379      0.032612082    0.1892         0.32612082   
   1893000   236.25902     -5613.3962     -6333.837       32.048719      0.007666587    0.1893         0.07666587   
   1894000   248.82844     -5564.8842     -6323.6538     -87.097304      0.006687719    0.1894         0.06687719   
   1895000   237.01537     -5613.1033     -6335.8505      242.38594     -0.018582588    0.1895        -0.18582588   
   1896000   240.6655      -5545.5505     -6279.4283     -703.51714      0.077737196    0.1896         0.77737196   
   1897000   238.01072     -5569.563      -6295.3455     -206.71818      0.021087864    0.1897         0.21087864   
   1898000   240.48887     -5523.0437     -6256.383      -488.75292      0.037332041    0.1898         0.37332041   
   1899000   238.22005     -5604.9255     -6331.3463     -183.89301      0.020027467    0.1899         0.20027467   
   1900000   262.58809     -5485.1299     -6285.8578     -269.9253       0.022657832    0.19           0.22657832   
Loop time of 90.9473 on 56 procs for 100000 steps with 1536 atoms

Performance: 95.000 ns/day, 0.253 hours/ns, 1099.538 timesteps/s, 1.689 Matom-step/s
99.8% CPU use with 56 MPI tasks x no OpenMP threads

MPI task timing breakdown:
Section |  min time  |  avg time  |  max time  |%varavg| %total
---------------------------------------------------------------
Pair    | 22.368     | 24.534     | 26.987     |  20.3 | 26.98
Bond    | 0.011058   | 0.014198   | 0.02416    |   2.0 |  0.02
Kspace  | 36.036     | 38.623     | 40.601     |  15.5 | 42.47
Neigh   | 1.7444     | 1.7459     | 1.7474     |   0.0 |  1.92
Comm    | 10.032     | 10.205     | 10.432     |   3.4 | 11.22
Output  | 0.076391   | 0.11971    | 0.15477    |   6.1 |  0.13
Modify  | 10.764     | 13.643     | 14.81      |  30.8 | 15.00
Other   |            | 2.063      |            |       |  2.27

Nlocal:        27.4286 ave          34 max          19 min
Histogram: 2 0 8 1 13 4 11 4 8 5
Nghost:        4097.39 ave        4189 max        4032 min
Histogram: 4 6 8 10 8 9 4 4 2 1
Neighs:        12004.1 ave       14874 max        8255 min
Histogram: 2 0 8 4 10 7 8 6 6 5

Total # of neighbors = 672229
Ave neighs/atom = 437.64909
Ave special neighs/atom = 2
Neighbor list builds = 1078
Dangerous builds = 0
kspace_style pppm/tip4p 1.0e-5
next nloop
jump SELF loop_start
run 100000 # 100ps
PPPM initialization ...
  extracting TIP4P info from pair style
  using 12-bit tables for long-range coulomb
  G vector (1/distance) = 0.33112985
  grid = 27 30 27
  stencil order = 5
  estimated absolute RMS force accuracy = 0.0029973362
  estimated relative force accuracy = 9.0263889e-06
  using double precision KISS FFT
  3d grid and FFT values/proc = 4576 448
Generated 0 of 1 mixed pair_coeff terms from geometric mixing rule
Per MPI rank memory allocation (min/avg/max) = 9.75 | 9.768 | 9.779 Mbytes
   Step          Temp          TotEng         PotEng          Pxy           v_sxy         v_strain     v_viscosity  
   1900000   262.5879      -5485.1309     -6285.8582     -269.65218      0.022629775    0.19           0.22629775   
   1901000   254.80897     -5551.202      -6328.2085      244.30177     -0.022629257    0.1901        -0.22629257   
   1902000   249.30538     -5489.1052     -6249.3292     -219.33855      0.021797236    0.1902         0.21797236   
   1903000   246.48557     -5501.4588     -6253.0842      693.88217     -0.065983337    0.1903        -0.65983337   
   1904000   235.6788      -5567.1358     -6285.8073     -161.73732      0.023045596    0.1904         0.23045596   
   1905000   244.62133     -5423.1807     -6169.1213      126.80756     -0.012708947    0.1905        -0.12708947   
   1906000   239.50633     -5511.8292     -6242.1723     -384.21757      0.034539455    0.1906         0.34539455   
   1907000   240.98058     -5527.2254     -6262.064      -705.2935       0.071199607    0.1907         0.71199607   
   1908000   241.80133     -5487.1305     -6224.4719     -717.59705      0.063953701    0.1908         0.63953701   
   1909000   244.13439     -5538.2125     -6282.6683      351.11622     -0.032940641    0.1909        -0.32940641   
   1910000   240.67092     -5564.6146     -6298.5089     -123.81469      0.016456968    0.191          0.16456968   
   1911000   244.19973     -5501.4343     -6246.0893     -562.91366      0.05022713     0.1911         0.5022713    
   1912000   248.8796      -5490.6736     -6249.5993      310.07785     -0.033746501    0.1912        -0.33746501   
   1913000   249.09062     -5508.8084     -6268.3775     -162.96906      0.011170292    0.1913         0.11170292   
   1914000   252.04211     -5515.7388     -6284.3081     -539.64877      0.050515379    0.1914         0.50515379   
   1915000   247.16141     -5517.6675     -6271.3538      778.16174     -0.080687163    0.1915        -0.80687163   
   1916000   249.76201     -5515.692      -6277.3085     -66.391044      0.00410121     0.1916         0.0410121    
   1917000   243.27198     -5575.0483     -6316.8743      465.59806     -0.037284425    0.1917        -0.37284425   
   1918000   245.28145     -5549.9732     -6297.9268     -453.18909      0.041658653    0.1918         0.41658653   
   1919000   239.15437     -5551.4418     -6280.7117      140.3104      -0.01005991     0.1919        -0.1005991    
   1920000   249.71995     -5501.5115     -6262.9997     -184.32555      0.016198144    0.192          0.16198144   
   1921000   237.07518     -5546.9172     -6269.8468      257.11523     -0.0099792772   0.1921        -0.099792772  
   1922000   252.57647     -5452.7192     -6222.918       349.22444     -0.031953707    0.1922        -0.31953707   
   1923000   237.82535     -5519.3918     -6244.6089     -653.58189      0.065047454    0.1923         0.65047454   
   1924000   249.40517     -5463.0894     -6223.6177      609.05453     -0.055461501    0.1924        -0.55461501   
   1925000   239.37453     -5532.4453     -6262.3865      114.50132     -0.005678976    0.1925        -0.05678976   
   1926000   251.67183     -5497.2025     -6264.6427      254.0525      -0.019401598    0.1926        -0.19401598   
   1927000   239.71683     -5491.8043     -6222.7893     -575.05455      0.067741175    0.1927         0.67741175   
   1928000   247.85562     -5483.1426     -6238.9458     -296.45038      0.034658189    0.1928         0.34658189   
   1929000   252.71929     -5439.969      -6210.6033      621.71059     -0.061869975    0.1929        -0.61869975   
   1930000   244.10815     -5523.0645     -6267.4402      293.0718      -0.030917935    0.193         -0.30917935   
   1931000   234.41537     -5528.4229     -6243.2418      624.73691     -0.065365987    0.1931        -0.65365987   
   1932000   244.99931     -5539.4057     -6286.4989      348.25596     -0.032264685    0.1932        -0.32264685   
   1933000   243.76852     -5534.1952     -6277.5352      351.83182     -0.024734735    0.1933        -0.24734735   
   1934000   247.81263     -5513.198      -6268.87       -523.39563      0.048604701    0.1934         0.48604701   
   1935000   246.55851     -5529.4848     -6281.3326      412.03856     -0.042395623    0.1935        -0.42395623   
   1936000   242.58866     -5502.1468     -6241.8891     -537.77443      0.050619892    0.1936         0.50619892   
   1937000   252.64496     -5532.7244     -6303.132      -226.7653       0.023246189    0.1937         0.23246189   
   1938000   258.40378     -5477.3493     -6265.3177      459.28382     -0.051218841    0.1938        -0.51218841   
   1939000   251.10815     -5564.233      -6329.9543      510.00863     -0.052511676    0.1939        -0.52511676   
   1940000   247.37718     -5578.845      -6333.1892     -1384.3059      0.13876408     0.194          1.3876408    
   1941000   249.77589     -5494.8672     -6256.5259     -453.68422      0.054432388    0.1941         0.54432388   
   1942000   246.40715     -5517.6071     -6268.9934     -272.93142      0.035864294    0.1942         0.35864294   
   1943000   236.50773     -5575.8577     -6297.0569     -19.035393      0.0002718363   0.1943         0.002718363  
   1944000   246.79188     -5507.4206     -6259.98       -628.7827       0.062970804    0.1944         0.62970804   
   1945000   237.70866     -5542.1939     -6267.0552     -407.25317      0.043346073    0.1945         0.43346073   
   1946000   245.05051     -5525.0676     -6272.3169      138.96995     -0.018070043    0.1946        -0.18070043   
   1947000   239.13731     -5562.0618     -6291.2796     -125.23157      0.012407483    0.1947         0.12407483   
   1948000   243.96107     -5529.5879     -6273.5152     -153.461        0.0054325772   0.1948         0.054325772  
   1949000   242.68558     -5547.5451     -6287.5829     -8.0459154     -0.0019145168   0.1949        -0.019145168  
   1950000   247.3873      -5557.6059     -6311.981      -44.939908      0.0032183007   0.195          0.032183007  
   1951000   242.32561     -5561.1453     -6300.0854     -1077.2519      0.10119546     0.1951         1.0119546    
   1952000   261.36044     -5485.0944     -6282.0787      353.52091     -0.042723833    0.1952        -0.42723833   
   1953000   239.7746      -5603.8564     -6335.0176      484.3289      -0.051266026    0.1953        -0.51266026   
   1954000   250.96381     -5472.3245     -6237.6057     -507.12846      0.053006016    0.1954         0.53006016   
   1955000   237.74363     -5589.4955     -6314.4635     -280.37443      0.023879875    0.1955         0.23879875   
   1956000   253.71804     -5453.3966     -6227.0765     -320.89774      0.036477835    0.1956         0.36477835   
   1957000   238.54333     -5518.4956     -6245.9022      1247.168      -0.13919184     0.1957        -1.3919184    
   1958000   252.00663     -5497.1414     -6265.6025     -100.37597      0.0070885266   0.1958         0.070885266  
   1959000   241.30442     -5489.8731     -6225.6993      24.071047     -0.0069694453   0.1959        -0.069694453  
   1960000   248.80585     -5491.5611     -6250.2619     -712.24611      0.068799792    0.196          0.68799792   
   1961000   246.67561     -5531.2477     -6283.4526     -474.64812      0.057494896    0.1961         0.57494896   
   1962000   242.5706      -5520.2335     -6259.9207     -204.37133      0.022441618    0.1962         0.22441618   
   1963000   245.03034     -5556.5535     -6303.7413      253.64482     -0.013660809    0.1963        -0.13660809   
   1964000   244.1438      -5532.5217     -6277.0061      981.72708     -0.10013451     0.1964        -1.0013451    
   1965000   247.94074     -5490.9637     -6247.0265     -439.84446      0.04677104     0.1965         0.4677104    
   1966000   244.24733     -5521.5952     -6266.3954     -717.80522      0.062409876    0.1966         0.62409876   
   1967000   250.97498     -5477.1941     -6242.5094     -508.44795      0.040904227    0.1967         0.40904227   
   1968000   240.02386     -5525.2379     -6257.1591     -36.555769      0.014023816    0.1968         0.14023816   
   1969000   253.23409     -5479.4393     -6251.6434     -808.58555      0.068720032    0.1969         0.68720032   
   1970000   237.15405     -5542.9636     -6266.1337     -442.40273      0.04564902     0.197          0.4564902    
   1971000   246.58637     -5518.0236     -6269.9564     -473.80913      0.054446369    0.1971         0.54446369   
   1972000   249.91529     -5551.2664     -6313.3503      6.4313267      0.0050301901   0.1972         0.050301901  
   1973000   253.64637     -5503.1031     -6276.5644     -414.52369      0.03277547     0.1973         0.3277547    
   1974000   248.68623     -5547.1924     -6305.5284     -677.82445      0.072493264    0.1974         0.72493264   
   1975000   241.98659     -5584.7049     -6322.6113     -262.31398      0.011596866    0.1975         0.11596866   
   1976000   244.23274     -5540.3236     -6285.0793     -49.136666     -0.00092478046  0.1976        -0.0092478046 
   1977000   244.24831     -5562.6823     -6307.4855      177.80572     -0.022337925    0.1977        -0.22337925   
   1978000   245.79619     -5569.595      -6319.1182     -30.515232     -0.0014892166   0.1978        -0.014892166  
   1979000   242.62954     -5550.2037     -6290.0706     -965.48542      0.1038025      0.1979         1.038025     
   1980000   249.79105     -5467.155      -6228.86        252.00547     -0.029297348    0.198         -0.29297348   
   1981000   240.07046     -5549.8478     -6281.9111      217.83375     -0.026947658    0.1981        -0.26947658   
   1982000   235.99823     -5534.5214     -6254.167      -457.20017      0.042172248    0.1982         0.42172248   
   1983000   263.07696     -5427.9248     -6230.1434     -464.93102      0.044749013    0.1983         0.44749013   
   1984000   238.585       -5561.5554     -6289.089      -342.14811      0.037777042    0.1984         0.37777042   
   1985000   248.26983     -5491.9392     -6249.0054     -373.35445      0.038352436    0.1985         0.38352436   
   1986000   252.38523     -5439.4828     -6209.0984     -389.76146      0.036135019    0.1986         0.36135019   
   1987000   232.52828     -5564.88       -6273.9444     -703.22542      0.065908758    0.1987         0.65908758   
   1988000   250.91958     -5517.4893     -6282.6356      343.66279     -0.035141859    0.1988        -0.35141859   
   1989000   253.15866     -5492.8486     -6264.8227     -702.52887      0.064457539    0.1989         0.64457539   
   1990000   242.37246     -5594.505      -6333.588       1039.2959     -0.10375284     0.199         -1.0375284    
   1991000   252.95072     -5406.5086     -6177.8486      45.861309     -0.0075323884   0.1991        -0.075323884  
   1992000   241.43503     -5511.9684     -6248.1928      464.80812     -0.052048614    0.1992        -0.52048614   
   1993000   244.5569      -5499.1706     -6244.9148     -610.39681      0.06259299     0.1993         0.6259299    
   1994000   239.20929     -5505.018      -6234.4553     -147.70072      0.01865504     0.1994         0.1865504    
   1995000   246.36083     -5503.7647     -6255.0097      517.53995     -0.055189544    0.1995        -0.55189544   
   1996000   245.50396     -5488.0404     -6236.6725      378.34633     -0.042314341    0.1996        -0.42314341   
   1997000   253.37316     -5516.0679     -6288.696      -704.80049      0.063609244    0.1997         0.63609244   
   1998000   249.47873     -5519.3156     -6280.0682      517.28307     -0.053579377    0.1998        -0.53579377   
   1999000   254.08953     -5482.596      -6257.4086     -1171.3794      0.11505272     0.1999         1.1505272    
   2000000   235.62994     -5565.5314     -6284.0539     -453.67538      0.049797697    0.2            0.49797697   
Loop time of 91.0048 on 56 procs for 100000 steps with 1536 atoms

Performance: 94.940 ns/day, 0.253 hours/ns, 1098.843 timesteps/s, 1.688 Matom-step/s
99.8% CPU use with 56 MPI tasks x no OpenMP threads

MPI task timing breakdown:
Section |  min time  |  avg time  |  max time  |%varavg| %total
---------------------------------------------------------------
Pair    | 22.468     | 24.579     | 26.622     |  22.2 | 27.01
Bond    | 0.011052   | 0.01438    | 0.026226   |   2.1 |  0.02
Kspace  | 36.51      | 38.647     | 40.868     |  17.3 | 42.47
Neigh   | 1.8038     | 1.8056     | 1.807      |   0.1 |  1.98
Comm    | 9.9856     | 10.171     | 10.409     |   3.5 | 11.18
Output  | 0.076227   | 0.11944    | 0.15455    |   6.1 |  0.13
Modify  | 10.739     | 13.651     | 14.801     |  30.9 | 15.00
Other   |            | 2.017      |            |       |  2.22

Nlocal:        27.4286 ave          35 max          20 min
Histogram: 2 3 5 7 13 7 8 3 5 3
Nghost:        4101.82 ave        4159 max        4001 min
Histogram: 1 2 3 2 6 7 10 11 7 7
Neighs:          12003 ave       15542 max        8823 min
Histogram: 2 6 2 11 10 10 4 7 1 3

Total # of neighbors = 672169
Ave neighs/atom = 437.61003
Ave special neighs/atom = 2
Neighbor list builds = 1113
Dangerous builds = 0
kspace_style pppm/tip4p 1.0e-5
next nloop
jump SELF loop_start
run 100000 # 100ps
PPPM initialization ...
  extracting TIP4P info from pair style
  using 12-bit tables for long-range coulomb
  G vector (1/distance) = 0.33065115
  grid = 27 30 27
  stencil order = 5
  estimated absolute RMS force accuracy = 0.0030849361
  estimated relative force accuracy = 9.2901933e-06
  using double precision KISS FFT
  3d grid and FFT values/proc = 4576 448
Generated 0 of 1 mixed pair_coeff terms from geometric mixing rule
Per MPI rank memory allocation (min/avg/max) = 9.75 | 9.768 | 9.779 Mbytes
   Step          Temp          TotEng         PotEng          Pxy           v_sxy         v_strain     v_viscosity  
   2000000   235.63005     -5565.5301     -6284.053      -453.52681      0.049782841    0.2            0.49782841   
   2001000   247.3527      -5528.9229     -6283.1924     -948.94497      0.081561101    0.2001         0.81561101   
   2002000   244.79951     -5525.8254     -6272.3094     -198.69773      0.019305758    0.2002         0.19305758   
   2003000   245.78661     -5584.5275     -6334.0215      132.68491     -0.0045286753   0.2003        -0.045286753  
   2004000   248.82275     -5595.6044     -6354.3567      196.3814      -0.016315089    0.2004        -0.16315089   
   2005000   246.94787     -5553.0647     -6306.0998     -391.82054      0.035316641    0.2005         0.35316641   
   2006000   251.76764     -5506.065      -6273.7973     -447.73073      0.045201866    0.2006         0.45201866   
   2007000   256.452       -5522.7975     -6304.8142      220.31711     -0.017997737    0.2007        -0.17997737   
   2008000   252.18497     -5533.7635     -6302.7684     -498.01652      0.061527582    0.2008         0.61527582   
   2009000   244.49272     -5563.8121     -6309.3605     -785.51366      0.090324154    0.2009         0.90324154   
   2010000   242.73889     -5548.9515     -6289.1519     -280.62625      0.022286304    0.201          0.22286304   
   2011000   247.26394     -5523.2215     -6277.2204      54.98264      -0.0043597462   0.2011        -0.043597462  
   2012000   248.27624     -5513.4998     -6270.5856     -697.16652      0.061267648    0.2012         0.61267648   
   2013000   236.125       -5537.2794     -6257.3116     -152.77987      0.017597215    0.2013         0.17597215   
   2014000   247.60382     -5503.2769     -6258.3122     -666.78564      0.061928227    0.2014         0.61928227   
   2015000   250.91921     -5484.4908     -6249.636      -59.193584      0.0069033441   0.2015         0.069033441  
   2016000   239.70138     -5559.6297     -6290.5676     -462.37318      0.049729895    0.2016         0.49729895   
   2017000   254.42367     -5473.9243     -6249.7559      58.356784     -0.010691545    0.2017        -0.10691545   
   2018000   243.72035     -5511.5893     -6254.7825      306.65367     -0.037811517    0.2018        -0.37811517   
   2019000   247.38502     -5509.3578     -6263.7259     -796.52868      0.075223119    0.2019         0.75223119   
   2020000   246.64372     -5459.9792     -6212.0868     -80.748347      0.014483958    0.202          0.14483958   
   2021000   244.99944     -5502.5235     -6249.6171     -1256.8434      0.12738518     0.2021         1.2738518    
   2022000   244.29647     -5484.3988     -6229.3488     -281.43095      0.028166819    0.2022         0.28166819   
   2023000   240.75525     -5501.5583     -6235.7099     -1210.8088      0.11242802     0.2023         1.1242802    
   2024000   231.32755     -5569.4865     -6274.8895      145.25357     -0.015099951    0.2024        -0.15099951   
   2025000   249.25942     -5486.633      -6246.7169      413.97631     -0.045233716    0.2025        -0.45233716   
   2026000   253.82885     -5494.9        -6268.9177      337.81083     -0.030304418    0.2026        -0.30304418   
   2027000   241.38273     -5551.3171     -6287.382       120.11029     -0.019062199    0.2027        -0.19062199   
   2028000   254.70144     -5516.2352     -6292.9137     -655.39932      0.065713739    0.2028         0.65713739   
   2029000   248.45463     -5499.1301     -6256.7599      392.39565     -0.045231782    0.2029        -0.45231782   
   2030000   245.20348     -5491.3576     -6239.0735     -325.8499       0.037653646    0.203          0.37653646   
   2031000   242.09379     -5503.2808     -6241.514      -484.92123      0.049812961    0.2031         0.49812961   
   2032000   233.34105     -5564.821      -6276.3639     -447.15073      0.047615229    0.2032         0.47615229   
   2033000   247.34824     -5539.8537     -6294.1097      545.30977     -0.054893654    0.2033        -0.54893654   
   2034000   242.76213     -5538.4439     -6278.7151      398.61533     -0.027163747    0.2034        -0.27163747   
   2035000   249.16843     -5487.6654     -6247.4718     -79.796136      0.0048057354   0.2035         0.048057354  
   2036000   244.7989      -5502.0208     -6248.5029      108.74202     -0.012428685    0.2036        -0.12428685   
   2037000   255.88813     -5483.8436     -6264.1408      65.380102     -0.013468828    0.2037        -0.13468828   
   2038000   252.337       -5539.1677     -6308.6362     -114.95747      0.023046141    0.2038         0.23046141   
   2039000   230.54381     -5593.7634     -6296.7765      570.5242      -0.052669293    0.2039        -0.52669293   
   2040000   251.67809     -5525.4159     -6292.8752      605.75444     -0.054723667    0.204         -0.54723667   
   2041000   239.57392     -5525.6835     -6256.2327     -350.829        0.027257446    0.2041         0.27257446   
   2042000   244.1511      -5450.1093     -6194.616      -167.50009      0.016897906    0.2042         0.16897906   
   2043000   245.59183     -5460.258      -6209.158       370.78745     -0.038503068    0.2043        -0.38503068   
   2044000   245.81368     -5482.5789     -6232.1554      503.40986     -0.052869721    0.2044        -0.52869721   
   2045000   241.38461     -5533.3103     -6269.3809     -771.25462      0.085804416    0.2045         0.85804416   
   2046000   246.78848     -5545.1232     -6297.6723      414.20402     -0.056805585    0.2046        -0.56805585   
   2047000   235.69654     -5582.4795     -6301.2052     -206.06548      0.020238698    0.2047         0.20238698   
   2048000   256.71002     -5472.214      -6255.0174     -398.17308      0.03650658     0.2048         0.3650658    
   2049000   243.47379     -5566.2403     -6308.6817      671.38705     -0.067337228    0.2049        -0.67337228   
   2050000   259.36534     -5461.7022     -6252.6027     -491.85677      0.046367694    0.205          0.46367694   
   2051000   234.92908     -5522.2526     -6238.638       378.73977     -0.038225637    0.2051        -0.38225637   
   2052000   235.961       -5564.7085     -6284.2406     -447.40317      0.046738936    0.2052         0.46738936   
   2053000   245.84141     -5487.4991     -6237.1602     -856.93797      0.085577836    0.2053         0.85577836   
   2054000   255.65148     -5473.9375     -6253.5131     -378.87192      0.037447732    0.2054         0.37447732   
   2055000   240.3534      -5534.8055     -6267.7317      242.25665     -0.022761684    0.2055        -0.22761684   
   2056000   257.54466     -5509.1429     -6294.4915      391.62661     -0.045421149    0.2056        -0.45421149   
   2057000   260.47399     -5450.1974     -6244.4786      45.846838      0.0088289177   0.2057         0.088289177  
   2058000   239.82135     -5573.3278     -6304.6316     -965.67465      0.095793528    0.2058         0.95793528   
   2059000   246.02004     -5513.7747     -6263.9805     -587.90481      0.057986515    0.2059         0.57986515   
   2060000   243.84169     -5467.9074     -6211.4706     -342.95356      0.030577526    0.206          0.30577526   
   2061000   240.76211     -5576.3423     -6310.5147      146.40219     -0.011399823    0.2061        -0.11399823   
   2062000   244.18207     -5520.6817     -6265.2828      338.87966     -0.047073188    0.2062        -0.47073188   
   2063000   256.23709     -5460.1992     -6241.5605     -153.35335      0.018268075    0.2063         0.18268075   
   2064000   241.48565     -5559.1326     -6295.5114     -438.33923      0.045563036    0.2064         0.45563036   
   2065000   234.34051     -5509.7301     -6224.3207     -4.9332633     -0.004586002    0.2065        -0.04586002   
   2066000   252.44576     -5462.318      -6232.1182      895.58393     -0.076846561    0.2066        -0.76846561   
   2067000   235.13048     -5507.5951     -6224.5946     -393.33645      0.043039736    0.2067         0.43039736   
   2068000   239.28849     -5538.4754     -6268.1542      57.467955     -0.0081195049   0.2068        -0.081195049  
   2069000   251.28462     -5479.8655     -6246.1249     -228.57811      0.020580961    0.2069         0.20580961   
   2070000   238.51948     -5544.707      -6272.0408      139.75588     -0.019198589    0.207         -0.19198589   
   2071000   255.45435     -5525.0732     -6304.0477      809.2877      -0.084475789    0.2071        -0.84475789   
   2072000   250.97519     -5523.5923     -6288.9081     -448.77408      0.051990928    0.2072         0.51990928   
   2073000   243.2997      -5564.2887     -6306.1992      495.21474     -0.047556831    0.2073        -0.47556831   
   2074000   239.36569     -5580.3093     -6310.2236     -186.35084      0.019160695    0.2074         0.19160695   
   2075000   237.75884     -5536.8202     -6261.8345     -7.3955855     -0.0015884807   0.2075        -0.015884807  
   2076000   233.38319     -5577.0394     -6288.7108      944.5451      -0.098692952    0.2076        -0.98692952   
   2077000   243.69811     -5529.6135     -6272.7389      134.74997     -0.016941607    0.2077        -0.16941607   
   2078000   248.24836     -5448.1806     -6205.1814      505.3734      -0.061849494    0.2078        -0.61849494   
   2079000   239.4879      -5572.3017     -6302.5887      1041.5748     -0.098073504    0.2079        -0.98073504   
   2080000   255.98529     -5465.1211     -6245.7147      365.59073     -0.04435062     0.208         -0.4435062    
   2081000   246.0922      -5559.5059     -6309.9317      896.00518     -0.086671073    0.2081        -0.86671073   
   2082000   247.99979     -5530.2933     -6286.5361      183.30696     -0.028241429    0.2082        -0.28241429   
   2083000   246.18391     -5526.2411     -6276.9466      469.46015     -0.047280574    0.2083        -0.47280574   
   2084000   247.91968     -5572.7664     -6328.7649      193.1494      -0.011212568    0.2084        -0.11212568   
   2085000   250.19338     -5549.2725     -6312.2044     -768.907        0.079317466    0.2085         0.79317466   
   2086000   258.58769     -5522.8537     -6311.3829     -922.64241      0.089703639    0.2086         0.89703639   
   2087000   241.75142     -5556.7094     -6293.8986     -601.21064      0.068936896    0.2087         0.68936896   
   2088000   239.22791     -5530.6839     -6260.178       678.42032     -0.064810654    0.2088        -0.64810654   
   2089000   246.53222     -5505.7189     -6257.4865     -270.20099      0.023201208    0.2089         0.23201208   
   2090000   257.01466     -5522.483      -6306.2154      139.9048      -0.011940294    0.209         -0.11940294   
   2091000   245.57874     -5581.0295     -6329.8896      389.9545      -0.0357892      0.2091        -0.357892     
   2092000   249.97011     -5539.6481     -6301.8991     -63.249194      0.019826768    0.2092         0.19826768   
   2093000   247.16307     -5551.544      -6305.2353     -620.58737      0.068416135    0.2093         0.68416135   
   2094000   238.70556     -5560.6643     -6288.5656     -168.80618      0.024136434    0.2094         0.24136434   
   2095000   256.48851     -5481.5109     -6263.6389     -713.56053      0.064222302    0.2095         0.64222302   
   2096000   231.29689     -5567.5602     -6272.8696      331.94948     -0.028109985    0.2096        -0.28109985   
   2097000   249.01969     -5520.8251     -6280.178      -719.5713       0.077605118    0.2097         0.77605118   
   2098000   239.65365     -5569.4017     -6300.1941     -477.52483      0.03933441     0.2098         0.3933441    
   2099000   244.249       -5578.3841     -6323.1893     -1198.3751      0.11599708     0.2099         1.1599708    
   2100000   245.61125     -5566.78       -6315.7393     -278.15516      0.02827373     0.21           0.2827373    
Loop time of 91.095 on 56 procs for 100000 steps with 1536 atoms

Performance: 94.846 ns/day, 0.253 hours/ns, 1097.755 timesteps/s, 1.686 Matom-step/s
99.8% CPU use with 56 MPI tasks x no OpenMP threads

MPI task timing breakdown:
Section |  min time  |  avg time  |  max time  |%varavg| %total
---------------------------------------------------------------
Pair    | 21.349     | 24.504     | 26.403     |  22.1 | 26.90
Bond    | 0.01132    | 0.01434    | 0.026214   |   2.1 |  0.02
Kspace  | 36.877     | 38.736     | 41.799     |  16.9 | 42.52
Neigh   | 1.8212     | 1.8231     | 1.8246     |   0.1 |  2.00
Comm    | 9.9694     | 10.201     | 10.476     |   3.9 | 11.20
Output  | 0.076222   | 0.11953    | 0.15467    |   6.1 |  0.13
Modify  | 10.746     | 13.642     | 14.809     |  30.8 | 14.98
Other   |            | 2.055      |            |       |  2.26

Nlocal:        27.4286 ave          34 max          17 min
Histogram: 1 0 2 3 9 11 8 12 8 2
Nghost:        4090.45 ave        4139 max        4024 min
Histogram: 1 2 4 6 7 8 10 8 9 1
Neighs:        12005.2 ave       14869 max        7389 min
Histogram: 1 0 2 3 9 11 8 12 8 2

Total # of neighbors = 672292
Ave neighs/atom = 437.6901
Ave special neighs/atom = 2
Neighbor list builds = 1116
Dangerous builds = 0
kspace_style pppm/tip4p 1.0e-5
next nloop
jump SELF loop_start
run 100000 # 100ps
PPPM initialization ...
  extracting TIP4P info from pair style
  using 12-bit tables for long-range coulomb
  G vector (1/distance) = 0.33317127
  grid = 27 32 27
  stencil order = 5
  estimated absolute RMS force accuracy = 0.002647964
  estimated relative force accuracy = 7.974265e-06
  using double precision KISS FFT
  3d grid and FFT values/proc = 4862 448
Generated 0 of 1 mixed pair_coeff terms from geometric mixing rule
Per MPI rank memory allocation (min/avg/max) = 9.762 | 9.783 | 9.793 Mbytes
   Step          Temp          TotEng         PotEng          Pxy           v_sxy         v_strain     v_viscosity  
   2100000   245.61118     -5566.784      -6315.743      -278.02073      0.028259798    0.21           0.28259798   
   2101000   257.78393     -5552.4992     -6338.5774     -382.51368      0.033009351    0.2101         0.33009351   
   2102000   242.26135     -5574.8009     -6313.545       590.47621     -0.067080309    0.2102        -0.67080309   
   2103000   241.22176     -5566.109      -6301.6831      594.80573     -0.06488264     0.2103        -0.6488264    
   2104000   250.07073     -5556.4664     -6319.0242      118.85489     -0.025095092    0.2104        -0.25095092   
   2105000   236.9407      -5572.912      -6295.4315     -388.13524      0.032871414    0.2105         0.32871414   
   2106000   251.3186      -5518.4358     -6284.7989      305.2959      -0.031126413    0.2106        -0.31126413   
   2107000   242.17911     -5614.1478     -6352.6412     -76.640864     -0.0039343382   0.2107        -0.039343382  
   2108000   244.71162     -5599.9477     -6346.1636     -308.31758      0.037407279    0.2108         0.37407279   
   2109000   252.96721     -5547.1234     -6318.5137      206.2315      -0.020510736    0.2109        -0.20510736   
   2110000   246.2201      -5581.7567     -6332.5726     -826.93313      0.07414455     0.211          0.7414455    
   2111000   247.52544     -5588.8701     -6343.6664     -1110.8708      0.10600085     0.2111         1.0600085    
   2112000   246.86808     -5541.4352     -6294.227      -281.22433      0.022784144    0.2112         0.22784144   
   2113000   241.70101     -5566.3487     -6303.3842     -208.60933      0.0099398503   0.2113         0.099398503  
   2114000   245.23957     -5548.5232     -6296.3491     -206.59919      0.023476297    0.2114         0.23476297   
   2115000   257.08204     -5569.3317     -6353.2697     -364.54289      0.038140078    0.2115         0.38140078   
   2116000   242.57566     -5606.5629     -6346.2656     -155.26908      0.025492175    0.2116         0.25492175   
   2117000   256.83137     -5548.4817     -6331.6553     -265.32501      0.021891041    0.2117         0.21891041   
   2118000   240.19943     -5610.314      -6342.7707     -209.91617      0.026471235    0.2118         0.26471235   
   2119000   245.86916     -5586.3735     -6336.1192     -26.685991     -0.0025218868   0.2119        -0.025218868  
   2120000   233.71282     -5631.2728     -6343.9493     -93.104097      0.018431985    0.212          0.18431985   
   2121000   250.08365     -5549.5151     -6312.1123      123.09965     -0.021857488    0.2121        -0.21857488   
   2122000   252.60624     -5497.0373     -6267.3268     -365.64079      0.036373881    0.2122         0.36373881   
   2123000   241.53605     -5581.3455     -6317.8779     -725.90135      0.070414516    0.2123         0.70414516   
   2124000   246.74776     -5640.8183     -6393.2432      206.46624     -0.014320626    0.2124        -0.14320626   
   2125000   262.16091     -5454.8144     -6254.2397     -244.07466      0.020874161    0.2125         0.20874161   
   2126000   249.07006     -5585.9057     -6345.4121     -685.08999      0.055552602    0.2126         0.55552602   
   2127000   239.76668     -5603.9968     -6335.1338      110.95451     -0.013584025    0.2127        -0.13584025   
   2128000   240.41379     -5591.9611     -6325.0713     -64.697178      0.00084788028  0.2128         0.0084788028 
   2129000   250.30948     -5502.2283     -6265.5142      180.88617     -0.021877146    0.2129        -0.21877146   
   2130000   244.66632     -5519.2814     -6265.3592     -929.9604       0.092657225    0.213          0.92657225   
   2131000   229.97378     -5614.4504     -6315.7252      93.744807     -0.0094043054   0.2131        -0.094043054  
   2132000   245.70865     -5508.0378     -6257.294       359.81194     -0.039657204    0.2132        -0.39657204   
   2133000   239.545       -5560.2299     -6290.6909     -244.23648      0.03245409     0.2133         0.3245409    
   2134000   246.58828     -5581.6264     -6333.565       603.60326     -0.068340806    0.2134        -0.68340806   
   2135000   241.37378     -5613.2375     -6349.2752      38.027297     -0.0036599975   0.2135        -0.036599975  
   2136000   248.8481      -5567.3709     -6326.2005      287.87735     -0.039033233    0.2136        -0.39033233   
   2137000   249.18559     -5540.2253     -6300.084      -152.30277      0.012821587    0.2137         0.12821587   
   2138000   246.1916      -5557.6953     -6308.4242     -377.80717      0.041665319    0.2138         0.41665319   
   2139000   249.81535     -5542.667      -6304.4461      366.4631      -0.029806149    0.2139        -0.29806149   
   2140000   247.90086     -5554.8659     -6310.807       321.9542      -0.029675953    0.214         -0.29675953   
   2141000   254.67629     -5534.3791     -6310.9809      76.710367     -0.015693907    0.2141        -0.15693907   
   2142000   240.66999     -5581.1344     -6315.026       522.20185     -0.048540218    0.2142        -0.48540218   
   2143000   244.18402     -5543.7299     -6288.337      -287.01494      0.025477405    0.2143         0.25477405   
   2144000   237.7213      -5585.426      -6310.3259     -462.7728       0.051759673    0.2144         0.51759673   
   2145000   239.70396     -5573.2468     -6304.1926      169.39436     -0.014390466    0.2145        -0.14390466   
   2146000   247.14712     -5484.0585     -6237.7012      660.95862     -0.055879637    0.2146        -0.55879637   
   2147000   241.70845     -5530.496      -6267.5542     -76.079713      0.0021644352   0.2147         0.021644352  
   2148000   239.53913     -5540.8493     -6271.2924     -216.98994      0.013786198    0.2148         0.13786198   
   2149000   247.10801     -5536.6885     -6290.212      -685.09107      0.070981327    0.2149         0.70981327   
   2150000   251.19782     -5512.0436     -6278.0384      587.9836      -0.064252244    0.215         -0.64252244   
   2151000   239.97168     -5589.1595     -6320.9216     -329.81759      0.032724033    0.2151         0.32724033   
   2152000   249.36961     -5533.2382     -6293.6581      157.5051      -0.010861812    0.2152        -0.10861812   
   2153000   238.99482     -5600.2249     -6329.0082      426.43055     -0.042692145    0.2153        -0.42692145   
   2154000   251.80467     -5542.6656     -6310.5109      129.06047      0.005153177    0.2154         0.05153177   
   2155000   242.86004     -5539.0438     -6279.6136     -423.92208      0.044510891    0.2155         0.44510891   
   2156000   239.64479     -5547.4642     -6278.2295     -504.25768      0.04460186     0.2156         0.4460186    
   2157000   247.79908     -5523.094      -6278.7248     -234.69458      0.037549298    0.2157         0.37549298   
   2158000   245.85349     -5525.0159     -6274.7138     -1075.5459      0.10608429     0.2158         1.0608429    
   2159000   254.8228      -5523.0352     -6300.0839      561.20058     -0.055117409    0.2159        -0.55117409   
   2160000   241.71797     -5579.2345     -6316.3217      1014.1894     -0.090589955    0.216         -0.90589955   
   2161000   261.95923     -5511.2309     -6310.0412      359.82358     -0.040045706    0.2161        -0.40045706   
   2162000   245.92652     -5534.7013     -6284.622      -337.79592      0.017532115    0.2162         0.17532115   
   2163000   249.79635     -5573.606      -6335.3272      1144.7896     -0.11574447     0.2163        -1.1574447    
   2164000   247.64933     -5508.3518     -6263.5259     -489.54559      0.048830716    0.2164         0.48830716   
   2165000   238.9087      -5580.625      -6309.1457     -412.69591      0.042350387    0.2165         0.42350387   
   2166000   253.99806     -5472.4861     -6247.0198     -74.597074     -0.0033612314   0.2166        -0.033612314  
   2167000   239.58094     -5532.1179     -6262.6885      461.74158     -0.048995964    0.2167        -0.48995964   
   2168000   245.89894     -5485.7196     -6235.5561     -43.416288     -0.00090427384  0.2168        -0.0090427384 
   2169000   245.8101      -5495.979      -6245.5446     -100.34205      0.0069450876   0.2169         0.069450876  
   2170000   250.30054     -5496.2625     -6259.5212     -438.58112      0.053712719    0.217          0.53712719   
   2171000   246.40406     -5557.3399     -6308.7167      1043.9365     -0.10307597     0.2171        -1.0307597    
   2172000   241.2273      -5517.3153     -6252.9063     -110.75426      0.0071879604   0.2172         0.071879604  
   2173000   242.11417     -5521.1585     -6259.4539     -1139.0094      0.10848639     0.2173         1.0848639    
   2174000   248.85227     -5460.5802     -6219.4225     -391.20719      0.029471675    0.2174         0.29471675   
   2175000   241.41669     -5518.7313     -6254.8998     -497.88277      0.045088383    0.2175         0.45088383   
   2176000   247.35107     -5485.8342     -6240.0988     -614.09723      0.067296205    0.2176         0.67296205   
   2177000   242.12635     -5504.8775     -6243.2101     -93.054233      0.016151635    0.2177         0.16151635   
   2178000   241.66124     -5513.4453     -6250.3595      227.54457     -0.02532856     0.2178        -0.2532856    
   2179000   248.12103     -5480.1976     -6236.8101      1099.4706     -0.11979951     0.2179        -1.1979951    
   2180000   240.30928     -5500.7248     -6233.5164      531.97896     -0.061096965    0.218         -0.61096965   
   2181000   241.5435      -5527.3096     -6263.8648      38.938909      0.0016813459   0.2181         0.016813459  
   2182000   250.06879     -5464.127      -6226.679      -178.80353      0.0068949884   0.2182         0.068949884  
   2183000   244.38558     -5478.7629     -6223.9846      451.08895     -0.051371624    0.2183        -0.51371624   
   2184000   236.54003     -5546.5692     -6267.867       251.75438     -0.03759531     0.2184        -0.3759531    
   2185000   252.47606     -5445.3912     -6215.2838      28.603676     -0.0092536021   0.2185        -0.092536021  
   2186000   242.20955     -5463.2695     -6201.8558     -727.80983      0.070719091    0.2186         0.70719091   
   2187000   247.58104     -5491.5075     -6246.4733     -277.28371      0.030868353    0.2187         0.30868353   
   2188000   260.613       -5481.9942     -6276.6993      398.12728     -0.050398271    0.2188        -0.50398271   
   2189000   265.20631     -5421.1681     -6229.88       -379.04344      0.04069355     0.2189         0.4069355    
   2190000   239.63693     -5498.8716     -6229.6129      78.55636      -0.0034511849   0.219         -0.034511849  
   2191000   245.54257     -5454.39       -6203.1399      58.898539     -0.0063615813   0.2191        -0.063615813  
   2192000   242.56036     -5475.9958     -6215.6517     -53.697558      0.0063693413   0.2192         0.063693413  
   2193000   246.59996     -5500.9565     -6252.9307      475.12143     -0.044741314    0.2193        -0.44741314   
   2194000   236.07461     -5546.0707     -6265.9492      11.137706      5.3993925e-05  0.2194         0.00053993925
   2195000   247.8426      -5487.0044     -6242.7679     -392.27808      0.038199938    0.2195         0.38199938   
   2196000   243.17517     -5515.5899     -6257.1206     -320.42291      0.033291546    0.2196         0.33291546   
   2197000   241.7886      -5503.6962     -6240.9988     -725.06642      0.071359762    0.2197         0.71359762   
   2198000   233.72364     -5504.6229     -6217.3324     -242.16039      0.019327323    0.2198         0.19327323   
   2199000   243.40373     -5476.9565     -6219.1842     -585.05797      0.056923189    0.2199         0.56923189   
   2200000   242.99002     -5501.3907     -6242.3568      151.48997     -0.015393532    0.22          -0.15393532   
Loop time of 92.3351 on 56 procs for 100000 steps with 1536 atoms

Performance: 93.572 ns/day, 0.256 hours/ns, 1083.012 timesteps/s, 1.664 Matom-step/s
99.8% CPU use with 56 MPI tasks x no OpenMP threads

MPI task timing breakdown:
Section |  min time  |  avg time  |  max time  |%varavg| %total
---------------------------------------------------------------
Pair    | 22.565     | 24.559     | 26.298     |  18.0 | 26.60
Bond    | 0.011082   | 0.014252   | 0.025735   |   2.0 |  0.02
Kspace  | 38.294     | 39.847     | 41.877     |  14.0 | 43.15
Neigh   | 1.7836     | 1.7853     | 1.7868     |   0.1 |  1.93
Comm    | 10.051     | 10.244     | 10.436     |   3.0 | 11.09
Output  | 0.076671   | 0.12001    | 0.15518    |   6.1 |  0.13
Modify  | 12.131     | 14.203     | 14.86      |  21.2 | 15.38
Other   |            | 1.562      |            |       |  1.69

Nlocal:        27.4286 ave          34 max          19 min
Histogram: 2 0 5 5 9 5 16 5 5 4
Nghost:        4105.27 ave        4147 max        4052 min
Histogram: 2 1 2 6 9 9 15 5 4 3
Neighs:        11997.4 ave       14801 max        8234 min
Histogram: 2 0 5 5 9 6 15 5 5 4

Total # of neighbors = 671853
Ave neighs/atom = 437.4043
Ave special neighs/atom = 2
Neighbor list builds = 1089
Dangerous builds = 0
kspace_style pppm/tip4p 1.0e-5
next nloop
jump SELF loop_start
run 100000 # 100ps
PPPM initialization ...
  extracting TIP4P info from pair style
  using 12-bit tables for long-range coulomb
  G vector (1/distance) = 0.33285854
  grid = 27 32 27
  stencil order = 5
  estimated absolute RMS force accuracy = 0.0026990612
  estimated relative force accuracy = 8.1281426e-06
  using double precision KISS FFT
  3d grid and FFT values/proc = 4862 448
Generated 0 of 1 mixed pair_coeff terms from geometric mixing rule
Per MPI rank memory allocation (min/avg/max) = 9.762 | 9.783 | 9.793 Mbytes
   Step          Temp          TotEng         PotEng          Pxy           v_sxy         v_strain     v_viscosity  
   2200000   242.98993     -5501.3906     -6242.3565      151.67669     -0.015412751    0.22          -0.15412751   
   2201000   252.21574     -5456.2491     -6225.3479     -433.85626      0.047872295    0.2201         0.47872295   
   2202000   242.38463     -5516.4622     -6255.5823     -808.93301      0.071971174    0.2202         0.71971174   
   2203000   247.37864     -5497.8078     -6252.1565     -489.76977      0.055975852    0.2203         0.55975852   
   2204000   242.29525     -5470.0972     -6208.9447     -953.38376      0.097281931    0.2204         0.97281931   
   2205000   242.51175     -5485.3603     -6224.8681      167.45776     -0.022433017    0.2205        -0.22433017   
   2206000   239.46314     -5538.3812     -6268.5926      605.12611     -0.056107345    0.2206        -0.56107345   
   2207000   259.76797     -5483.1088     -6275.2371      91.686215     -0.014240265    0.2207        -0.14240265   
   2208000   239.44064     -5542.3225     -6272.4653      1082.2386     -0.09731198     0.2208        -0.9731198    
   2209000   245.55852     -5565.9577     -6314.7561     -73.950695     -0.0056306318   0.2209        -0.056306318  
   2210000   251.22999     -5508.4073     -6274.5002     -234.92949      0.020913684    0.221          0.20913684   
   2211000   254.74284     -5476.8318     -6253.6366     -485.43011      0.043818114    0.2211         0.43818114   
   2212000   258.31066     -5506.79       -6294.4745     -214.53956      0.01995648     0.2212         0.1995648    
   2213000   247.44522     -5553.4218     -6307.9735      119.86548     -0.010827293    0.2213        -0.10827293   
   2214000   246.05232     -5538.2847     -6288.589       177.04863     -0.0089830105   0.2214        -0.089830105  
   2215000   234.65749     -5553.4498     -6269.007       100.22646     -0.0086511939   0.2215        -0.086511939  
   2216000   257.27846     -5475.3785     -6259.9154      264.27264     -0.026892082    0.2216        -0.26892082   
   2217000   237.41181     -5584.6953     -6308.6515     -488.53724      0.050890113    0.2217         0.50890113   
   2218000   261.97721     -5428.6495     -6227.5146     -319.1881       0.035640852    0.2218         0.35640852   
   2219000   239.42789     -5629.0062     -6359.1101     -996.0436       0.10465503     0.2219         1.0465503    
   2220000   255.65855     -5480.9735     -6260.5707      676.56487     -0.07017066     0.222         -0.7017066    
   2221000   246.93686     -5552.9828     -6305.9843      450.42131     -0.043212426    0.2221        -0.43212426   
   2222000   239.48954     -5559.3374     -6289.6293     -321.36063      0.030642283    0.2222         0.30642283   
   2223000   258.61376     -5513.3965     -6302.0052     -967.20371      0.097795557    0.2223         0.97795557   
   2224000   247.40358     -5492.1086     -6246.5333      104.76435     -0.011396524    0.2224        -0.11396524   
   2225000   242.94702     -5548.0743     -6288.9094     -18.333133     -0.00065861604  0.2225        -0.0065861604 
   2226000   248.91        -5509.4818     -6268.5002     -255.03849      0.024296013    0.2226         0.24296013   
   2227000   250.96609     -5507.0107     -6272.2988     -210.02348      0.025815686    0.2227         0.25815686   
   2228000   245.0516      -5617.0937     -6364.3464     -224.49892      0.027712807    0.2228         0.27712807   
   2229000   248.90794     -5521.5658     -6280.5779     -622.6072       0.064651014    0.2229         0.64651014   
   2230000   252.64844     -5571.8766     -6342.2949     -368.774        0.041528741    0.223          0.41528741   
   2231000   246.89117     -5550.2236     -6303.0858     -380.71766      0.039568403    0.2231         0.39568403   
   2232000   243.97577     -5528.8883     -6272.8604      191.9363      -0.022942467    0.2232        -0.22942467   
   2233000   249.49568     -5491.1412     -6251.9455     -275.27627      0.027006845    0.2233         0.27006845   
   2234000   243.36752     -5547.8469     -6289.9641      327.78551     -0.045500706    0.2234        -0.45500706   
   2235000   242.77621     -5548.5234     -6288.8376     -154.77199      0.024211394    0.2235         0.24211394   
   2236000   253.20474     -5528.369      -6300.4836      857.61188     -0.089340301    0.2236        -0.89340301   
   2237000   248.68027     -5571.3401     -6329.6579     -454.83862      0.043921895    0.2237         0.43921895   
   2238000   243.8959      -5531.6273     -6275.3558     -408.35596      0.047848565    0.2238         0.47848565   
   2239000   236.27301     -5568.8033     -6289.2868     -189.88769      0.013918155    0.2239         0.13918155   
   2240000   255.45779     -5538.8082     -6317.7931      1034.8917     -0.10227816     0.224         -1.0227816    
   2241000   237.23567     -5654.609      -6378.028      -120.40264      0.010794064    0.2241         0.10794064   
   2242000   256.92949     -5499.621      -6283.0938      229.97783     -0.034319314    0.2242        -0.34319314   
   2243000   248.34973     -5536.9297     -6294.2396     -180.99258      0.018169191    0.2243         0.18169191   
   2244000   242.09676     -5561.0078     -6299.2501     -603.53317      0.057096198    0.2244         0.57096198   
   2245000   249.74446     -5537.278      -6298.8409     -45.330222      0.0050967654   0.2245         0.050967654  
   2246000   252.89969     -5500.9205     -6272.1049      458.06001     -0.043288582    0.2246        -0.43288582   
   2247000   230.29787     -5617.8473     -6320.1104     -181.11057      0.010567647    0.2247         0.10567647   
   2248000   254.41455     -5517.6808     -6293.4845      707.53352     -0.072258196    0.2248        -0.72258196   
   2249000   239.25046     -5555.4069     -6284.9697      1214.2008     -0.11984535     0.2249        -1.1984535    
   2250000   240.38918     -5483.7258     -6216.7611      223.91964     -0.02513256     0.225         -0.2513256    
   2251000   255.98404     -5495.4208     -6276.0105      630.8831      -0.061383029    0.2251        -0.61383029   
   2252000   234.90092     -5577.0853     -6293.3848      319.13634     -0.026833664    0.2252        -0.26833664   
   2253000   247.60013     -5432.3456     -6187.3697      221.62523     -0.027502862    0.2253        -0.27502862   
   2254000   247.57631     -5530.74       -6285.6914     -223.37274      0.026849025    0.2254         0.26849025   
   2255000   250.07733     -5421.4495     -6184.0275     -418.9277       0.040312709    0.2255         0.40312709   
   2256000   247.05831     -5488.3301     -6241.7019      318.41707     -0.030952072    0.2256        -0.30952072   
   2257000   248.29542     -5483.2279     -6240.3722     -355.27217      0.032296173    0.2257         0.32296173   
   2258000   242.71613     -5468.1581     -6208.289      -142.42702      0.012962696    0.2258         0.12962696   
   2259000   244.12441     -5525.9113     -6270.3366      775.16139     -0.069860015    0.2259        -0.69860015   
   2260000   253.443       -5535.7774     -6308.6185      523.08822     -0.049351063    0.226         -0.49351063   
   2261000   246.36704     -5520.133      -6271.3969      223.23887     -0.030449671    0.2261        -0.30449671   
   2262000   251.73564     -5494.7        -6262.3348      507.5716      -0.052636309    0.2262        -0.52636309   
   2263000   241.91897     -5575.1012     -6312.8014      519.67197     -0.054764091    0.2263        -0.54764091   
   2264000   251.66952     -5543.5181     -6310.9512      600.04571     -0.055094695    0.2264        -0.55094695   
   2265000   262.52468     -5531.8395     -6332.3741      297.36346     -0.039013528    0.2265        -0.39013528   
   2266000   242.62872     -5571.3365     -6311.2009     -367.44009      0.03885647     0.2266         0.3885647    
   2267000   246.81231     -5595.53       -6348.1518      56.655297     -0.001469563    0.2267        -0.01469563   
   2268000   249.20095     -5598.7513     -6358.6569     -562.56591      0.044231637    0.2268         0.44231637   
   2269000   257.93766     -5504.755      -6291.3021     -154.17647      0.021671995    0.2269         0.21671995   
   2270000   246.01576     -5580.6893     -6330.882       453.59693     -0.042563775    0.227         -0.42563775   
   2271000   237.04243     -5640.9212     -6363.7509      462.41359     -0.053256978    0.2271        -0.53256978   
   2272000   244.12826     -5587.8903     -6332.3274     -160.98687      0.01255804     0.2272         0.1255804    
   2273000   253.10697     -5529.0654     -6300.8819     -745.49969      0.065538971    0.2273         0.65538971   
   2274000   253.98978     -5524.4648     -6298.9733      96.022777     -0.0015181868   0.2274        -0.015181868  
   2275000   235.00776     -5591.1564     -6307.7817     -6.4189364     -0.0098067047   0.2275        -0.098067047  
   2276000   249.69607     -5595.055      -6356.4704     -621.8222       0.068220348    0.2276         0.68220348   
   2277000   249.60082     -5530.7184     -6291.8433      280.10136     -0.019849551    0.2277        -0.19849551   
   2278000   245.44063     -5554.0364     -6302.4754     -68.464103      0.0062589496   0.2278         0.062589496  
   2279000   246.30115     -5602.4066     -6353.4696      107.78382     -0.015804835    0.2279        -0.15804835   
   2280000   252.8154      -5579.7815     -6350.7088      159.92482     -0.0070149343   0.228         -0.070149343  
   2281000   254.10027     -5521.6149     -6296.4603     -617.24907      0.064435398    0.2281         0.64435398   
   2282000   233.67376     -5631.4277     -6343.9852      386.40276     -0.047009395    0.2282        -0.47009395   
   2283000   246.94082     -5515.8275     -6268.8411      176.57988     -0.021744636    0.2283        -0.21744636   
   2284000   245.12373     -5503.9883     -6251.461      -537.85375      0.052742088    0.2284         0.52742088   
   2285000   239.78263     -5537.8754     -6269.0611     -189.7923       0.01024729     0.2285         0.1024729    
   2286000   236.3807      -5515.667      -6236.4789      691.18779     -0.060631511    0.2286        -0.60631511   
   2287000   248.06791     -5485.8852     -6242.3357      76.67226      -0.0014854896   0.2287        -0.014854896  
   2288000   233.79085     -5556.7122     -6269.6267      299.49564     -0.03269634     0.2288        -0.3269634    
   2289000   231.28059     -5601.3799     -6306.6397      349.90848     -0.021594255    0.2289        -0.21594255   
   2290000   254.61426     -5562.2461     -6338.6588      396.13747     -0.038687834    0.229         -0.38687834   
   2291000   256.07235     -5517.6325     -6298.4915      1019.4735     -0.11158228     0.2291        -1.1158228    
   2292000   250.54688     -5538.5278     -6302.5376     -729.39378      0.074751586    0.2292         0.74751586   
   2293000   252.41123     -5629.3421     -6399.037      -1200.9124      0.12171834     0.2293         1.2171834    
   2294000   248.24899     -5578.0708     -6335.0735      209.99042     -0.0088626473   0.2294        -0.088626473  
   2295000   237.82898     -5619.8666     -6345.0949     -192.43661      0.018687551    0.2295         0.18687551   
   2296000   255.06386     -5524.812      -6302.5958      754.76588     -0.073797704    0.2296        -0.73797704   
   2297000   237.2618      -5635.5665     -6359.0652      274.79884     -0.031157227    0.2297        -0.31157227   
   2298000   248.91048     -5535.9404     -6294.9602      327.06677     -0.035841249    0.2298        -0.35841249   
   2299000   237.99435     -5558.0625     -6283.795      -138.37566      0.017847604    0.2299         0.17847604   
   2300000   247.6741      -5527.4291     -6282.6787     -603.48808      0.063570512    0.23           0.63570512   
Loop time of 92.9821 on 56 procs for 100000 steps with 1536 atoms

Performance: 92.921 ns/day, 0.258 hours/ns, 1075.476 timesteps/s, 1.652 Matom-step/s
99.8% CPU use with 56 MPI tasks x no OpenMP threads

MPI task timing breakdown:
Section |  min time  |  avg time  |  max time  |%varavg| %total
---------------------------------------------------------------
Pair    | 21.741     | 24.593     | 27.11      |  22.9 | 26.45
Bond    | 0.011207   | 0.014259   | 0.025886   |   2.1 |  0.02
Kspace  | 37.716     | 40.08      | 42.776     |  17.4 | 43.10
Neigh   | 1.7946     | 1.7972     | 1.7992     |   0.1 |  1.93
Comm    | 10.077     | 10.305     | 10.518     |   3.1 | 11.08
Output  | 0.14693    | 0.19012    | 0.22545    |   4.9 |  0.20
Modify  | 12.091     | 14.227     | 14.887     |  21.4 | 15.30
Other   |            | 1.776      |            |       |  1.91

Nlocal:        27.4286 ave          36 max          20 min
Histogram: 3 4 4 12 7 10 8 3 4 1
Nghost:        4123.77 ave        4187 max        4072 min
Histogram: 5 6 4 7 10 11 2 7 2 2
Neighs:        12000.8 ave       15588 max        8653 min
Histogram: 3 2 6 11 8 10 6 5 4 1

Total # of neighbors = 672046
Ave neighs/atom = 437.52995
Ave special neighs/atom = 2
Neighbor list builds = 1090
Dangerous builds = 0
kspace_style pppm/tip4p 1.0e-5
next nloop
jump SELF loop_start
run 100000 # 100ps
PPPM initialization ...
  extracting TIP4P info from pair style
  using 12-bit tables for long-range coulomb
  G vector (1/distance) = 0.33251798
  grid = 27 32 27
  stencil order = 5
  estimated absolute RMS force accuracy = 0.0027556746
  estimated relative force accuracy = 8.2986322e-06
  using double precision KISS FFT
  3d grid and FFT values/proc = 4862 448
Generated 0 of 1 mixed pair_coeff terms from geometric mixing rule
Per MPI rank memory allocation (min/avg/max) = 9.762 | 9.783 | 9.793 Mbytes
   Step          Temp          TotEng         PotEng          Pxy           v_sxy         v_strain     v_viscosity  
   2300000   247.67426     -5527.4275     -6282.6776     -603.33206      0.063554863    0.23           0.63554863   
   2301000   236.93357     -5585.0879     -6307.5857     -41.936871     -0.0012187774   0.2301        -0.012187774  
   2302000   238.19202     -5579.2367     -6305.572       279.03327     -0.025005172    0.2302        -0.25005172   
   2303000   252.85415     -5526.5512     -6297.5967     -723.35627      0.077762615    0.2303         0.77762615   
   2304000   231.75501     -5575.4414     -6282.1478      46.657173      0.00015697775  0.2304         0.0015697775 
   2305000   245.40548     -5525.1983     -6273.5301     -106.34329      0.018785697    0.2305         0.18785697   
   2306000   250.03345     -5541.9274     -6304.3716     -1059.6078      0.11310131     0.2306         1.1310131    
   2307000   250.14509     -5508.0708     -6270.8554     -587.0647       0.068313747    0.2307         0.68313747   
   2308000   247.659       -5542.89       -6298.0936     -1084.7561      0.10286954     0.2308         1.0286954    
   2309000   252.05646     -5535.2473     -6303.8604     -292.46419      0.021657932    0.2309         0.21657932   
   2310000   234.99266     -5528.5169     -6245.0961      751.56385     -0.076942951    0.231         -0.76942951   
   2311000   238.10352     -5574.9774     -6301.0428     -93.625925     -0.0033964722   0.2311        -0.033964722  
   2312000   250.15545     -5490.0093     -6252.8255     -886.43707      0.085371059    0.2312         0.85371059   
   2313000   244.83305     -5561.088      -6307.6742     -436.07086      0.046666654    0.2313         0.46666654   
   2314000   252.91575     -5502.4484     -6273.6818     -194.17407      0.013048434    0.2314         0.13048434   
   2315000   242.77006     -5582.9175     -6323.2129     -435.39015      0.040644086    0.2315         0.40644086   
   2316000   261.2242      -5487.5591     -6284.128       295.30397     -0.027186017    0.2316        -0.27186017   
   2317000   244.71253     -5610.1557     -6356.3744     -71.492094     -0.00045911066  0.2317        -0.0045911066 
   2318000   242.98885     -5508.0195     -6248.982       575.88794     -0.060533038    0.2318        -0.60533038   
   2319000   243.31934     -5610.3284     -6352.2988     -536.58319      0.057337235    0.2319         0.57337235   
   2320000   248.55873     -5543.9689     -6301.9161     -215.61489      0.024450993    0.232          0.24450993   
   2321000   244.16519     -5598.3852     -6342.9349     -767.83858      0.071461545    0.2321         0.71461545   
   2322000   237.12009     -5623.3121     -6346.3787     -1009.149       0.098187391    0.2322         0.98187391   
   2323000   246.12037     -5569.3992     -6319.911      -784.23323      0.067707877    0.2323         0.67707877   
   2324000   246.39485     -5652.2354     -6403.5842      148.09016     -0.012775659    0.2324        -0.12775659   
   2325000   250.09631     -5566.8928     -6329.5287      398.37069     -0.034728974    0.2325        -0.34728974   
   2326000   252.43014     -5588.2922     -6358.0448     -260.06864      0.027968083    0.2326         0.27968083   
   2327000   252.66058     -5592.2175     -6362.6728      604.45052     -0.06069616     0.2327        -0.6069616    
   2328000   250.37813     -5590.5202     -6354.0155     -273.31279      0.023146203    0.2328         0.23146203   
   2329000   245.90724     -5561.0261     -6310.8879     -303.63455      0.03040062     0.2329         0.3040062    
   2330000   247.30289     -5597.9001     -6352.0178      265.94541     -0.036347452    0.233         -0.36347452   
   2331000   243.30169     -5601.0596     -6342.9762     -35.027083      0.0057613712   0.2331         0.057613712  
   2332000   255.12292     -5585.8931     -6363.8569     -148.17249      0.022489693    0.2332         0.22489693   
   2333000   242.57795     -5568.568      -6308.2775      479.26887     -0.042527077    0.2333        -0.42527077   
   2334000   244.06049     -5565.4204     -6309.6508     -52.439361      0.012552632    0.2334         0.12552632   
   2335000   234.45007     -5569.9454     -6284.8701     -724.46327      0.080290392    0.2335         0.80290392   
   2336000   239.90415     -5613.1556     -6344.7118     -507.4917       0.04488769     0.2336         0.4488769    
   2337000   250.2287      -5535.6976     -6298.7372      319.94924     -0.03626773     0.2337        -0.3626773    
   2338000   242.43651     -5585.7603     -6325.0386      196.34208     -0.020570806    0.2338        -0.20570806   
   2339000   249.22745     -5500.8697     -6260.8561     -679.74614      0.056318835    0.2339         0.56318835   
   2340000   257.31243     -5534.317      -6318.9575     -396.44609      0.03614341     0.234          0.3614341    
   2341000   246.71786     -5543.8042     -6296.1379     -528.85398      0.048011809    0.2341         0.48011809   
   2342000   240.26952     -5583.2695     -6315.9398      129.87229     -0.021835442    0.2342        -0.21835442   
   2343000   240.10188     -5585.9502     -6318.1093      232.7553      -0.02567225     0.2343        -0.2567225    
   2344000   252.23613     -5538.077      -6307.238       151.97566     -0.0091694955   0.2344        -0.091694955  
   2345000   251.18265     -5535.0691     -6301.0176      473.28653     -0.043760178    0.2345        -0.43760178   
   2346000   256.95756     -5505.8983     -6289.4566      23.400669      0.0072190193   0.2346         0.072190193  
   2347000   239.75611     -5597.4692     -6328.5739     -1142.4784      0.11612612     0.2347         1.1612612    
   2348000   249.47971     -5552.5616     -6313.3173     -532.2474       0.052108672    0.2348         0.52108672   
   2349000   252.19322     -5513.72       -6282.7501     -1146.8072      0.10975679     0.2349         1.0975679    
   2350000   244.39018     -5510.3837     -6255.6194      226.3026      -0.026592146    0.235         -0.26592146   
   2351000   239.33554     -5580.1145     -6309.9368      399.8417      -0.040982339    0.2351        -0.40982339   
   2352000   260.67998     -5473.1263     -6268.0357      358.92623     -0.026423144    0.2352        -0.26423144   
   2353000   234.73831     -5580.3749     -6296.1785      115.16027     -0.016320252    0.2353        -0.16320252   
   2354000   248.54054     -5577.0976     -6334.9893     -378.04839      0.026916045    0.2354         0.26916045   
   2355000   242.63638     -5557.6323     -6297.52        59.861151     -0.0097612924   0.2355        -0.097612924  
   2356000   242.63869     -5574.5148     -6314.4096      201.9865      -0.020616072    0.2356        -0.20616072   
   2357000   246.93921     -5579.2488     -6332.2575     -38.866812      0.002089379    0.2357         0.02089379   
   2358000   261.13869     -5524.0543     -6320.3624      707.4486      -0.066383564    0.2358        -0.66383564   
   2359000   238.61418     -5569.0624     -6296.685       742.62058     -0.070635868    0.2359        -0.70635868   
   2360000   238.2932      -5579.957      -6306.6008     -510.66732      0.044566762    0.236          0.44566762   
   2361000   245.1174      -5467.0518     -6214.5052     -465.46064      0.040845804    0.2361         0.40845804   
   2362000   235.29406     -5605.9971     -6323.4954     -149.57897      0.012200464    0.2362         0.12200464   
   2363000   252.21965     -5548.4215     -6317.5322      711.10065     -0.065238973    0.2363        -0.65238973   
   2364000   253.58673     -5523.8739     -6297.1533     -311.0105       0.02610538     0.2364         0.2610538    
   2365000   249.79009     -5535.5319     -6297.234      -68.676996      0.014539862    0.2365         0.14539862   
   2366000   251.59703     -5552.5966     -6319.8087      40.809898      0.0006802789   0.2366         0.006802789  
   2367000   246.35556     -5512.2349     -6263.4638      409.06049     -0.039226327    0.2367        -0.39226327   
   2368000   233.57141     -5594.3144     -6306.5598      267.29167     -0.032699122    0.2368        -0.32699122   
   2369000   241.78887     -5507.5449     -6244.8483     -502.20149      0.049707887    0.2369         0.49707887   
   2370000   249.28237     -5555.3        -6315.4538     -250.60029      0.025671359    0.237          0.25671359   
   2371000   258.85319     -5514.6934     -6304.0322     -761.04454      0.081014804    0.2371         0.81014804   
   2372000   237.5929      -5623.9865     -6348.4949      232.78958     -0.03494728     0.2372        -0.3494728    
   2373000   247.65569     -5563.9972     -6319.1907     -369.27852      0.04913762     0.2373         0.4913762    
   2374000   244.41051     -5548.8068     -6294.1046     -1181.8187      0.11234679     0.2374         1.1234679    
   2375000   245.62837     -5582.3473     -6331.3588     -869.75936      0.0771264      0.2375         0.771264     
   2376000   241.6032      -5591.023      -6327.7602      653.42189     -0.059887251    0.2376        -0.59887251   
   2377000   244.3384      -5525.0629     -6270.1407     -833.31245      0.089994186    0.2377         0.89994186   
   2378000   247.31036     -5512.0544     -6266.1948      723.93114     -0.078163783    0.2378        -0.78163783   
   2379000   245.57436     -5571.1099     -6319.9566      241.32923     -0.026530741    0.2379        -0.26530741   
   2380000   240.11555     -5561.1607     -6293.3615     -620.82988      0.063327113    0.238          0.63327113   
   2381000   250.12821     -5521.7914     -6284.5245     -713.86171      0.065268896    0.2381         0.65268896   
   2382000   251.94734     -5513.0851     -6281.3654     -219.46604      0.016736115    0.2382         0.16736115   
   2383000   246.2436      -5542.862      -6293.7495      92.943506     -0.0090912671   0.2383        -0.090912671  
   2384000   252.59836     -5489.8408     -6260.1063     -234.98968      0.021959785    0.2384         0.21959785   
   2385000   244.85588     -5523.6434     -6270.2993      474.41853     -0.038268821    0.2385        -0.38268821   
   2386000   251.46603     -5496.3338     -6263.1464     -262.72097      0.021228896    0.2386         0.21228896   
   2387000   252.32283     -5516.2389     -6285.6643      390.07414     -0.041105191    0.2387        -0.41105191   
   2388000   244.52803     -5548.499      -6294.1551      119.1598      -0.02134182     0.2388        -0.2134182    
   2389000   253.32178     -5509.8728     -6282.3443      303.37736     -0.02260159     0.2389        -0.2260159    
   2390000   235.14387     -5562.1734     -6279.2138      152.69484     -0.018039163    0.239         -0.18039163   
   2391000   243.34071     -5546.8445     -6288.88        473.29492     -0.044576125    0.2391        -0.44576125   
   2392000   241.84636     -5557.7791     -6295.2578      617.12162     -0.063157888    0.2392        -0.63157888   
   2393000   245.19129     -5536.6169     -6284.2956     -102.50438      0.0088166148   0.2393         0.088166148  
   2394000   239.48823     -5536.5758     -6266.8637     -396.32205      0.03753712     0.2394         0.3753712    
   2395000   236.54371     -5626.7373     -6348.0463      199.98981     -0.023251274    0.2395        -0.23251274   
   2396000   247.9912      -5582.6646     -6338.8812      247.33772     -0.01947157     0.2396        -0.1947157    
   2397000   241.53535     -5583.3768     -6319.9071     -413.25375      0.037610395    0.2397         0.37610395   
   2398000   240.29428     -5526.0977     -6258.8436     -419.77583      0.03226313     0.2398         0.3226313    
   2399000   250.08895     -5545.4921     -6308.1055     -547.48646      0.051727852    0.2399         0.51727852   
   2400000   246.55071     -5552.645      -6304.469      -12.911802      0.00028489417  0.24           0.0028489417 
Loop time of 92.5637 on 56 procs for 100000 steps with 1536 atoms

Performance: 93.341 ns/day, 0.257 hours/ns, 1080.338 timesteps/s, 1.659 Matom-step/s
99.8% CPU use with 56 MPI tasks x no OpenMP threads

MPI task timing breakdown:
Section |  min time  |  avg time  |  max time  |%varavg| %total
---------------------------------------------------------------
Pair    | 21.304     | 24.541     | 27.364     |  28.6 | 26.51
Bond    | 0.010901   | 0.014208   | 0.025488   |   2.1 |  0.02
Kspace  | 37.317     | 40.004     | 43.038     |  21.5 | 43.22
Neigh   | 1.7799     | 1.7815     | 1.7833     |   0.1 |  1.92
Comm    | 10.114     | 10.3       | 10.505     |   2.8 | 11.13
Output  | 0.0782     | 0.12141    | 0.15647    |   6.1 |  0.13
Modify  | 12.157     | 14.237     | 14.912     |  21.2 | 15.38
Other   |            | 1.565      |            |       |  1.69

Nlocal:        27.4286 ave          36 max          20 min
Histogram: 5 5 3 9 6 9 10 4 3 2
Nghost:        4111.75 ave        4174 max        4058 min
Histogram: 2 4 5 11 7 13 8 3 1 2
Neighs:        11995.6 ave       15774 max        8662 min
Histogram: 5 4 4 9 10 5 9 6 2 2

Total # of neighbors = 671755
Ave neighs/atom = 437.34049
Ave special neighs/atom = 2
Neighbor list builds = 1071
Dangerous builds = 0
kspace_style pppm/tip4p 1.0e-5
next nloop
jump SELF loop_start
run 100000 # 100ps
PPPM initialization ...
  extracting TIP4P info from pair style
  using 12-bit tables for long-range coulomb
  G vector (1/distance) = 0.33214812
  grid = 27 32 27
  stencil order = 5
  estimated absolute RMS force accuracy = 0.002818326
  estimated relative force accuracy = 8.4873051e-06
  using double precision KISS FFT
  3d grid and FFT values/proc = 4862 448
Generated 0 of 1 mixed pair_coeff terms from geometric mixing rule
Per MPI rank memory allocation (min/avg/max) = 9.762 | 9.783 | 9.793 Mbytes
   Step          Temp          TotEng         PotEng          Pxy           v_sxy         v_strain     v_viscosity  
   2400000   246.55048     -5552.6455     -6304.4688     -12.683823      0.00026140453  0.24           0.0026140453 
   2401000   251.97494     -5510.3216     -6278.6861      851.21844     -0.088001183    0.2401        -0.88001183   
   2402000   242.945       -5592.148      -6332.9769      144.42083     -0.013902816    0.2402        -0.13902816   
   2403000   249.09686     -5548.613      -6308.2012     -58.248513      0.002455158    0.2403         0.02455158   
   2404000   249.90401     -5540.6686     -6302.7181      289.30356     -0.039376791    0.2404        -0.39376791   
   2405000   263.43638     -5538.8511     -6342.1658      63.713067     -0.012950081    0.2405        -0.12950081   
   2406000   237.57669     -5607.1471     -6331.606      -529.21517      0.048405675    0.2406         0.48405675   
   2407000   237.40871     -5578.2777     -6302.2244      265.69683     -0.026691422    0.2407        -0.26691422   
   2408000   245.95987     -5566.1506     -6316.1729      351.80454     -0.039729339    0.2408        -0.39729339   
   2409000   247.10135     -5537.2691     -6290.7722      17.042355     -0.0031437356   0.2409        -0.031437356  
   2410000   251.00563     -5511.2261     -6276.6348     -125.02859      0.0023944794   0.241          0.023944794  
   2411000   239.77917     -5575.2236     -6306.3987      29.90772       0.0054510059   0.2411         0.054510059  
   2412000   251.28281     -5539.5278     -6305.7817      469.96804     -0.053912148    0.2412        -0.53912148   
   2413000   241.37941     -5611.9544     -6348.0092     -788.9313       0.072799213    0.2413         0.72799213   
   2414000   246.70767     -5582.3678     -6334.6704      254.86246     -0.026586259    0.2414        -0.26586259   
   2415000   240.92902     -5600.5452     -6335.2266     -73.173337      0.015391388    0.2415         0.15391388   
   2416000   249.44454     -5528.7584     -6289.4067      314.81516     -0.029632695    0.2416        -0.29632695   
   2417000   248.75915     -5573.9045     -6332.4629      20.262161      0.00065761474  0.2417         0.0065761474 
   2418000   249.48734     -5552.9843     -6313.7632     -472.46167      0.045266746    0.2418         0.45266746   
   2419000   249.95293     -5553.9915     -6316.1902      407.97424     -0.029622229    0.2419        -0.29622229   
   2420000   242.70705     -5603.1031     -6343.2064     -365.67339      0.019200499    0.242          0.19200499   
   2421000   252.4718      -5571.234      -6341.1136      435.82878     -0.031072437    0.2421        -0.31072437   
   2422000   241.94759     -5565.0166     -6302.804       39.073082     -0.0060100791   0.2422        -0.060100791  
   2423000   247.21728     -5579.1176     -6332.9742      444.67434     -0.049782837    0.2423        -0.49782837   
   2424000   253.63079     -5601.4213     -6374.8351      125.06475     -0.0025304796   0.2424        -0.025304796  
   2425000   231.09286     -5609.6477     -6314.335      -110.947        0.0078109637   0.2425         0.078109637  
   2426000   237.88824     -5601.0574     -6326.4663      418.21614     -0.052973787    0.2426        -0.52973787   
   2427000   252.41194     -5607.4818     -6377.1789     -437.79626      0.042243798    0.2427         0.42243798   
   2428000   257.29206     -5534.8294     -6319.4078     -242.85766      0.024550313    0.2428         0.24550313   
   2429000   249.54142     -5582.1365     -6343.0803     -314.08232      0.031315712    0.2429         0.31315712   
   2430000   244.39156     -5578.7927     -6324.0326     -298.85556      0.031181242    0.243          0.31181242   
   2431000   248.79852     -5519.2595     -6277.9379      610.95987     -0.055463894    0.2431        -0.55463894   
   2432000   246.25184     -5562.8441     -6313.7568     -704.84469      0.07811169     0.2432         0.7811169    
   2433000   250.84616     -5543.9288     -6308.8512      236.1823      -0.024144907    0.2433        -0.24144907   
   2434000   250.21574     -5545.1586     -6308.1587     -456.36223      0.048423525    0.2434         0.48423525   
   2435000   252.84514     -5502.3426     -6273.3607     -346.05593      0.035012832    0.2435         0.35012832   
   2436000   239.56964     -5530.9099     -6261.446       348.78496     -0.026432648    0.2436        -0.26432648   
   2437000   260.33939     -5508.9062     -6302.777       337.98627     -0.024030839    0.2437        -0.24030839   
   2438000   239.92197     -5560.5679     -6292.1784      294.89542     -0.037936983    0.2438        -0.37936983   
   2439000   238.09662     -5555.5974     -6281.6418     -75.685067      0.01233353     0.2439         0.1233353    
   2440000   238.90396     -5538.5549     -6267.0611      398.45516     -0.040665835    0.244         -0.40665835   
   2441000   253.64459     -5493.8205     -6267.2764      373.90637     -0.036349139    0.2441        -0.36349139   
   2442000   248.86125     -5546.0694     -6304.9391      1323.4059     -0.12140942     0.2442        -1.2140942    
   2443000   241.68523     -5599.884      -6336.8714     -340.77849      0.025393425    0.2443         0.25393425   
   2444000   258.94382     -5460.1332     -6249.7484     -152.31715      0.020872745    0.2444         0.20872745   
   2445000   241.76279     -5609.0152     -6346.2391     -41.281725     -0.0053669043   0.2445        -0.053669043  
   2446000   248.45917     -5576.4513     -6334.0949     -963.8081       0.092144414    0.2446         0.92144414   
   2447000   245.19696     -5569.1153     -6316.8113     -670.84925      0.068338808    0.2447         0.68338808   
   2448000   258.07725     -5475.6566     -6262.6292     -794.46297      0.080290783    0.2448         0.80290783   
   2449000   248.47866     -5578.3551     -6336.0582     -174.46261      0.01630357     0.2449         0.1630357    
   2450000   248.10123     -5592.9049     -6349.457      -274.43373      0.028599323    0.245          0.28599323   
   2451000   252.82723     -5539.505      -6310.4685      190.98413     -0.021527992    0.2451        -0.21527992   
   2452000   247.52147     -5541.6415     -6296.4257      171.06897     -0.016914922    0.2452        -0.16914922   
   2453000   232.38092     -5587.3468     -6295.9619     -866.7204       0.090051402    0.2453         0.90051402   
   2454000   244.24373     -5487.0558     -6231.845       23.931349      0.00039452945  0.2454         0.0039452945 
   2455000   234.6377      -5593.3174     -6308.8143      1495.6645     -0.16301257     0.2455        -1.6301257    
   2456000   249.18505     -5562.2778     -6322.1349     -322.10439      0.041407243    0.2456         0.41407243   
   2457000   247.8867      -5521.5974     -6277.4953     -266.01568      0.023651282    0.2457         0.23651282   
   2458000   249.0472      -5498.2089     -6257.6456      74.251358     -0.019813794    0.2458        -0.19813794   
   2459000   242.57987     -5560.6538     -6300.3692      61.902941      0.006624799    0.2459         0.06624799   
   2460000   253.84778     -5529.7154     -6303.7909     -170.6463       0.022607585    0.246          0.22607585   
   2461000   249.24202     -5515.5123     -6275.5431      339.42643     -0.027757476    0.2461        -0.27757476   
   2462000   244.87849     -5590.4321     -6337.1569      184.01939     -0.015360373    0.2462        -0.15360373   
   2463000   247.70838     -5551.1056     -6306.4598     -586.77163      0.06337351     0.2463         0.6337351    
   2464000   246.42685     -5542.5795     -6294.0258      405.57882     -0.026538201    0.2464        -0.26538201   
   2465000   251.59826     -5504.2515     -6271.4674     -897.39265      0.094514592    0.2465         0.94514592   
   2466000   251.62141     -5526.809      -6294.0955      69.490299      0.0062497035   0.2466         0.062497035  
   2467000   247.86157     -5539.6104     -6295.4318     -99.534444      0.022414837    0.2467         0.22414837   
   2468000   243.33675     -5597.8633     -6339.8868     -819.4674       0.089135273    0.2468         0.89135273   
   2469000   236.81299     -5613.3404     -6335.4705     -59.339049      0.0053601893   0.2469         0.053601893  
   2470000   231.70707     -5654.804      -6361.3643      506.87621     -0.055251373    0.247         -0.55251373   
   2471000   247.48643     -5545.4088     -6300.0862     -66.205027      0.0062607183   0.2471         0.062607183  
   2472000   241.9854      -5599.2781     -6337.1808      442.08077     -0.039523685    0.2472        -0.39523685   
   2473000   239.51953     -5579.796      -6310.1793     -215.70877      0.026690419    0.2473         0.26690419   
   2474000   257.51972     -5599.3661     -6384.6387      754.91502     -0.071496477    0.2474        -0.71496477   
   2475000   251.62299     -5528.378      -6295.6693      510.38767     -0.044894902    0.2475        -0.44894902   
   2476000   255.19962     -5524.5653     -6302.763      -506.08789      0.05147955     0.2476         0.5147955    
   2477000   247.21132     -5563.2082     -6317.0466     -482.12657      0.045195891    0.2477         0.45195891   
   2478000   235.45406     -5593.9357     -6311.9219     -256.11215      0.017811173    0.2478         0.17811173   
   2479000   255.17098     -5504.856      -6282.9664     -517.28594      0.043415527    0.2479         0.43415527   
   2480000   240.19052     -5552.1445     -6284.574      -637.58374      0.06978635     0.248          0.6978635    
   2481000   245.97921     -5499.6199     -6249.7012     -681.53419      0.066212087    0.2481         0.66212087   
   2482000   258.75687     -5520.2448     -6309.2899     -132.96586      0.0075499289   0.2482         0.075499289  
   2483000   235.25029     -5579.8121     -6297.177      -756.79895      0.082699098    0.2483         0.82699098   
   2484000   246.89235     -5544.5754     -6297.4412     -127.57424      0.0036691486   0.2484         0.036691486  
   2485000   246.39651     -5541.8992     -6293.253      -173.37498      0.019935254    0.2485         0.19935254   
   2486000   249.1843      -5518.6934     -6278.5482      66.082672     -0.0029820186   0.2486        -0.029820186  
   2487000   247.66382     -5539.4108     -6294.629      -245.09555      0.029398882    0.2487         0.29398882   
   2488000   242.0854      -5542.054      -6280.2617     -686.11903      0.070556488    0.2488         0.70556488   
   2489000   241.90144     -5520.3494     -6257.9961     -417.69835      0.045433706    0.2489         0.45433706   
   2490000   243.45689     -5538.0081     -6280.3979      306.29469     -0.032752119    0.249         -0.32752119   
   2491000   247.10581     -5514.3169     -6267.8337     -424.02762      0.05806147     0.2491         0.5806147    
   2492000   250.89504     -5520.3264     -6285.3979      83.90545      -0.0071239643   0.2492        -0.071239643  
   2493000   237.67789     -5521.1675     -6245.935      -38.166565      0.015398766    0.2493         0.15398766   
   2494000   242.17725     -5521.411      -6259.8987      154.46752     -0.011428127    0.2494        -0.11428127   
   2495000   242.63254     -5538.0897     -6277.9657     -93.789015      0.00026483479  0.2495         0.0026483479 
   2496000   242.68904     -5520.5526     -6260.601      -91.322374      0.0052913065   0.2496         0.052913065  
   2497000   249.26743     -5518.795      -6278.9033      162.14515     -0.0063808263   0.2497        -0.063808263  
   2498000   245.10203     -5491.0922     -6238.4987     -420.77389      0.032953203    0.2498         0.32953203   
   2499000   242.43842     -5501.3246     -6240.6087      7.2751129      0.013092867    0.2499         0.13092867   
   2500000   236.92631     -5572.9224     -6295.398      -217.68936      0.015582845    0.25           0.15582845   
Loop time of 92.7678 on 56 procs for 100000 steps with 1536 atoms

Performance: 93.136 ns/day, 0.258 hours/ns, 1077.961 timesteps/s, 1.656 Matom-step/s
99.8% CPU use with 56 MPI tasks x no OpenMP threads

MPI task timing breakdown:
Section |  min time  |  avg time  |  max time  |%varavg| %total
---------------------------------------------------------------
Pair    | 22.131     | 24.586     | 27.426     |  22.3 | 26.50
Bond    | 0.010863   | 0.014301   | 0.026724   |   2.1 |  0.02
Kspace  | 37.248     | 39.891     | 42.129     |  16.9 | 43.00
Neigh   | 1.7683     | 1.771      | 1.7729     |   0.1 |  1.91
Comm    | 10.147     | 10.334     | 10.492     |   3.0 | 11.14
Output  | 0.076413   | 0.11991    | 0.15528    |   6.1 |  0.13
Modify  | 12.128     | 14.263     | 14.928     |  21.3 | 15.37
Other   |            | 1.788      |            |       |  1.93

Nlocal:        27.4286 ave          34 max          19 min
Histogram: 1 3 5 2 7 6 14 9 6 3
Nghost:        4098.95 ave        4198 max        4013 min
Histogram: 3 2 7 6 12 12 7 5 1 1
Neighs:        12006.3 ave       14955 max        8345 min
Histogram: 1 6 2 5 4 14 7 11 3 3

Total # of neighbors = 672353
Ave neighs/atom = 437.72982
Ave special neighs/atom = 2
Neighbor list builds = 1072
Dangerous builds = 0
kspace_style pppm/tip4p 1.0e-5
next nloop
jump SELF loop_start
run 100000 # 100ps
PPPM initialization ...
  extracting TIP4P info from pair style
  using 12-bit tables for long-range coulomb
  G vector (1/distance) = 0.33174763
  grid = 27 32 27
  stencil order = 5
  estimated absolute RMS force accuracy = 0.0028875707
  estimated relative force accuracy = 8.6958334e-06
  using double precision KISS FFT
  3d grid and FFT values/proc = 4862 448
Generated 0 of 1 mixed pair_coeff terms from geometric mixing rule
Per MPI rank memory allocation (min/avg/max) = 9.762 | 9.783 | 9.793 Mbytes
   Step          Temp          TotEng         PotEng          Pxy           v_sxy         v_strain     v_viscosity  
   2500000   236.9261      -5572.9236     -6295.3986     -217.3879       0.015552199    0.25           0.15552199   
   2501000   237.19713     -5545.6279     -6268.9294     -430.88762      0.032018682    0.2501         0.32018682   
   2502000   240.90169     -5524.1705     -6258.7686      29.415858      0.0015966338   0.2502         0.015966338  
   2503000   263.9907      -5485.5907     -6290.5957      280.17014     -0.028600658    0.2503        -0.28600658   
   2504000   251.20859     -5492.7708     -6258.7985      374.19293     -0.038606822    0.2504        -0.38606822   
   2505000   235.21717     -5540.8981     -6258.162       739.79007     -0.081526282    0.2505        -0.81526282   
   2506000   256.58962     -5498.3788     -6280.8152     -329.33578      0.027358839    0.2506         0.27358839   
   2507000   243.7629      -5543.5311     -6286.854      -264.80947      0.025791041    0.2507         0.25791041   
   2508000   241.79839     -5527.635      -6264.9675      1267.6221     -0.11917943     0.2508        -1.1917943    
   2509000   252.81532     -5500.6392     -6271.5663      978.21853     -0.10230998     0.2509        -1.0230998    
   2510000   243.50965     -5540.1135     -6282.6641     -1357.0497      0.13569982     0.251          1.3569982    
   2511000   248.17666     -5496.5539     -6253.336      -185.01496      0.021940452    0.2511         0.21940452   
   2512000   253.36355     -5513.4429     -6286.0418      124.70522     -0.012204542    0.2512        -0.12204542   
   2513000   256.0395      -5578.1922     -6358.951      -121.23582      0.0022741317   0.2513         0.022741317  
   2514000   242.25854     -5539.5987     -6278.3343     -93.451257      0.011274758    0.2514         0.11274758   
   2515000   244.93618     -5525.3644     -6272.2651     -41.436753      0.0096116254   0.2515         0.096116254  
   2516000   249.80307     -5536.9182     -6298.6598      698.25773     -0.058443498    0.2516        -0.58443498   
   2517000   253.76332     -5525.8399     -6299.6578      689.51648     -0.067226358    0.2517        -0.67226358   
   2518000   244.88701     -5584.4697     -6331.2205      53.555934     -0.0033518549   0.2518        -0.033518549  
   2519000   252.74158     -5554.8708     -6325.5731      220.47378     -0.02486289     0.2519        -0.2486289    
   2520000   250.16687     -5535.3758     -6298.2268      1248.4996     -0.11563749     0.252         -1.1563749    
   2521000   248.19511     -5551.6037     -6308.4421      25.2705       -0.0037028991   0.2521        -0.037028991  
   2522000   248.76809     -5483.9163     -6242.502       746.44344     -0.078718471    0.2522        -0.78718471   
   2523000   247.11361     -5588.6086     -6342.1491      750.09971     -0.073029277    0.2523        -0.73029277   
   2524000   242.32945     -5594.644      -6333.5958      1.9080043     -0.013672778    0.2524        -0.13672778   
   2525000   254.95343     -5533.1566     -6310.6036     -145.89881      0.025258577    0.2525         0.25258577   
   2526000   236.4169      -5599.7162     -6320.6384      748.43661     -0.068226288    0.2526        -0.68226288   
   2527000   253.8488      -5506.0861     -6280.1646      879.17348     -0.080787339    0.2527        -0.80787339   
   2528000   257.33568     -5521.4977     -6306.209      -615.93633      0.063715525    0.2528         0.63715525   
   2529000   236.90083     -5577.2869     -6299.6849      167.80306     -0.019832807    0.2529        -0.19832807   
   2530000   250.84333     -5524.1474     -6289.0611     -322.82366      0.038339081    0.253          0.38339081   
   2531000   249.15984     -5542.4803     -6302.2605      596.10507     -0.061614812    0.2531        -0.61614812   
   2532000   240.40147     -5532.2024     -6265.2751      247.2174      -0.015234239    0.2532        -0.15234239   
   2533000   239.18913     -5530.9238     -6260.2996     -90.157106      0.023522013    0.2533         0.23522013   
   2534000   237.21203     -5556.4653     -6279.8123      309.69206     -0.034815085    0.2534        -0.34815085   
   2535000   254.54618     -5517.1896     -6293.3948     -892.28686      0.079383404    0.2535         0.79383404   
   2536000   242.29593     -5527.2915     -6266.1411     -561.78184      0.050463043    0.2536         0.50463043   
   2537000   249.00188     -5481.9503     -6241.2488     -65.312529      0.012895817    0.2537         0.12895817   
   2538000   240.93306     -5534.6054     -6269.2991     -749.20631      0.066352131    0.2538         0.66352131   
   2539000   240.0825      -5508.4436     -6240.5436     -684.34954      0.069130958    0.2539         0.69130958   
   2540000   233.06097     -5497.573      -6208.2618     -1067.6955      0.11243493     0.254          1.1243493    
   2541000   240.50261     -5531.9135     -6265.2946     -113.47872      0.011125011    0.2541         0.11125011   
   2542000   261.13444     -5504.3846     -6300.6798     -387.71129      0.038129743    0.2542         0.38129743   
   2543000   239.30783     -5525.6775     -6255.4153      80.541952     -0.009008588    0.2543        -0.09008588   
   2544000   243.76632     -5496.5921     -6239.9254     -450.25393      0.046878436    0.2544         0.46878436   
   2545000   239.2592      -5555.0237     -6284.6133      459.54971     -0.042949817    0.2545        -0.42949817   
   2546000   247.45311     -5469.5435     -6224.1193     -225.09031      0.023404945    0.2546         0.23404945   
   2547000   245.68045     -5501.4123     -6250.5825     -355.50945      0.029122146    0.2547         0.29122146   
   2548000   240.43365     -5473.017      -6206.1878     -631.96564      0.059582533    0.2548         0.59582533   
   2549000   248.04514     -5484.0873     -6240.4683     -433.02225      0.042493976    0.2549         0.42493976   
   2550000   234.70573     -5521.8676     -6237.5719     -358.98849      0.033238156    0.255          0.33238156   
   2551000   249.55908     -5541.847      -6302.8447      50.074185     -0.0031824979   0.2551        -0.031824979  
   2552000   237.3336      -5538.4082     -6262.1258     -551.72675      0.054321291    0.2552         0.54321291   
   2553000   245.0548      -5524.593      -6271.8555     -186.62094      0.015426624    0.2553         0.15426624   
   2554000   246.51115     -5482.593      -6234.2964     -840.13162      0.079299619    0.2554         0.79299619   
   2555000   243.66741     -5519.0113     -6262.0431     -417.57491      0.034626859    0.2555         0.34626859   
   2556000   246.85149     -5489.5485     -6242.2897     -244.30561      0.023229156    0.2556         0.23229156   
   2557000   247.50406     -5511.864      -6266.5952     -504.25607      0.054927943    0.2557         0.54927943   
   2558000   255.07345     -5513.8631     -6291.6761      65.331065     -0.0071222092   0.2558        -0.071222092  
   2559000   242.38257     -5507.9638     -6247.0776      158.51699     -0.015947394    0.2559        -0.15947394   
   2560000   245.81057     -5524.3114     -6273.8784     -231.82699      0.029196446    0.256          0.29196446   
   2561000   242.4838      -5553.9319     -6293.3544     -205.91748      0.01162293     0.2561         0.1162293    
   2562000   247.42619     -5526.7182     -6281.2119      383.81605     -0.042290322    0.2562        -0.42290322   
   2563000   242.15727     -5545.03       -6283.4568     -808.12224      0.090826477    0.2563         0.90826477   
   2564000   247.96582     -5514.7709     -6270.9101      241.60597     -0.023345242    0.2564        -0.23345242   
   2565000   253.44074     -5545.3828     -6318.217      -1166.9608      0.12098741     0.2565         1.2098741    
   2566000   240.24204     -5541.4628     -6274.0493     -24.598482      0.022268906    0.2566         0.22268906   
   2567000   253.82792     -5531.2245     -6305.2394     -108.81526      0.019624708    0.2567         0.19624708   
   2568000   242.41747     -5586.3519     -6325.5721     -289.79934      0.020004222    0.2568         0.20004222   
   2569000   245.78219     -5508.2148     -6257.6953     -899.6533       0.087736714    0.2569         0.87736714   
   2570000   254.86625     -5499.7834     -6276.9646      48.405597     -0.0053559315   0.257         -0.053559315  
   2571000   251.89251     -5559.1374     -6327.2506     -391.63532      0.044218606    0.2571         0.44218606   
   2572000   244.29124     -5573.532      -6318.466       120.07045     -0.014716804    0.2572        -0.14716804   
   2573000   233.72321     -5614.4738     -6327.1821     -98.907727      0.013641537    0.2573         0.13641537   
   2574000   250.93546     -5529.5998     -6294.7945     -483.45532      0.055779687    0.2574         0.55779687   
   2575000   236.62457     -5661.2156     -6382.7711      47.99975      -0.0083873684   0.2575        -0.083873684  
   2576000   245.92869     -5571.5353     -6321.4626     -548.1168       0.05972266     0.2576         0.5972266    
   2577000   238.88193     -5599.176      -6327.615      -660.70948      0.066425701    0.2577         0.66425701   
   2578000   241.89607     -5583.1527     -6320.783      -391.07111      0.039921212    0.2578         0.39921212   
   2579000   241.43138     -5528.3433     -6264.5565     -111.30199      0.012538053    0.2579         0.12538053   
   2580000   251.90116     -5564.5336     -6332.6731     -273.49848      0.019586126    0.258          0.19586126   
   2581000   252.07772     -5574.3113     -6342.9892     -306.26201      0.030267161    0.2581         0.30267161   
   2582000   247.47671     -5563.6246     -6318.2723     -74.000895      0.003099893    0.2582         0.03099893   
   2583000   240.84976     -5594.8902     -6329.3299     -805.03418      0.077589003    0.2583         0.77589003   
   2584000   243.90413     -5553.0352     -6296.7888     -776.9658       0.077615443    0.2584         0.77615443   
   2585000   256.68664     -5581.367      -6364.0992      453.06881     -0.050675966    0.2585        -0.50675966   
   2586000   250.97681     -5561.7673     -6327.0881      740.28784     -0.062053453    0.2586        -0.62053453   
   2587000   257.73754     -5521.2111     -6307.1479     -101.58526      0.014516492    0.2587         0.14516492   
   2588000   235.50744     -5558.3355     -6276.4845      890.42664     -0.085131507    0.2588        -0.85131507   
   2589000   245.25864     -5528.6853     -6276.5694     -620.00919      0.068959645    0.2589         0.68959645   
   2590000   243.5649      -5581.0869     -6323.8061      33.67417      -0.0031303565   0.259         -0.031303565  
   2591000   239.88979     -5552.8004     -6284.3129     -146.8671       0.0079465849   0.2591         0.079465849  
   2592000   236.07333     -5591.8182     -6311.6928      544.75223     -0.057998745    0.2592        -0.57998745   
   2593000   241.70995     -5518.9389     -6256.0017      335.99407     -0.030077919    0.2593        -0.30077919   
   2594000   242.86046     -5522.3006     -6262.8717      477.60372     -0.057171633    0.2594        -0.57171633   
   2595000   243.01903     -5575.8965     -6316.9511     -164.59629      0.019576007    0.2595         0.19576007   
   2596000   245.33412     -5536.5948     -6284.709      -302.45144      0.025611565    0.2596         0.25611565   
   2597000   252.51327     -5521.4637     -6291.4697      607.06585     -0.060116091    0.2597        -0.60116091   
   2598000   238.71154     -5567.2896     -6295.2091     -804.9192       0.094765375    0.2598         0.94765375   
   2599000   248.90831     -5520.8416     -6279.8548     -480.92562      0.040608792    0.2599         0.40608792   
   2600000   250.97118     -5508.4313     -6273.7349     -227.462        0.015565207    0.26           0.15565207   
Loop time of 92.3014 on 56 procs for 100000 steps with 1536 atoms

Performance: 93.606 ns/day, 0.256 hours/ns, 1083.407 timesteps/s, 1.664 Matom-step/s
99.8% CPU use with 56 MPI tasks x no OpenMP threads

MPI task timing breakdown:
Section |  min time  |  avg time  |  max time  |%varavg| %total
---------------------------------------------------------------
Pair    | 22.698     | 24.58      | 27.391     |  19.9 | 26.63
Bond    | 0.011014   | 0.01424    | 0.026029   |   2.1 |  0.02
Kspace  | 36.918     | 39.62      | 41.381     |  15.2 | 42.92
Neigh   | 1.8492     | 1.8518     | 1.8539     |   0.1 |  2.01
Comm    | 10.165     | 10.319     | 10.447     |   2.3 | 11.18
Output  | 0.075956   | 0.11908    | 0.15431    |   6.1 |  0.13
Modify  | 12.195     | 14.263     | 14.936     |  21.1 | 15.45
Other   |            | 1.534      |            |       |  1.66

Nlocal:        27.4286 ave          39 max          21 min
Histogram: 5 8 11 12 3 11 3 2 0 1
Nghost:        4128.41 ave        4193 max        4086 min
Histogram: 3 7 10 10 10 7 5 3 0 1
Neighs:        12009.4 ave       16951 max        9158 min
Histogram: 5 8 11 8 7 11 3 2 0 1

Total # of neighbors = 672526
Ave neighs/atom = 437.84245
Ave special neighs/atom = 2
Neighbor list builds = 1113
Dangerous builds = 0
kspace_style pppm/tip4p 1.0e-5
next nloop
jump SELF loop_start
run 100000 # 100ps
PPPM initialization ...
  extracting TIP4P info from pair style
  using 12-bit tables for long-range coulomb
  G vector (1/distance) = 0.33131533
  grid = 27 32 27
  stencil order = 5
  estimated absolute RMS force accuracy = 0.0029639978
  estimated relative force accuracy = 8.9259914e-06
  using double precision KISS FFT
  3d grid and FFT values/proc = 4862 448
Generated 0 of 1 mixed pair_coeff terms from geometric mixing rule
Per MPI rank memory allocation (min/avg/max) = 9.762 | 9.783 | 9.793 Mbytes
   Step          Temp          TotEng         PotEng          Pxy           v_sxy         v_strain     v_viscosity  
   2600000   250.9711      -5508.4317     -6273.7351     -227.26874      0.015545493    0.26           0.15545493   
   2601000   240.02687     -5560.6533     -6292.5837     -419.16058      0.039603196    0.2601         0.39603196   
   2602000   238.03183     -5574.2665     -6300.1133      650.21384     -0.065045143    0.2602        -0.65045143   
   2603000   261.11059     -5473.3689     -6269.5913      129.97403     -0.016453506    0.2603        -0.16453506   
   2604000   247.69047     -5553.714      -6309.0136      259.99026     -0.025369164    0.2604        -0.25369164   
   2605000   241.26436     -5559.3245     -6295.0285      368.16375     -0.028046362    0.2605        -0.28046362   
   2606000   247.64449     -5530.6294     -6285.7888     -880.96117      0.083595188    0.2606         0.83595188   
   2607000   248.1723      -5536.4129     -6293.1817     -117.55858      0.011257463    0.2607         0.11257463   
   2608000   241.95092     -5523.2053     -6261.0029     -789.86141      0.081182224    0.2608         0.81182224   
   2609000   246.00063     -5521.8421     -6271.9887     -265.15856      0.020405751    0.2609         0.20405751   
   2610000   243.30103     -5546.2575     -6288.1721      243.23775     -0.02284975     0.261         -0.2284975    
   2611000   242.86135     -5581.2445     -6321.8183     -807.94122      0.081904493    0.2611         0.81904493   
   2612000   244.41891     -5589.2234     -6334.5468     -230.82489      0.016867005    0.2612         0.16867005   
   2613000   253.14657     -5562.6486     -6334.5858     -298.80224      0.043966513    0.2613         0.43966513   
   2614000   256.69347     -5526.209      -6308.9621     -96.455366      0.015419553    0.2614         0.15419553   
   2615000   245.59418     -5569.4852     -6318.3924      261.96427     -0.020129223    0.2615        -0.20129223   
   2616000   242.51222     -5559.6108     -6299.1199      759.69091     -0.084126875    0.2616        -0.84126875   
   2617000   244.2836      -5531.3113     -6276.222       266.4298      -0.030339567    0.2617        -0.30339567   
   2618000   241.61591     -5556.8181     -6293.5941     -179.23564      0.015577263    0.2618         0.15577263   
   2619000   239.38872     -5589.99       -6319.9745     -224.64831      0.024009396    0.2619         0.24009396   
   2620000   245.243       -5541.1534     -6288.9897     -376.71658      0.033958295    0.262          0.33958295   
   2621000   240.11322     -5567.2243     -6299.4181      521.70842     -0.057862729    0.2621        -0.57862729   
   2622000   240.32686     -5548.7054     -6281.5506      641.02772     -0.069332677    0.2622        -0.69332677   
   2623000   247.79368     -5494.7405     -6250.3548     -270.36518      0.033181079    0.2623         0.33181079   
   2624000   235.64141     -5570.4023     -6288.9598     -834.00801      0.082713976    0.2624         0.82713976   
   2625000   245.65009     -5538.928      -6288.0056     -203.57437      0.019227559    0.2625         0.19227559   
   2626000   253.22111     -5510.2715     -6282.436      -84.373471      0.0048467499   0.2626         0.048467499  
   2627000   238.9827      -5536.6408     -6265.3872     -38.240742      0.0080662598   0.2627         0.080662598  
   2628000   248.45483     -5499.9601     -6257.5905      612.85518     -0.056159259    0.2628        -0.56159259   
   2629000   251.53279     -5504.6337     -6271.6499      496.17514     -0.039660777    0.2629        -0.39660777   
   2630000   247.76583     -5546.0166     -6301.546       472.33176     -0.045092215    0.263         -0.45092215   
   2631000   256.8386      -5497.1753     -6280.3709      394.97836     -0.035571143    0.2631        -0.35571143   
   2632000   252.2584      -5510.7002     -6279.9291     -326.77387      0.032780806    0.2632         0.32780806   
   2633000   254.1844      -5502.1528     -6277.2547      463.43767     -0.036104031    0.2633        -0.36104031   
   2634000   251.30633     -5530.5304     -6296.8561      833.48779     -0.081120345    0.2634        -0.81120345   
   2635000   240.59049     -5578.9203     -6312.5695      690.59912     -0.071036645    0.2635        -0.71036645   
   2636000   245.94532     -5505.1177     -6255.0957     -601.50194      0.067697295    0.2636         0.67697295   
   2637000   244.7969      -5543.1409     -6289.6169      381.42701     -0.032113495    0.2637        -0.32113495   
   2638000   234.56592     -5582.6728     -6297.9508     -166.02145      0.012853734    0.2638         0.12853734   
   2639000   244.49161     -5465.8153     -6211.3604     -41.253855     -0.0051057799   0.2639        -0.051057799  
   2640000   242.26649     -5521.5308     -6260.2907     -603.35715      0.055859328    0.264          0.55859328   
   2641000   246.38197     -5477.7137     -6229.0232     -177.47401      0.033805755    0.2641         0.33805755   
   2642000   248.91543     -5482.3694     -6241.4043      327.2883      -0.034386932    0.2642        -0.34386932   
   2643000   233.1247      -5579.3765     -6290.2596      441.79937     -0.046211794    0.2643        -0.46211794   
   2644000   247.45622     -5475.2945     -6229.8798     -527.0886       0.052186973    0.2644         0.52186973   
   2645000   248.98217     -5509.2974     -6268.5358     -104.75578      0.021209862    0.2645         0.21209862   
   2646000   247.65687     -5502.8043     -6258.0014      454.81306     -0.046624415    0.2646        -0.46624415   
   2647000   258.4258      -5497.4146     -6285.4501      392.97916     -0.06467658     0.2647        -0.6467658    
   2648000   241.77033     -5509.2597     -6246.5066     -313.62706      0.044905128    0.2648         0.44905128   
   2649000   243.17332     -5522.1541     -6263.6792     -638.32868      0.058149063    0.2649         0.58149063   
   2650000   242.842       -5483.9717     -6224.4865      321.8341      -0.019034628    0.265         -0.19034628   
   2651000   247.94848     -5494.2366     -6250.3229      736.05189     -0.073162881    0.2651        -0.73162881   
   2652000   244.03307     -5551.3678     -6295.5146      232.67598     -0.013683963    0.2652        -0.13683963   
   2653000   249.40534     -5517.2682     -6277.797      -431.04794      0.038247753    0.2653         0.38247753   
   2654000   235.14939     -5547.0193     -6264.0765     -1269.2364      0.12978318     0.2654         1.2978318    
   2655000   238.60025     -5526.1161     -6253.6963     -214.10358      0.021169747    0.2655         0.21169747   
   2656000   255.97991     -5502.8654     -6283.4425     -168.77746      0.01991514     0.2656         0.1991514    
   2657000   246.71631     -5518.0964     -6270.4254      793.29453     -0.089541389    0.2657        -0.89541389   
   2658000   242.05941     -5538.1129     -6276.2413     -10.982774      0.0081592488   0.2658         0.081592488  
   2659000   249.06817     -5535.9075     -6295.4082     -148.02714      0.018243837    0.2659         0.18243837   
   2660000   237.86091     -5526.1492     -6251.4748     -300.86172      0.034769105    0.266          0.34769105   
   2661000   245.21597     -5508.6242     -6256.3781     -661.22505      0.06028738     0.2661         0.6028738    
   2662000   241.92517     -5511.7786     -6249.4976      200.44868     -0.024968699    0.2662        -0.24968699   
   2663000   249.417       -5515.8914     -6276.4558     -250.27477      0.023225436    0.2663         0.23225436   
   2664000   242.9634      -5556.8304     -6297.7153      91.205811     -0.0060038213   0.2664        -0.060038213  
   2665000   240.99116     -5541.0454     -6275.9163     -31.309633     -0.0069247713   0.2665        -0.069247713  
   2666000   248.99188     -5559.4195     -6318.6876      1059.7279     -0.09514963     0.2666        -0.9514963    
   2667000   250.58071     -5554.8325     -6318.9455      302.64514     -0.029143954    0.2667        -0.29143954   
   2668000   242.00763     -5563.8042     -6301.7747      184.86998     -0.027950453    0.2668        -0.27950453   
   2669000   241.57345     -5593.1865     -6329.833       531.30217     -0.057622206    0.2669        -0.57622206   
   2670000   254.52197     -5533.7959     -6309.9272      132.66558     -0.012579454    0.267         -0.12579454   
   2671000   259.25378     -5516.8917     -6307.4521     -138.09395      0.013958639    0.2671         0.13958639   
   2672000   244.61251     -5544.1127     -6290.0264     -511.9071       0.05204733     0.2672         0.5204733    
   2673000   244.70135     -5517.6266     -6263.8112      67.008079     -0.0096157055   0.2673        -0.096157055  
   2674000   244.83953     -5531.5743     -6278.1803      216.75564     -0.022807766    0.2674        -0.22807766   
   2675000   241.77043     -5553.1551     -6290.4023      377.7143      -0.025750307    0.2675        -0.25750307   
   2676000   250.07691     -5488.001      -6250.5777      124.40913     -0.02218546     0.2676        -0.2218546    
   2677000   235.31442     -5562.3344     -6279.8948      32.152665     -0.0050724311   0.2677        -0.050724311  
   2678000   248.04803     -5523.833      -6280.2229      129.86498     -0.0061391636   0.2678        -0.061391636  
   2679000   250.85546     -5531.661      -6296.6118      431.46049     -0.041095715    0.2679        -0.41095715   
   2680000   250.86714     -5510.1711     -6275.1575     -346.72326      0.026580448    0.268          0.26580448   
   2681000   242.11039     -5558.7048     -6296.9886      489.57962     -0.045940763    0.2681        -0.45940763   
   2682000   249.14177     -5554.4029     -6314.128      -1306.0755      0.13014274     0.2682         1.3014274    
   2683000   240.70794     -5566.5324     -6300.5396      240.00812     -0.027767442    0.2683        -0.27767442   
   2684000   250.86468     -5550.06       -6315.0388     -131.63529      0.018048973    0.2684         0.18048973   
   2685000   239.94051     -5597.5479     -6329.215      -309.16333      0.028367091    0.2685         0.28367091   
   2686000   254.07559     -5586.1472     -6360.9173     -86.033513      0.010792835    0.2686         0.10792835   
   2687000   245.82844     -5599.265      -6348.8865     -121.03315      0.020035125    0.2687         0.20035125   
   2688000   257.72547     -5573.9169     -6359.8168     -756.20566      0.071000926    0.2688         0.71000926   
   2689000   241.05517     -5627.2445     -6362.3105      851.1413      -0.070499511    0.2689        -0.70499511   
   2690000   246.72222     -5543.334      -6295.681      -218.88266      0.020594942    0.269          0.20594942   
   2691000   237.6866      -5589.213      -6314.0071     -357.02536      0.03018843     0.2691         0.3018843    
   2692000   241.38353     -5546.2936     -6282.361       278.01411     -0.029916886    0.2692        -0.29916886   
   2693000   249.69086     -5543.4533     -6304.8528      673.42195     -0.063442941    0.2693        -0.63442941   
   2694000   255.34944     -5519.562      -6298.2166     -223.54771      0.013723598    0.2694         0.13723598   
   2695000   241.83501     -5589.1447     -6326.5888     -844.98371      0.088341866    0.2695         0.88341866   
   2696000   243.93287     -5604.5561     -6348.3973      32.204844      0.0034966906   0.2696         0.034966906  
   2697000   264.01639     -5525.0969     -6330.1802     -85.759077      0.0041389497   0.2697         0.041389497  
   2698000   239.67325     -5576.3026     -6307.1547     -312.41553      0.031548741    0.2698         0.31548741   
   2699000   249.01835     -5512.0716     -6271.4204     -43.882824     -0.0023616184   0.2699        -0.023616184  
   2700000   247.91545     -5571.509      -6327.4946     -702.23054      0.060665692    0.27           0.60665692   
Loop time of 92.6783 on 56 procs for 100000 steps with 1536 atoms

Performance: 93.226 ns/day, 0.257 hours/ns, 1079.001 timesteps/s, 1.657 Matom-step/s
99.8% CPU use with 56 MPI tasks x no OpenMP threads

MPI task timing breakdown:
Section |  min time  |  avg time  |  max time  |%varavg| %total
---------------------------------------------------------------
Pair    | 22.953     | 24.554     | 26.05      |  18.7 | 26.49
Bond    | 0.01124    | 0.01431    | 0.024739   |   2.0 |  0.02
Kspace  | 38.265     | 39.788     | 41.385     |  14.2 | 42.93
Neigh   | 1.7866     | 1.7895     | 1.7914     |   0.1 |  1.93
Comm    | 10.127     | 10.355     | 10.545     |   2.8 | 11.17
Output  | 0.076784   | 0.12018    | 0.15516    |   6.1 |  0.13
Modify  | 12.132     | 14.258     | 14.948     |  21.3 | 15.38
Other   |            | 1.799      |            |       |  1.94

Nlocal:        27.4286 ave          35 max          21 min
Histogram: 5 2 7 9 9 7 7 6 1 3
Nghost:        4139.07 ave        4197 max        4076 min
Histogram: 3 4 4 7 4 11 10 9 2 2
Neighs:        12007.9 ave       15496 max        9055 min
Histogram: 5 2 7 9 13 3 7 5 4 1

Total # of neighbors = 672440
Ave neighs/atom = 437.78646
Ave special neighs/atom = 2
Neighbor list builds = 1076
Dangerous builds = 0
kspace_style pppm/tip4p 1.0e-5
next nloop
jump SELF loop_start
run 100000 # 100ps
PPPM initialization ...
  extracting TIP4P info from pair style
  using 12-bit tables for long-range coulomb
  G vector (1/distance) = 0.33085023
  grid = 27 32 27
  stencil order = 5
  estimated absolute RMS force accuracy = 0.0030482308
  estimated relative force accuracy = 9.1796564e-06
  using double precision KISS FFT
  3d grid and FFT values/proc = 4862 448
Generated 0 of 1 mixed pair_coeff terms from geometric mixing rule
Per MPI rank memory allocation (min/avg/max) = 9.762 | 9.783 | 9.793 Mbytes
   Step          Temp          TotEng         PotEng          Pxy           v_sxy         v_strain     v_viscosity  
   2700000   247.91524     -5571.5092     -6327.4942     -702.13315      0.060655755    0.27           0.60655755   
   2701000   232.94231     -5589.5132     -6299.8402     -174.25974      0.014508635    0.2701         0.14508635   
   2702000   245.91649     -5528.1834     -6278.0734      523.21511     -0.062077245    0.2702        -0.62077245   
   2703000   249.26371     -5577.7888     -6337.8858      45.688954     -0.013034517    0.2703        -0.13034517   
   2704000   253.61571     -5554.281      -6327.6488      141.44397     -0.023429854    0.2704        -0.23429854   
   2705000   234.65928     -5589.738      -6305.3007      370.54492     -0.033990917    0.2705        -0.33990917   
   2706000   251.28599     -5549.1484     -6315.412      -475.09392      0.041563325    0.2706         0.41563325   
   2707000   241.55325     -5601.0141     -6337.5991     -233.33397      0.031740925    0.2707         0.31740925   
   2708000   252.92333     -5498.1632     -6269.4196     -214.09733      0.015617862    0.2708         0.15617862   
   2709000   244.95049     -5562.0695     -6309.0138     -207.82268      0.010853577    0.2709         0.10853577   
   2710000   238.69521     -5600.5393     -6328.4089      146.63473     -0.0075291181   0.271         -0.075291181  
   2711000   254.82253     -5528.6391     -6305.6869      294.14256     -0.023939948    0.2711        -0.23939948   
   2712000   250.49617     -5579.6049     -6343.46        487.56        -0.05475845     0.2712        -0.5475845    
   2713000   247.48381     -5525.2251     -6279.8945      121.76988     -0.020857392    0.2713        -0.20857392   
   2714000   241.31201     -5555.6769     -6291.5262     -641.19278      0.051759679    0.2714         0.51759679   
   2715000   242.71292     -5538.9226     -6279.0438     -631.28796      0.056656595    0.2715         0.56656595   
   2716000   251.30667     -5527.7404     -6294.067      -521.32822      0.043945563    0.2716         0.43945563   
   2717000   243.05879     -5544.3799     -6285.5558     -364.5619       0.033617473    0.2717         0.33617473   
   2718000   233.63954     -5553.4677     -6265.9209     -861.93996      0.089980016    0.2718         0.89980016   
   2719000   248.42587     -5560.2213     -6317.7634     -509.74938      0.053103999    0.2719         0.53103999   
   2720000   250.76764     -5555.0811     -6319.7641     -36.310019     -0.0027955813   0.272         -0.027955813  
   2721000   248.53161     -5526.6252     -6284.4897      254.12624     -0.028365148    0.2721        -0.28365148   
   2722000   248.20746     -5528.767      -6285.643      -511.01605      0.053679365    0.2722         0.53679365   
   2723000   244.97487     -5531.8104     -6278.8291     -673.84761      0.065742948    0.2723         0.65742948   
   2724000   247.70307     -5517.848      -6273.186       128.10518     -0.017581596    0.2724        -0.17581596   
   2725000   239.06119     -5558.2244     -6287.2101      885.74741     -0.080141358    0.2725        -0.80141358   
   2726000   246.1284      -5511.924      -6262.4602      498.5098      -0.052672964    0.2726        -0.52672964   
   2727000   246.50162     -5494.7065     -6246.3808      917.04674     -0.090861908    0.2727        -0.90861908   
   2728000   243.25835     -5501.522      -6243.3063      984.24624     -0.090800761    0.2728        -0.90800761   
   2729000   246.34952     -5531.0504     -6282.2609     -91.173797      0.010568602    0.2729         0.10568602   
   2730000   242.283       -5498.4697     -6237.2799     -251.91665      0.023338137    0.273          0.23338137   
   2731000   243.82016     -5522.6079     -6266.1055      738.36125     -0.066125245    0.2731        -0.66125245   
   2732000   241.97689     -5577.4612     -6315.338      -165.24131      0.0079458757   0.2732         0.079458757  
   2733000   245.78375     -5522.8206     -6272.3059      406.95879     -0.037035313    0.2733        -0.37035313   
   2734000   241.30693     -5554.5663     -6290.4002      41.614956      0.0019988252   0.2734         0.019988252  
   2735000   252.27761     -5515.3696     -6284.6571      489.18502     -0.046004296    0.2735        -0.46004296   
   2736000   245.88677     -5519.7974     -6269.5968     -399.22624      0.051540691    0.2736         0.51540691   
   2737000   247.86832     -5524.4524     -6280.2943      80.475303     -0.0025501222   0.2737        -0.025501222  
   2738000   246.73721     -5520.6449     -6273.0376      347.75547     -0.030725366    0.2738        -0.30725366   
   2739000   235.44845     -5564.572      -6282.5411     -327.8296       0.040942301    0.2739         0.40942301   
   2740000   247.39421     -5533.7786     -6288.1747      129.74137     -0.021854323    0.274         -0.21854323   
   2741000   249.88919     -5550.6819     -6312.6862      62.527172     -0.00088369229  0.2741        -0.0088369229 
   2742000   255.00717     -5507.4741     -6285.0849     -378.4837       0.047094066    0.2742         0.47094066   
   2743000   245.87298     -5571.6936     -6321.451       223.46562     -0.021441431    0.2743        -0.21441431   
   2744000   254.78352     -5518.7328     -6295.6617      717.16644     -0.066225852    0.2744        -0.66225852   
   2745000   247.90581     -5556.7859     -6312.7421      126.47526     -0.007433574    0.2745        -0.07433574   
   2746000   243.44985     -5618.6388     -6361.0072      897.80836     -0.08888126     0.2746        -0.8888126    
   2747000   248.7922      -5582.3111     -6340.9702      149.48306     -0.018333537    0.2747        -0.18333537   
   2748000   249.0064      -5573.4857     -6332.798       458.39544     -0.049803246    0.2748        -0.49803246   
   2749000   248.06472     -5584.891      -6341.3318      384.60639     -0.044355411    0.2749        -0.44355411   
   2750000   254.10858     -5519.8694     -6294.7401      831.62066     -0.085876497    0.275         -0.85876497   
   2751000   249.52138     -5532.0984     -6292.9811     -264.36889      0.027406683    0.2751         0.27406683   
   2752000   246.33023     -5568.4977     -6319.6494      143.82829     -0.019096987    0.2752        -0.19096987   
   2753000   236.24195     -5527.8372     -6248.226      -93.458875      0.0049421179   0.2753         0.049421179  
   2754000   245.94517     -5596.1806     -6346.1581     -281.67424      0.030757231    0.2754         0.30757231   
   2755000   245.1308      -5563.0257     -6310.5199     -739.64908      0.072551155    0.2755         0.72551155   
   2756000   252.6465      -5521.2751     -6291.6874     -526.9264       0.047195703    0.2756         0.47195703   
   2757000   241.12992     -5585.3744     -6320.6684     -368.15172      0.034685929    0.2757         0.34685929   
   2758000   253.48655     -5549.381      -6322.3549     -1119.144       0.11190728     0.2758         1.1190728    
   2759000   239.28748     -5590.1179     -6319.7937     -888.53252      0.083395218    0.2759         0.83395218   
   2760000   248.46191     -5520.1159     -6277.7678     -1413.7405      0.14198241     0.276          1.4198241    
   2761000   244.62675     -5530.5048     -6276.4619      160.23478     -0.011498386    0.2761        -0.11498386   
   2762000   249.40507     -5548.4274     -6308.9555      405.37137     -0.037653931    0.2762        -0.37653931   
   2763000   257.22047     -5562.6522     -6347.0123      1005.6536     -0.10472337     0.2763        -1.0472337    
   2764000   246.14115     -5516.937      -6267.5121      228.58952     -0.018705005    0.2764        -0.18705005   
   2765000   250.78956     -5472.5926     -6237.3424     -52.209143      0.0052144484   0.2765         0.052144484  
   2766000   254.36005     -5569.5032     -6345.1408      41.051545     -0.0074194661   0.2766        -0.074194661  
   2767000   255.09497     -5497.3194     -6275.198       795.44165     -0.090450218    0.2767        -0.90450218   
   2768000   237.7371      -5560.2749     -6285.223       853.38575     -0.083833586    0.2768        -0.83833586   
   2769000   249.25962     -5522.2352     -6282.3197     -616.59065      0.068304068    0.2769         0.68304068   
   2770000   250.58265     -5574.7034     -6338.8223     -353.28025      0.024248254    0.277          0.24248254   
   2771000   259.85954     -5439.263      -6231.6705     -275.83014      0.0398936      0.2771         0.398936     
   2772000   244.78481     -5547.7575     -6294.1966     -145.99246      0.025693713    0.2772         0.25693713   
   2773000   241.27039     -5555.4162     -6291.1386      89.16406      -0.0075640807   0.2773        -0.075640807  
   2774000   244.84418     -5542.0473     -6288.6675      834.61381     -0.064416754    0.2774        -0.64416754   
   2775000   240.94179     -5521.6169     -6256.3373     -67.207348     -0.0032111643   0.2775        -0.032111643  
   2776000   248.29563     -5504.8549     -6261.9998      328.75009     -0.030461976    0.2776        -0.30461976   
   2777000   249.79133     -5518.8115     -6280.5174     -93.172178      0.0086730071   0.2777         0.086730071  
   2778000   242.35089     -5549.4161     -6288.4333      739.81495     -0.077935733    0.2778        -0.77935733   
   2779000   251.02592     -5554.3977     -6319.8682     -107.6546       0.012446663    0.2779         0.12446663   
   2780000   248.32546     -5508.5351     -6265.771       685.06999     -0.065470176    0.278         -0.65470176   
   2781000   253.3617      -5564.6996     -6337.2928      192.68679     -0.015110374    0.2781        -0.15110374   
   2782000   242.86748     -5562.6062     -6303.1987     -604.11496      0.05946582     0.2782         0.5946582    
   2783000   254.59033     -5493.3997     -6269.7395      456.1982      -0.042170028    0.2783        -0.42170028   
   2784000   246.05175     -5546.4042     -6296.7068     -284.51115      0.024790045    0.2784         0.24790045   
   2785000   248.43803     -5547.0613     -6304.6404      520.14681     -0.047220931    0.2785        -0.47220931   
   2786000   255.63831     -5454.9524     -6234.4878     -68.286711      0.015038264    0.2786         0.15038264   
   2787000   246.2448      -5568.6412     -6319.5323     -340.1251       0.034075249    0.2787         0.34075249   
   2788000   240.29832     -5585.19       -6317.9482     -148.7474       0.012556877    0.2788         0.12556877   
   2789000   251.33106     -5539.1292     -6305.5303      377.8888      -0.038388465    0.2789        -0.38388465   
   2790000   252.96208     -5482.2766     -6253.6512     -553.03632      0.062094474    0.279          0.62094474   
   2791000   243.66118     -5596.9706     -6339.9834      184.32015     -0.013350342    0.2791        -0.13350342   
   2792000   242.06595     -5570.6295     -6308.7778     -328.61408      0.034047627    0.2792         0.34047627   
   2793000   228.87065     -5638.7868     -6336.6978      1041.2934     -0.11431687     0.2793        -1.1431687    
   2794000   246.95683     -5538.0193     -6291.0818     -575.06893      0.048631776    0.2794         0.48631776   
   2795000   233.17599     -5555.7612     -6266.8008      502.87669     -0.050953884    0.2795        -0.50953884   
   2796000   245.47755     -5531.8824     -6280.4339     -171.47131      0.014266487    0.2796         0.14266487   
   2797000   243.50171     -5594.9174     -6337.4439      171.25533     -0.013365676    0.2797        -0.13365676   
   2798000   241.08714     -5541.994      -6277.1576      474.09556     -0.039065481    0.2798        -0.39065481   
   2799000   241.56841     -5564.4038     -6301.0349      400.86235     -0.033580541    0.2799        -0.33580541   
   2800000   244.35297     -5554.0292     -6299.1515     -7.1062883      0.0039696548   0.28           0.039696548  
Loop time of 92.4681 on 56 procs for 100000 steps with 1536 atoms

Performance: 93.438 ns/day, 0.257 hours/ns, 1081.454 timesteps/s, 1.661 Matom-step/s
99.8% CPU use with 56 MPI tasks x no OpenMP threads

MPI task timing breakdown:
Section |  min time  |  avg time  |  max time  |%varavg| %total
---------------------------------------------------------------
Pair    | 21.781     | 24.566     | 26.886     |  21.1 | 26.57
Bond    | 0.010996   | 0.014277   | 0.024213   |   2.0 |  0.02
Kspace  | 37.614     | 39.712     | 42.283     |  16.0 | 42.95
Neigh   | 1.8144     | 1.8161     | 1.8174     |   0.1 |  1.96
Comm    | 10.161     | 10.371     | 10.618     |   2.8 | 11.22
Output  | 0.076356   | 0.11966    | 0.15488    |   6.1 |  0.13
Modify  | 12.158     | 14.269     | 14.953     |  21.2 | 15.43
Other   |            | 1.599      |            |       |  1.73

Nlocal:        27.4286 ave          35 max          21 min
Histogram: 3 1 15 7 6 8 2 9 2 3
Nghost:        4163.52 ave        4213 max        4109 min
Histogram: 1 4 7 4 10 8 9 6 5 2
Neighs:        12012.1 ave       15382 max        9175 min
Histogram: 3 2 13 8 9 5 3 7 3 3

Total # of neighbors = 672675
Ave neighs/atom = 437.93945
Ave special neighs/atom = 2
Neighbor list builds = 1093
Dangerous builds = 0
kspace_style pppm/tip4p 1.0e-5
next nloop
jump SELF loop_start
run 100000 # 100ps
PPPM initialization ...
  extracting TIP4P info from pair style
  using 12-bit tables for long-range coulomb
  G vector (1/distance) = 0.33035153
  grid = 27 32 27
  stencil order = 5
  estimated absolute RMS force accuracy = 0.003140928
  estimated relative force accuracy = 9.4588115e-06
  using double precision KISS FFT
  3d grid and FFT values/proc = 4862 448
Generated 0 of 1 mixed pair_coeff terms from geometric mixing rule
Per MPI rank memory allocation (min/avg/max) = 9.762 | 9.783 | 9.794 Mbytes
   Step          Temp          TotEng         PotEng          Pxy           v_sxy         v_strain     v_viscosity  
   2800000   244.35275     -5554.0293     -6299.151      -6.8891403      0.0039472275   0.28           0.039472275  
   2801000   251.10024     -5528.2222     -6293.9194      425.01581     -0.038833263    0.2801        -0.38833263   
   2802000   245.73028     -5572.5779     -6321.9001      156.20402     -0.014147943    0.2802        -0.14147943   
   2803000   239.43724     -5539.3056     -6269.4381      553.87739     -0.037145052    0.2803        -0.37145052   
   2804000   242.18103     -5544.9261     -6283.4253      921.18585     -0.098783897    0.2804        -0.98783897   
   2805000   250.46385     -5540.5338     -6304.2905      307.18529     -0.021775794    0.2805        -0.21775794   
   2806000   249.11288     -5464.3528     -6223.9898     -655.55096      0.0671489      0.2806         0.671489     
   2807000   244.22899     -5557.3333     -6302.0775     -270.37616      0.038175538    0.2807         0.38175538   
   2808000   254.48475     -5509.5217     -6285.5395     -24.379633     -0.0029870039   0.2808        -0.029870039  
   2809000   253.56538     -5546.8133     -6320.0276     -416.73979      0.046651896    0.2809         0.46651896   
   2810000   243.37664     -5561.3778     -6303.5228      359.04415     -0.030399949    0.281         -0.30399949   
   2811000   249.28527     -5537.5301     -6297.6928      1100.824      -0.10976585     0.2811        -1.0976585    
   2812000   253.0988      -5523.0579     -6294.8495     -254.03985      0.0325747      0.2812         0.325747     
   2813000   233.11086     -5568.8508     -6279.6917     -497.58334      0.049547856    0.2813         0.49547856   
   2814000   242.8909      -5552.8807     -6293.5446     -496.8064       0.05142885     0.2814         0.5142885    
   2815000   239.73676     -5522.0273     -6253.073       100.78773     -0.010007015    0.2815        -0.10007015   
   2816000   254.29315     -5541.7534     -6317.187      -244.00626      0.010292369    0.2816         0.10292369   
   2817000   234.41828     -5551.4067     -6266.2345      905.12449     -0.09425573     0.2817        -0.9425573    
   2818000   260.09197     -5512.9372     -6306.0535      503.80408     -0.048658792    0.2818        -0.48658792   
   2819000   246.51537     -5534.6472     -6286.3635     -758.88081      0.075234388    0.2819         0.75234388   
   2820000   242.88689     -5513.409      -6254.0607      459.58137     -0.056567796    0.282         -0.56567796   
   2821000   256.56973     -5448.2565     -6230.6322     -399.98463      0.029095698    0.2821         0.29095698   
   2822000   249.46998     -5593.8081     -6354.534      -648.0827       0.070318395    0.2822         0.70318395   
   2823000   249.13333     -5556.8317     -6316.5311      38.511512     -0.0020010033   0.2823        -0.020010033  
   2824000   247.39363     -5505.572      -6259.9664     -311.5737       0.03360118     0.2824         0.3360118    
   2825000   247.34005     -5520.152      -6274.383       295.63343     -0.031859981    0.2825        -0.31859981   
   2826000   231.76122     -5600.3526     -6307.078      -425.13411      0.03977058     0.2826         0.3977058    
   2827000   249.97179     -5507.1153     -6269.3715     -514.03702      0.061023365    0.2827         0.61023365   
   2828000   248.37055     -5518.7845     -6276.1579     -214.3287       0.023907386    0.2828         0.23907386   
   2829000   253.28646     -5513.3057     -6285.6695     -742.55005      0.058584861    0.2829         0.58584861   
   2830000   237.07903     -5595.0048     -6317.9462      587.55153     -0.056883087    0.283         -0.56883087   
   2831000   248.57192     -5570.7751     -6328.7625     -29.322792     -0.00020027726  0.2831        -0.0020027726 
   2832000   255.74717     -5525.6906     -6305.558      -463.60566      0.040019092    0.2832         0.40019092   
   2833000   234.76559     -5590.0142     -6305.901       262.37155     -0.028096794    0.2833        -0.28096794   
   2834000   250.25329     -5494.0413     -6257.1558     -329.79168      0.030219717    0.2834         0.30219717   
   2835000   243.01918     -5493.3447     -6234.3997      69.485309     -0.0027778251   0.2835        -0.027778251  
   2836000   256.7705      -5521.6787     -6304.6666      476.34977     -0.050192782    0.2836        -0.50192782   
   2837000   243.67228     -5530.9701     -6274.0167      837.3873      -0.10191935     0.2837        -1.0191935    
   2838000   241.97462     -5505.318      -6243.1879      262.30352     -0.036152097    0.2838        -0.36152097   
   2839000   243.13739     -5546.6251     -6288.0406     -592.05188      0.058219456    0.2839         0.58219456   
   2840000   234.7944      -5553.9369     -6269.9116      144.76732     -0.013061892    0.284         -0.13061892   
   2841000   248.83619     -5457.4925     -6216.2858     -151.84968      0.015565114    0.2841         0.15565114   
   2842000   237.13925     -5549.7518     -6272.8768      87.820768     -0.012563432    0.2842        -0.12563432   
   2843000   267.32065     -5461.6553     -6276.8145      28.145399     -0.004183752    0.2843        -0.04183752   
   2844000   241.77827     -5598.8906     -6336.1617     -442.32553      0.039733913    0.2844         0.39733913   
   2845000   236.65056     -5561.6585     -6283.2933      726.88629     -0.077116106    0.2845        -0.77116106   
   2846000   247.51292     -5506.1642     -6260.9223      97.729556     -0.015892295    0.2846        -0.15892295   
   2847000   253.04879     -5559.4285     -6331.0675     -533.91642      0.063798647    0.2847         0.63798647   
   2848000   247.46827     -5526.5359     -6281.1579     -138.91177      0.020140088    0.2848         0.20140088   
   2849000   249.9623      -5482.1198     -6244.347       492.86493     -0.052478012    0.2849        -0.52478012   
   2850000   243.89279     -5531.8433     -6275.5624     -359.05447      0.026465706    0.285          0.26465706   
   2851000   248.02038     -5487.812      -6244.1176     -298.56248      0.032504434    0.2851         0.32504434   
   2852000   242.55099     -5549.6795     -6289.3069      655.01101     -0.064233917    0.2852        -0.64233917   
   2853000   246.5819      -5511.3573     -6263.2764     -81.792311      0.011311528    0.2853         0.11311528   
   2854000   238.35377     -5539.5229     -6266.3514      68.221017      0.00074192905  0.2854         0.0074192905 
   2855000   240.5304      -5518.1614     -6251.6273     -319.25538      0.031356465    0.2855         0.31356465   
   2856000   242.47161     -5479.5726     -6218.958      -591.46675      0.054828187    0.2856         0.54828187   
   2857000   256.39329     -5491.2406     -6273.0783      260.42919     -0.03394656     0.2857        -0.3394656    
   2858000   229.5109      -5574.7597     -6274.623       708.53309     -0.066599729    0.2858        -0.66599729   
   2859000   234.74921     -5524.2255     -6240.0624      261.43813     -0.032771514    0.2859        -0.32771514   
   2860000   235.82797     -5496.7678     -6215.8943     -248.93035      0.023406868    0.286          0.23406868   
   2861000   243.58434     -5510.7684     -6253.5469     -613.50155      0.061293573    0.2861         0.61293573   
   2862000   244.09477     -5533.2829     -6277.6178      324.85805     -0.042316021    0.2862        -0.42316021   
   2863000   244.47016     -5513.9283     -6259.4079     -549.39872      0.04744984     0.2863         0.4744984    
   2864000   245.77665     -5529.9936     -6279.4572      207.53493     -0.017659395    0.2864        -0.17659395   
   2865000   254.22555     -5448.2972     -6223.5246      196.26        -0.028463533    0.2865        -0.28463533   
   2866000   243.26692     -5530.2691     -6272.0796     -190.53148      0.019466422    0.2866         0.19466422   
   2867000   249.33869     -5518.9826     -6279.3082      623.69425     -0.05972256     0.2867        -0.5972256    
   2868000   244.23976     -5479.774      -6224.5511      198.22248     -0.024210267    0.2868        -0.24210267   
   2869000   249.20092     -5534.0313     -6293.9368      609.85419     -0.054498852    0.2869        -0.54498852   
   2870000   235.34782     -5523.7578     -6241.4201      725.3202      -0.079548362    0.287         -0.79548362   
   2871000   236.83735     -5557.4385     -6279.6429     -518.56019      0.055226781    0.2871         0.55226781   
   2872000   252.14778     -5497.3534     -6266.245      -149.57535      0.0081979422   0.2872         0.081979422  
   2873000   240.21999     -5498.5617     -6231.081      -92.091115      0.0098632908   0.2873         0.098632908  
   2874000   241.55998     -5519.9749     -6256.5803      573.43144     -0.052459175    0.2874        -0.52459175   
   2875000   246.9179      -5480.9488     -6233.8925     -810.23963      0.08430413     0.2875         0.8430413    
   2876000   233.32055     -5528.0365     -6239.5169     -694.51718      0.073303302    0.2876         0.73303302   
   2877000   244.61563     -5483.4024     -6229.3256     -726.33557      0.07661788     0.2877         0.7661788    
   2878000   243.35473     -5553.3861     -6295.4644     -622.26469      0.069928995    0.2878         0.69928995   
   2879000   246.59243     -5564.0958     -6316.047       348.65061     -0.026203087    0.2879        -0.26203087   
   2880000   236.64014     -5519.6562     -6241.2592      593.86571     -0.065613891    0.288         -0.65613891   
   2881000   229.58877     -5563.8019     -6263.9027      298.32151     -0.042024263    0.2881        -0.42024263   
   2882000   252.52588     -5474.7203     -6244.7648     -515.80498      0.054298814    0.2882         0.54298814   
   2883000   251.8199      -5474.766      -6242.6577      480.15833     -0.05860064     0.2883        -0.5860064    
   2884000   242.58362     -5552.6196     -6292.3465      705.7721      -0.064519546    0.2884        -0.64519546   
   2885000   245.58174     -5560.9481     -6309.8174      367.61674     -0.021859889    0.2885        -0.21859889   
   2886000   249.67839     -5529.1056     -6290.4671     -714.83429      0.065187594    0.2886         0.65187594   
   2887000   246.73927     -5557.0647     -6309.4637     -1085.6424      0.11312989     0.2887         1.1312989    
   2888000   259.10421     -5461.8486     -6251.9529      381.598       -0.037977966    0.2888        -0.37977966   
   2889000   243.20958     -5530.4575     -6272.0932     -145.32129      0.0096910528   0.2889         0.096910528  
   2890000   246.0918      -5556.5052     -6306.9298     -872.44061      0.083782042    0.289          0.83782042   
   2891000   246.2803      -5532.0858     -6283.0853     -103.37863      0.016406135    0.2891         0.16406135   
   2892000   244.80422     -5531.1614     -6277.6597      444.76991     -0.046011435    0.2892        -0.46011435   
   2893000   236.09106     -5528.9661     -6248.8948     -374.8784       0.030579983    0.2893         0.30579983   
   2894000   243.63916     -5557.2935     -6300.2392      166.01922     -0.01992616     0.2894        -0.1992616    
   2895000   245.90216     -5526.9809     -6276.8272     -146.00698      0.018477757    0.2895         0.18477757   
   2896000   233.72966     -5576.9472     -6289.6751     -504.02474      0.054941573    0.2896         0.54941573   
   2897000   245.64777     -5553.6353     -6302.7059     -1099.9801      0.11703496     0.2897         1.1703496    
   2898000   241.41387     -5542.0484     -6278.2083      40.506268     -0.0050736308   0.2898        -0.050736308  
   2899000   250.70503     -5529.4886     -6293.9806      803.07843     -0.070144026    0.2899        -0.70144026   
   2900000   252.41146     -5539.6917     -6309.3873      74.515655     -0.011991722    0.29          -0.11991722   
Loop time of 92.9596 on 56 procs for 100000 steps with 1536 atoms

Performance: 92.944 ns/day, 0.258 hours/ns, 1075.736 timesteps/s, 1.652 Matom-step/s
99.8% CPU use with 56 MPI tasks x no OpenMP threads

MPI task timing breakdown:
Section |  min time  |  avg time  |  max time  |%varavg| %total
---------------------------------------------------------------
Pair    | 22.021     | 24.526     | 26.948     |  19.7 | 26.38
Bond    | 0.01108    | 0.014269   | 0.023437   |   2.0 |  0.02
Kspace  | 37.774     | 39.988     | 42.44      |  14.9 | 43.02
Neigh   | 1.7982     | 1.8016     | 1.8035     |   0.1 |  1.94
Comm    | 10.203     | 10.411     | 10.561     |   2.9 | 11.20
Output  | 0.076329   | 0.11957    | 0.1548     |   6.1 |  0.13
Modify  | 12.159     | 14.284     | 15.015     |  21.2 | 15.37
Other   |            | 1.816      |            |       |  1.95

Nlocal:        27.4286 ave          34 max          20 min
Histogram: 3 1 6 5 7 14 3 10 5 2
Nghost:        4170.59 ave        4206 max        4127 min
Histogram: 3 3 4 9 3 8 5 10 7 4
Neighs:        12010.2 ave       14852 max        8792 min
Histogram: 3 1 6 5 10 11 3 10 5 2

Total # of neighbors = 672574
Ave neighs/atom = 437.8737
Ave special neighs/atom = 2
Neighbor list builds = 1128
Dangerous builds = 0
kspace_style pppm/tip4p 1.0e-5
next nloop
jump SELF loop_start
run 100000 # 100ps
PPPM initialization ...
  extracting TIP4P info from pair style
  using 12-bit tables for long-range coulomb
  G vector (1/distance) = 0.33480049
  grid = 27 36 27
  stencil order = 5
  estimated absolute RMS force accuracy = 0.0024062828
  estimated relative force accuracy = 7.2464491e-06
  using double precision KISS FFT
  3d grid and FFT values/proc = 5148 540
Generated 0 of 1 mixed pair_coeff terms from geometric mixing rule
Per MPI rank memory allocation (min/avg/max) = 9.784 | 9.803 | 9.817 Mbytes
   Step          Temp          TotEng         PotEng          Pxy           v_sxy         v_strain     v_viscosity  
   2900000   252.41165     -5539.6918     -6309.388       74.560767     -0.011996768    0.29          -0.11996768   
   2901000   255.37709     -5491.9675     -6270.7064     -691.36746      0.060485908    0.2901         0.60485908   
   2902000   243.07547     -5599.8018     -6341.0286     -345.81294      0.029522796    0.2902         0.29522796   
   2903000   248.43915     -5528.6107     -6286.1932     -849.09675      0.096584396    0.2903         0.96584396   
   2904000   242.31773     -5544.3717     -6283.2878     -592.36702      0.068243678    0.2904         0.68243678   
   2905000   240.39093     -5528.4043     -6261.4448      268.65489     -0.032436807    0.2905        -0.32436807   
   2906000   235.65641     -5568.4908     -6287.094       622.27022     -0.061820305    0.2906        -0.61820305   
   2907000   244.00945     -5536.6366     -6280.7114      632.55456     -0.071143771    0.2907        -0.71143771   
   2908000   237.23371     -5571.8816     -6295.2947     -138.96301      0.018246249    0.2908         0.18246249   
   2909000   244.6833      -5570.5056     -6316.6352      817.81173     -0.073913519    0.2909        -0.73913519   
   2910000   244.58933     -5538.1691     -6284.0121      493.80889     -0.044850975    0.291         -0.44850975   
   2911000   251.41491     -5512.6927     -6279.3494     -77.128175      0.012367545    0.2911         0.12367545   
   2912000   244.79539     -5581.3638     -6327.8352     -629.0113       0.066978427    0.2912         0.66978427   
   2913000   240.83154     -5571.8996     -6306.2838     -412.7214       0.033840037    0.2913         0.33840037   
   2914000   256.25969     -5500.1486     -6281.5788     -176.47493      0.0075578807   0.2914         0.075578807  
   2915000   245.08622     -5567.4009     -6314.7592      264.45014     -0.023737756    0.2915        -0.23737756   
   2916000   251.60335     -5506.0643     -6273.2956      1313.2338     -0.12524787     0.2916        -1.2524787    
   2917000   240.41408     -5583.704      -6316.8152     -820.26064      0.082222305    0.2917         0.82222305   
   2918000   246.16287     -5488.8604     -6239.5017     -255.68702      0.024065641    0.2918         0.24065641   
   2919000   253.59042     -5572.6306     -6345.9213     -483.38614      0.053399013    0.2919         0.53399013   
   2920000   246.13145     -5546.7492     -6297.2947     -581.47053      0.054898705    0.292          0.54898705   
   2921000   248.18146     -5559.4517     -6316.2485     -205.45272      0.028731169    0.2921         0.28731169   
   2922000   244.18529     -5577.1711     -6321.7821      388.01227     -0.026174252    0.2922        -0.26174252   
   2923000   232.79832     -5581.9054     -6291.7933      632.37759     -0.072090068    0.2923        -0.72090068   
   2924000   239.50919     -5577.2581     -6307.6099     -211.81352      0.0052927244   0.2924         0.052927244  
   2925000   242.60668     -5542.9981     -6282.7953     -159.95382      0.012451961    0.2925         0.12451961   
   2926000   242.61785     -5548.9128     -6288.744       311.759       -0.025093377    0.2926        -0.25093377   
   2927000   249.28704     -5543.2992     -6303.4673     -751.3698       0.066779742    0.2927         0.66779742   
   2928000   239.88534     -5573.1931     -6304.6919      18.415502     -0.0032423449   0.2928        -0.032423449  
   2929000   242.60045     -5542.1247     -6281.9029      35.325707     -0.003919222    0.2929        -0.03919222   
   2930000   243.78122     -5553.1438     -6296.5226     -24.260573      0.011007171    0.293          0.11007171   
   2931000   239.98289     -5541.3945     -6273.1908     -424.66399      0.039676966    0.2931         0.39676966   
   2932000   257.04939     -5492.9518     -6276.7902      293.54482     -0.03243796     0.2932        -0.3243796    
   2933000   240.90302     -5541.3843     -6275.9864     -194.45173      0.028296232    0.2933         0.28296232   
   2934000   246.01038     -5551.8986     -6302.075      -296.09272      0.02064196     0.2934         0.2064196    
   2935000   249.21924     -5511.2209     -6271.1822     -546.6736       0.061157698    0.2935         0.61157698   
   2936000   240.39324     -5525.0442     -6258.0918      1165.5499     -0.11833811     0.2936        -1.1833811    
   2937000   233.31344     -5576.5618     -6288.0205      1060.394      -0.10631571     0.2937        -1.0631571    
   2938000   244.01422     -5515.6227     -6259.712      -277.61451      0.015699262    0.2938         0.15699262   
   2939000   238.22164     -5557.3386     -6283.7642      65.569763      0.0030550409   0.2939         0.030550409  
   2940000   254.82896     -5448.1337     -6225.2012      777.40881     -0.081541913    0.294         -0.81541913   
   2941000   249.9035      -5518.0979     -6280.1458      491.41111     -0.06206815     0.2941        -0.6206815    
   2942000   242.4849      -5570.4447     -6309.8706     -354.22587      0.042052574    0.2942         0.42052574   
   2943000   240.89314     -5561.7682     -6296.3402      197.18439     -0.018567       0.2943        -0.18567      
   2944000   248.83648     -5556.4739     -6315.2681     -95.691944      0.021333309    0.2944         0.21333309   
   2945000   246.85229     -5557.5356     -6310.2792     -534.87731      0.062030611    0.2945         0.62030611   
   2946000   244.27434     -5507.1431     -6252.0257     -309.77866      0.021647688    0.2946         0.21647688   
   2947000   237.82501     -5567.391      -6292.6071      373.76244     -0.03754407     0.2947        -0.3754407    
   2948000   244.70932     -5506.138      -6252.347       173.88014     -0.014618249    0.2948        -0.14618249   
   2949000   239.36616     -5551.406      -6281.3216     -217.71446      0.01984115     0.2949         0.1984115    
   2950000   245.81635     -5576.6175     -6326.2022     -653.05375      0.067945193    0.295          0.67945193   
   2951000   235.5569      -5576.0039     -6294.3037     -734.5387       0.067861365    0.2951         0.67861365   
   2952000   247.43163     -5548.3623     -6302.8726      552.69927     -0.057360901    0.2952        -0.57360901   
   2953000   250.00861     -5534.3718     -6296.7402     -253.34448      0.035430094    0.2953         0.35430094   
   2954000   249.2544      -5554.6249     -6314.6935     -771.6148       0.070085048    0.2954         0.70085048   
   2955000   238.01514     -5579.7419     -6305.5379      87.742479     -0.012571999    0.2955        -0.12571999   
   2956000   256.82127     -5484.2464     -6267.3892     -423.09388      0.043670079    0.2956         0.43670079   
   2957000   248.41522     -5517.5108     -6275.0204     -537.49665      0.049646057    0.2957         0.49646057   
   2958000   247.1072      -5563.12       -6316.6409     -480.58123      0.046276128    0.2958         0.46276128   
   2959000   240.75812     -5535.3411     -6269.5014     -407.05013      0.03798694     0.2959         0.3798694    
   2960000   240.92478     -5560.5833     -6295.2518     -312.58599      0.022894538    0.296          0.22894538   
   2961000   248.97463     -5561.9856     -6321.201      -191.44119      0.015779458    0.2961         0.15779458   
   2962000   244.54704     -5561.2045     -6306.9186      212.48867     -0.01920871     0.2962        -0.1920871    
   2963000   234.14577     -5613.3091     -6327.3059      708.10736     -0.07724977     0.2963        -0.7724977    
   2964000   248.77873     -5518.7445     -6277.3625     -502.19896      0.041070596    0.2964         0.41070596   
   2965000   238.50783     -5537.634      -6264.9323      560.57788     -0.053279377    0.2965        -0.53279377   
   2966000   247.99765     -5552.3599     -6308.5961      307.46262     -0.025360872    0.2966        -0.25360872   
   2967000   240.62394     -5602.9023     -6336.6534     -563.95367      0.055638013    0.2967         0.55638013   
   2968000   237.06681     -5521.6952     -6244.5993     -815.12488      0.085086766    0.2968         0.85086766   
   2969000   240.90175     -5589.6286     -6324.2269     -656.58541      0.073510166    0.2969         0.73510166   
   2970000   245.32454     -5553.1838     -6301.2688     -1139.1344      0.11662578     0.297          1.1662578    
   2971000   244.78272     -5538.4296     -6284.8624     -852.70063      0.085581164    0.2971         0.85581164   
   2972000   239.51157     -5583.4066     -6313.7657     -1165.7007      0.11514429     0.2972         1.1514429    
   2973000   241.51186     -5544.1254     -6280.5841      419.75388     -0.046944872    0.2973        -0.46944872   
   2974000   243.20274     -5559.6444     -6301.2593      409.60532     -0.044182054    0.2974        -0.44182054   
   2975000   244.78492     -5585.3266     -6331.766      -134.64844      0.02439028     0.2975         0.2439028    
   2976000   247.62605     -5568.3844     -6323.4875      40.588027     -0.0050758883   0.2976        -0.050758883  
   2977000   252.60998     -5607.9369     -6378.2379     -139.74543      0.014546466    0.2977         0.14546466   
   2978000   242.68875     -5557.1093     -6297.1567      332.39123     -0.035143187    0.2978        -0.35143187   
   2979000   247.57009     -5534.4307     -6289.3632     -672.11825      0.067466693    0.2979         0.67466693   
   2980000   240.54108     -5578.5569     -6312.0554      421.8101      -0.045008385    0.298         -0.45008385   
   2981000   246.16664     -5529.5542     -6280.2071      165.51783     -0.023477538    0.2981        -0.23477538   
   2982000   244.11004     -5593.8985     -6338.28       -79.355014      0.0098110557   0.2982         0.098110557  
   2983000   241.52939     -5580.0386     -6316.5507      138.62316     -0.012400082    0.2983        -0.12400082   
   2984000   252.75829     -5521.4508     -6292.2041      306.08224     -0.021876329    0.2984        -0.21876329   
   2985000   242.95658     -5528.2269     -6269.0911     -470.7324       0.05116562     0.2985         0.5116562    
   2986000   243.95428     -5550.2112     -6294.1177     -104.54114      0.009435308    0.2986         0.09435308   
   2987000   244.49655     -5551.1835     -6296.7437     -355.86353      0.037645585    0.2987         0.37645585   
   2988000   250.90795     -5536.8063     -6301.9171     -231.93037      0.022870981    0.2988         0.22870981   
   2989000   244.13758     -5580.1833     -6324.6488      228.57323     -0.017972474    0.2989        -0.17972474   
   2990000   246.51361     -5537.4676     -6289.1784     -151.04323      0.0055913127   0.299          0.055913127  
   2991000   247.62816     -5553.3547     -6308.4642      369.37805     -0.033544556    0.2991        -0.33544556   
   2992000   243.61915     -5591.4312     -6334.3158      594.80738     -0.068931906    0.2992        -0.68931906   
   2993000   254.7098      -5543.599      -6320.303      -89.526396      0.0022724926   0.2993         0.022724926  
   2994000   261.24542     -5509.23       -6305.8636      514.28642     -0.043331484    0.2994        -0.43331484   
   2995000   251.3654      -5543.2223     -6309.7281      382.65234     -0.024805952    0.2995        -0.24805952   
   2996000   251.67724     -5551.2307     -6318.6874      650.18544     -0.068170999    0.2996        -0.68170999   
   2997000   234.70091     -5552.2134     -6267.903      -171.83692      0.017723184    0.2997         0.17723184   
   2998000   246.1086      -5557.889      -6308.3648      474.80799     -0.031223829    0.2998        -0.31223829   
   2999000   234.25956     -5574.5667     -6288.9105     -5.8561632      0.00044860031  0.2999         0.0044860031 
   3000000   249.66995     -5495.681      -6257.0167     -647.72208      0.077398805    0.3            0.77398805   
Loop time of 96.3535 on 56 procs for 100000 steps with 1536 atoms

Performance: 89.670 ns/day, 0.268 hours/ns, 1037.845 timesteps/s, 1.594 Matom-step/s
99.8% CPU use with 56 MPI tasks x no OpenMP threads

MPI task timing breakdown:
Section |  min time  |  avg time  |  max time  |%varavg| %total
---------------------------------------------------------------
Pair    | 22.05      | 24.445     | 26.965     |  24.4 | 25.37
Bond    | 0.010817   | 0.014393   | 0.024483   |   2.0 |  0.01
Kspace  | 39.819     | 42.094     | 44.621     |  17.5 | 43.69
Neigh   | 1.5988     | 1.6002     | 1.6017     |   0.1 |  1.66
Comm    | 10.174     | 10.461     | 10.763     |   5.3 | 10.86
Output  | 0.076126   | 0.11969    | 0.15499    |   6.1 |  0.12
Modify  | 12.22      | 15.095     | 16.692     |  32.9 | 15.67
Other   |            | 2.524      |            |       |  2.62

Nlocal:        27.4286 ave          37 max          20 min
Histogram: 2 4 9 9 11 11 4 5 0 1
Nghost:        4149.88 ave        4224 max        4091 min
Histogram: 6 5 8 7 6 9 6 2 2 5
Neighs:        12001.1 ave       16219 max        8895 min
Histogram: 2 5 8 12 8 11 5 4 0 1

Total # of neighbors = 672062
Ave neighs/atom = 437.54036
Ave special neighs/atom = 2
Neighbor list builds = 1081
Dangerous builds = 0
kspace_style pppm/tip4p 1.0e-5
next nloop
jump SELF loop_start
run 100000 # 100ps
PPPM initialization ...
  extracting TIP4P info from pair style
  using 12-bit tables for long-range coulomb
  G vector (1/distance) = 0.33462831
  grid = 27 36 27
  stencil order = 5
  estimated absolute RMS force accuracy = 0.0024314416
  estimated relative force accuracy = 7.3222141e-06
  using double precision KISS FFT
  3d grid and FFT values/proc = 5148 540
Generated 0 of 1 mixed pair_coeff terms from geometric mixing rule
Per MPI rank memory allocation (min/avg/max) = 9.784 | 9.803 | 9.817 Mbytes
   Step          Temp          TotEng         PotEng          Pxy           v_sxy         v_strain     v_viscosity  
   3000000   249.66993     -5495.6809     -6257.0166     -647.57177      0.077382902    0.3            0.77382902   
   3001000   249.46005     -5520.8477     -6281.5433     -1043.244       0.095887472    0.3001         0.95887472   
   3002000   239.33263     -5576.0709     -6305.8844     -876.85735      0.087282414    0.3002         0.87282414   
   3003000   253.59227     -5510.6228     -6283.9192      87.25142      -0.0098951921   0.3003        -0.098951921  
   3004000   240.78969     -5586.9706     -6321.2272      42.440127     -0.013823675    0.3004        -0.13823675   
   3005000   238.10303     -5547.1021     -6273.1661     -498.36477      0.047068056    0.3005         0.47068056   
   3006000   237.19205     -5584.9765     -6308.2625      141.81837     -0.023087205    0.3006        -0.23087205   
   3007000   249.05294     -5552.237      -6311.6912     -1008.1359      0.10440295     0.3007         1.0440295    
   3008000   250.73107     -5573.2875     -6337.859      -624.03138      0.061835348    0.3008         0.61835348   
   3009000   252.28039     -5558.1285     -6327.4244     -478.43189      0.057579926    0.3009         0.57579926   
   3010000   247.02939     -5580.8476     -6334.1313     -123.27415      0.013773737    0.301          0.13773737   
   3011000   257.26815     -5518.1706     -6302.676       615.5349      -0.050672787    0.3011        -0.50672787   
   3012000   249.91452     -5552.5281     -6314.6096     -405.71768      0.047906593    0.3012         0.47906593   
   3013000   243.56932     -5588.454      -6331.1866      163.01348     -0.015118461    0.3013        -0.15118461   
   3014000   240.81933     -5553.7578     -6288.1047      15.963397     -0.0096067637   0.3014        -0.096067637  
   3015000   248.76185     -5546.5789     -6305.1455      64.483385     -0.012744356    0.3015        -0.12744356   
   3016000   238.45362     -5571.3032     -6298.4362     -242.80243      0.035716246    0.3016         0.35716246   
   3017000   247.48167     -5565.6658     -6320.3287      63.192093     -0.0099158848   0.3017        -0.099158848  
   3018000   243.93548     -5587.9175     -6331.7667     -242.33948      0.024831486    0.3018         0.24831486   
   3019000   244.14346     -5548.718      -6293.2015     -102.31176      0.0064527467   0.3019         0.064527467  
   3020000   245.14427     -5583.2339     -6330.7691     -497.89268      0.039185875    0.302          0.39185875   
   3021000   256.59238     -5518.8641     -6301.3088     -620.76308      0.059397282    0.3021         0.59397282   
   3022000   232.9057      -5600.3743     -6310.5896     -28.570186      0.0029255097   0.3022         0.029255097  
   3023000   242.77863     -5589.1984     -6329.5199      519.65363     -0.046922162    0.3023        -0.46922162   
   3024000   240.3046      -5569.6399     -6302.4172      1067.6258     -0.11337236     0.3024        -1.1337236    
   3025000   244.48596     -5543.882      -6289.4099     -653.59358      0.062379794    0.3025         0.62379794   
   3026000   233.67132     -5574.984      -6287.534      -788.63978      0.084251507    0.3026         0.84251507   
   3027000   246.5415      -5543.9258     -6295.7218     -585.2062       0.061326499    0.3027         0.61326499   
   3028000   245.81774     -5517.1885     -6266.7774      498.24011     -0.052559288    0.3028        -0.52559288   
   3029000   244.81954     -5556.6596     -6303.2046      1157.1309     -0.1122432      0.3029        -1.122432     
   3030000   248.92458     -5542.7886     -6301.8514     -139.88082      0.014824999    0.303          0.14824999   
   3031000   253.13683     -5480.1009     -6252.0084     -157.1418       0.0074762578   0.3031         0.074762578  
   3032000   247.90153     -5516.5796     -6272.5228     -155.94216      0.01405597     0.3032         0.1405597    
   3033000   243.7774      -5462.3614     -6205.7285     -150.18324      0.016732814    0.3033         0.16732814   
   3034000   244.68096     -5508.2216     -6254.3441     -247.67198      0.021539346    0.3034         0.21539346   
   3035000   232.63228     -5516.0426     -6225.4243      40.803594     -0.00020589543  0.3035        -0.0020589543 
   3036000   243.42373     -5543.5601     -6285.8488     -198.50472      0.018443683    0.3036         0.18443683   
   3037000   251.65986     -5521.7701     -6289.1738      1095.8522     -0.11393983     0.3037        -1.1393983    
   3038000   254.61641     -5516.4938     -6292.9131      1399.7889     -0.12943479     0.3038        -1.2943479    
   3039000   245.61035     -5565.4503     -6314.4068      335.11882     -0.031153704    0.3039        -0.31153704   
   3040000   250.69943     -5542.0705     -6306.5455      786.76424     -0.072316188    0.304         -0.72316188   
   3041000   249.13721     -5586.2569     -6345.9681      371.54622     -0.034376287    0.3041        -0.34376287   
   3042000   249.4682      -5517.3804     -6278.1009     -1035.7531      0.10974102     0.3042         1.0974102    
   3043000   249.89566     -5524.4008     -6286.4247     -117.39556      0.013893044    0.3043         0.13893044   
   3044000   233.78551     -5577.0854     -6289.9836      230.07204     -0.018255621    0.3044        -0.18255621   
   3045000   257.76712     -5478.9485     -6264.9755     -114.32458      0.0089449869   0.3045         0.089449869  
   3046000   244.9922      -5532.1983     -6279.2699     -648.19722      0.066914675    0.3046         0.66914675   
   3047000   237.04836     -5553.4372     -6276.285       873.30472     -0.080923332    0.3047        -0.80923332   
   3048000   248.85818     -5519.7487     -6278.609       94.335462     -0.0085508172   0.3048        -0.085508172  
   3049000   242.38963     -5573.7808     -6312.9161     -296.85246      0.035639544    0.3049         0.35639544   
   3050000   251.99392     -5502.8488     -6271.2712      449.88154     -0.047468066    0.305         -0.47468066   
   3051000   247.95297     -5521.4435     -6277.5435      365.11516     -0.035264393    0.3051        -0.35264393   
   3052000   249.22607     -5528.4216     -6288.4037     -603.58495      0.06738573     0.3052         0.6738573    
   3053000   243.44077     -5529.1249     -6271.4656     -76.080467      0.011313567    0.3053         0.11313567   
   3054000   248.183       -5596.306      -6353.1074      21.491523      0.0015837452   0.3054         0.015837452  
   3055000   246.65228     -5535.7834     -6287.9172     -450.41439      0.045522072    0.3055         0.45522072   
   3056000   238.08988     -5553.5884     -6279.6122      113.13745     -0.025525682    0.3056        -0.25525682   
   3057000   243.75626     -5575.1903     -6318.493      -409.06125      0.050013469    0.3057         0.50013469   
   3058000   245.60824     -5525.2256     -6274.1757     -226.25356      0.024966557    0.3058         0.24966557   
   3059000   239.40914     -5521.8653     -6251.9121     -527.21603      0.056088047    0.3059         0.56088047   
   3060000   242.33516     -5497.3061     -6236.2753     -61.436324      0.0065774308   0.306          0.065774308  
   3061000   251.89128     -5505.7971     -6273.9065     -219.7194       0.028494378    0.3061         0.28494378   
   3062000   249.19236     -5488.9042     -6248.7835     -854.58233      0.0776903      0.3062         0.776903     
   3063000   235.18972     -5539.5702     -6256.7504      65.533018     -0.0073218311   0.3063        -0.073218311  
   3064000   248.33131     -5525.991      -6283.2447     -280.61157      0.02577583     0.3064         0.2577583    
   3065000   251.16175     -5506.1077     -6271.9925     -615.92728      0.067955229    0.3065         0.67955229   
   3066000   246.81693     -5515.3536     -6267.9894      104.65159     -0.015636296    0.3066        -0.15636296   
   3067000   243.94769     -5550.735      -6294.6215      1074.8243     -0.11593859     0.3067        -1.1593859    
   3068000   253.95212     -5505.2587     -6279.6523      325.00872     -0.035689223    0.3068        -0.35689223   
   3069000   246.47029     -5553.7727     -6305.3515     -50.344134      0.0036943143   0.3069         0.036943143  
   3070000   239.27468     -5564.5963     -6294.2331      775.51437     -0.074598473    0.307         -0.74598473   
   3071000   244.6718      -5510.4367     -6256.5312     -219.06727      0.020218658    0.3071         0.20218658   
   3072000   237.99909     -5536.4981     -6262.2451     -944.89563      0.087466224    0.3072         0.87466224   
   3073000   253.49911     -5501.1869     -6274.1991      433.58575     -0.044436283    0.3073        -0.44436283   
   3074000   249.17815     -5500.4398     -6260.2759      547.57183     -0.055713663    0.3074        -0.55713663   
   3075000   240.23849     -5566.4756     -6299.0513      898.384       -0.085589413    0.3075        -0.85589413   
   3076000   242.90248     -5551.9053     -6292.6045     -367.81884      0.040390988    0.3076         0.40390988   
   3077000   257.2659      -5516.9438     -6301.4424      149.58243     -0.028754645    0.3077        -0.28754645   
   3078000   244.42836     -5554.6579     -6300.0101      718.59394     -0.072431525    0.3078        -0.72431525   
   3079000   259.21958     -5483.914      -6274.37        129.63105     -0.0061453269   0.3079        -0.061453269  
   3080000   248.27713     -5522.2575     -6279.346      -107.14152      0.022762942    0.308          0.22762942   
   3081000   257.09752     -5437.1715     -6221.1566      69.781444     -0.0080729145   0.3081        -0.080729145  
   3082000   240.11599     -5525.1868     -6257.389       130.69953     -0.0067665323   0.3082        -0.067665323  
   3083000   246.13458     -5555.1913     -6305.7464     -208.51311      0.012061108    0.3083         0.12061108   
   3084000   241.11316     -5539.0735     -6274.3164     -323.135        0.0428267      0.3084         0.428267     
   3085000   248.4566      -5487.4786     -6245.1144      307.12154     -0.02063339     0.3085        -0.2063339    
   3086000   245.94789     -5512.373      -6262.3588      226.50557     -0.032108673    0.3086        -0.32108673   
   3087000   242.70887     -5500.4664     -6240.5753     -154.95845      0.011968958    0.3087         0.11968958   
   3088000   241.45628     -5511.0194     -6247.3086     -213.90146      0.019808943    0.3088         0.19808943   
   3089000   245.25383     -5527.5477     -6275.417      -587.36161      0.05181932     0.3089         0.5181932    
   3090000   242.80221     -5496.6537     -6237.0472     -550.43381      0.05189076     0.309          0.5189076    
   3091000   240.39685     -5533.0023     -6266.061      -261.65201      0.027831898    0.3091         0.27831898   
   3092000   250.1263      -5509.6416     -6272.3689     -138.30106      0.012792579    0.3092         0.12792579   
   3093000   244.04509     -5512.1826     -6256.366      -664.88765      0.056120136    0.3093         0.56120136   
   3094000   245.33386     -5564.2065     -6312.3198     -714.65724      0.070491433    0.3094         0.70491433   
   3095000   250.88952     -5477.5643     -6242.6189     -324.98899      0.030191238    0.3095         0.30191238   
   3096000   243.99489     -5497.1244     -6241.1547     -1207.7155      0.12242169     0.3096         1.2242169    
   3097000   238.45925     -5548.9916     -6276.1417      563.19038     -0.054489879    0.3097        -0.54489879   
   3098000   244.05878     -5495.8379     -6240.0631      550.14789     -0.045208634    0.3098        -0.45208634   
   3099000   257.92752     -5469.8263     -6256.3424      939.50871     -0.09312622     0.3099        -0.9312622    
   3100000   242.63569     -5523.2283     -6263.114      -688.99152      0.065681615    0.31           0.65681615   
Loop time of 96.3693 on 56 procs for 100000 steps with 1536 atoms

Performance: 89.655 ns/day, 0.268 hours/ns, 1037.675 timesteps/s, 1.594 Matom-step/s
99.8% CPU use with 56 MPI tasks x no OpenMP threads

MPI task timing breakdown:
Section |  min time  |  avg time  |  max time  |%varavg| %total
---------------------------------------------------------------
Pair    | 22.282     | 24.488     | 26.891     |  19.7 | 25.41
Bond    | 0.011242   | 0.014363   | 0.023825   |   1.9 |  0.01
Kspace  | 39.705     | 42.018     | 44.098     |  14.6 | 43.60
Neigh   | 1.6234     | 1.6249     | 1.6264     |   0.1 |  1.69
Comm    | 10.126     | 10.435     | 10.713     |   5.0 | 10.83
Output  | 0.076506   | 0.11978    | 0.15505    |   6.1 |  0.12
Modify  | 12.232     | 15.106     | 16.717     |  32.9 | 15.68
Other   |            | 2.564      |            |       |  2.66

Nlocal:        27.4286 ave          35 max          20 min
Histogram: 3 2 7 4 11 6 13 3 6 1
Nghost:        4174.62 ave        4232 max        4103 min
Histogram: 2 3 2 12 8 7 4 4 6 8
Neighs:        12007.7 ave       15221 max        8758 min
Histogram: 3 3 6 7 8 9 10 6 2 2

Total # of neighbors = 672429
Ave neighs/atom = 437.7793
Ave special neighs/atom = 2
Neighbor list builds = 1089
Dangerous builds = 0
kspace_style pppm/tip4p 1.0e-5
next nloop
jump SELF loop_start
run 100000 # 100ps
PPPM initialization ...
  extracting TIP4P info from pair style
  using 12-bit tables for long-range coulomb
  G vector (1/distance) = 0.33443871
  grid = 27 36 27
  stencil order = 5
  estimated absolute RMS force accuracy = 0.0024594342
  estimated relative force accuracy = 7.4065132e-06
  using double precision KISS FFT
  3d grid and FFT values/proc = 5148 540
Generated 0 of 1 mixed pair_coeff terms from geometric mixing rule
Per MPI rank memory allocation (min/avg/max) = 9.784 | 9.803 | 9.817 Mbytes
   Step          Temp          TotEng         PotEng          Pxy           v_sxy         v_strain     v_viscosity  
   3100000   242.63536     -5523.2291     -6263.1138     -688.82619      0.065664836    0.31           0.65664836   
   3101000   248.06086     -5494.1699     -6250.5989      351.63854     -0.033587546    0.3101        -0.33587546   
   3102000   236.33139     -5554.0824     -6274.744       398.32951     -0.028436965    0.3102        -0.28436965   
   3103000   256.52483     -5495.5053     -6277.7441      38.476005      0.0035629739   0.3103         0.035629739  
   3104000   239.20687     -5586.6062     -6316.0362     -359.60266      0.038696285    0.3104         0.38696285   
   3105000   233.48145     -5496.4275     -6208.3986      263.47057     -0.017712516    0.3105        -0.17712516   
   3106000   237.88481     -5573.9119     -6299.3104     -367.26348      0.038770699    0.3106         0.38770699   
   3107000   236.55514     -5482.61       -6203.9538      97.349388     -0.010502483    0.3107        -0.10502483   
   3108000   246.17145     -5507.6823     -6258.3498      584.89685     -0.055168909    0.3108        -0.55168909   
   3109000   242.19515     -5474.6872     -6213.2295      557.50506     -0.054496281    0.3109        -0.54496281   
   3110000   253.13411     -5476.3038     -6248.203       220.96398     -0.019704104    0.311         -0.19704104   
   3111000   246.25813     -5499.9968     -6250.9286     -909.99195      0.083657607    0.3111         0.83657607   
   3112000   245.43951     -5529.7756     -6278.2111     -877.15289      0.091393568    0.3112         0.91393568   
   3113000   252.16194     -5470.1605     -6239.0953      24.765952     -0.0016630479   0.3113        -0.016630479  
   3114000   243.33213     -5493.7504     -6235.7598     -1075.1127      0.1071113      0.3114         1.071113     
   3115000   255.80279     -5469.5557     -6249.5927     -527.93455      0.052778529    0.3115         0.52778529   
   3116000   245.03127     -5481.7314     -6228.9221      344.6741      -0.029452478    0.3116        -0.29452478   
   3117000   241.78779     -5520.7628     -6258.0629     -107.31577      0.010728372    0.3117         0.10728372   
   3118000   249.80493     -5449.227      -6210.9743     -798.25347      0.079823332    0.3118         0.79823332   
   3119000   253.66462     -5519.5928     -6293.1098     -331.14367      0.018777121    0.3119         0.18777121   
   3120000   244.67822     -5545.2196     -6291.3337     -729.65282      0.069942774    0.312          0.69942774   
   3121000   238.75894     -5511.6895     -6239.7536     -17.782304      0.011802368    0.3121         0.11802368   
   3122000   246.19625     -5480.798      -6231.5411     -413.97828      0.049037532    0.3122         0.49037532   
   3123000   245.57346     -5556.181      -6305.025      -3.2100593      0.0019021547   0.3123         0.019021547  
   3124000   251.51095     -5519.1909     -6286.1405      122.85071     -0.012604262    0.3124        -0.12604262   
   3125000   249.17605     -5519.8775     -6279.7071      133.02831     -0.019285518    0.3125        -0.19285518   
   3126000   241.63867     -5529.8432     -6266.6886     -292.49494      0.027736535    0.3126         0.27736535   
   3127000   243.50094     -5527.6954     -6270.2196      585.4791      -0.049827297    0.3127        -0.49827297   
   3128000   248.71419     -5531.4674     -6289.8887     -708.83436      0.058034156    0.3128         0.58034156   
   3129000   249.68026     -5526.4812     -6287.8484     -685.40076      0.075754861    0.3129         0.75754861   
   3130000   246.64049     -5494.79       -6246.8878      339.1694      -0.035573869    0.313         -0.35573869   
   3131000   232.49115     -5595.5647     -6304.516      -933.94506      0.088048456    0.3131         0.88048456   
   3132000   244.03387     -5511.1747     -6255.324       450.73357     -0.04252923     0.3132        -0.4252923    
   3133000   246.62533     -5549.6733     -6301.7248     -324.60867      0.030453699    0.3133         0.30453699   
   3134000   249.16602     -5521.3115     -6281.1105     -928.75429      0.093949676    0.3134         0.93949676   
   3135000   237.14103     -5550.2152     -6273.3456     -456.54291      0.052681069    0.3135         0.52681069   
   3136000   244.20055     -5546.6915     -6291.349      -181.31943      0.015385795    0.3136         0.15385795   
   3137000   258.38245     -5479.305      -6267.2084     -794.14567      0.069730153    0.3137         0.69730153   
   3138000   240.1832      -5560.9405     -6293.3476     -62.478072      0.0052166734   0.3138         0.052166734  
   3139000   239.66963     -5485.4096     -6216.2507      285.96522     -0.015324659    0.3139        -0.15324659   
   3140000   252.45836     -5469.861      -6239.6996     -141.50811      0.016155052    0.314          0.16155052   
   3141000   242.44079     -5437.9566     -6177.248      -591.76525      0.053222996    0.3141         0.53222996   
   3142000   251.2943      -5520.6695     -6286.9585      42.321405     -0.0041119409   0.3142        -0.041119409  
   3143000   239.54577     -5539.7075     -6270.1708     -120.98892      0.014965433    0.3143         0.14965433   
   3144000   251.16709     -5484.2025     -6250.1036     -612.57096      0.065790024    0.3144         0.65790024   
   3145000   244.04115     -5544.692      -6288.8635      29.089928      0.00027610613  0.3145         0.0027610613 
   3146000   233.17594     -5547.0249     -6258.0643     -17.127039     -0.0069657154   0.3146        -0.069657154  
   3147000   252.82223     -5490.8159     -6261.7641     -155.0304       0.013431167    0.3147         0.13431167   
   3148000   247.94822     -5530.307      -6286.3925      629.83882     -0.060203021    0.3148        -0.60203021   
   3149000   238.37631     -5584.3737     -6311.2709      1061.8503     -0.099674211    0.3149        -0.99674211   
   3150000   258.94397     -5490.2125     -6279.8281      283.22174     -0.034135104    0.315         -0.34135104   
   3151000   244.25584     -5520.4367     -6265.2628     -689.12195      0.074025949    0.3151         0.74025949   
   3152000   244.62706     -5547.4759     -6293.434       39.807863     -0.0067893706   0.3152        -0.067893706  
   3153000   247.71763     -5516.3687     -6271.7511      832.79858     -0.087160126    0.3153        -0.87160126   
   3154000   237.90425     -5570.2845     -6295.7423      394.31844     -0.044756678    0.3154        -0.44756678   
   3155000   246.42889     -5524.4201     -6275.8727      42.933392     -0.0081964283   0.3155        -0.081964283  
   3156000   242.91949     -5555.2772     -6296.0283     -190.50236      0.014710537    0.3156         0.14710537   
   3157000   246.23689     -5513.6084     -6264.4754     -128.94305      0.014286157    0.3157         0.14286157   
   3158000   253.62202     -5464.6414     -6238.0284      437.02427     -0.046171848    0.3158        -0.46171848   
   3159000   238.4918      -5568.3267     -6295.5761      214.83772     -0.021114017    0.3159        -0.21114017   
   3160000   248.47959     -5503.8485     -6261.5544     -442.68437      0.040722358    0.316          0.40722358   
   3161000   239.43752     -5507.6179     -6237.7512     -693.38677      0.061431854    0.3161         0.61431854   
   3162000   244.7462      -5563.6366     -6309.958      -861.82875      0.092261563    0.3162         0.92261563   
   3163000   244.98146     -5575.9014     -6322.9401     -496.40006      0.042067638    0.3163         0.42067638   
   3164000   241.23802     -5559.863      -6295.4867      438.94161     -0.037593206    0.3164        -0.37593206   
   3165000   234.69708     -5595.6738     -6311.3518     -757.82624      0.085992886    0.3165         0.85992886   
   3166000   251.78399     -5531.3589     -6299.1411      86.233336     -0.0062908753   0.3166        -0.062908753  
   3167000   242.13721     -5573.129      -6311.4947     -54.890974      0.010115922    0.3167         0.10115922   
   3168000   244.9088      -5575.0893     -6321.9066     -453.21252      0.041582739    0.3168         0.41582739   
   3169000   254.34262     -5481.7996     -6257.384       560.45295     -0.060118299    0.3169        -0.60118299   
   3170000   247.03824     -5547.0607     -6300.3714      797.69381     -0.074600081    0.317         -0.74600081   
   3171000   251.87918     -5545.1601     -6313.2325     -130.54643      0.010572301    0.3171         0.10572301   
   3172000   259.57248     -5505.4005     -6296.9327      785.062       -0.084731755    0.3172        -0.84731755   
   3173000   239.94357     -5514.2182     -6245.8946     -164.56695      0.019389972    0.3173         0.19389972   
   3174000   241.16638     -5565.1155     -6300.5207      31.459344     -0.012824031    0.3174        -0.12824031   
   3175000   242.44907     -5544.4912     -6283.8077     -24.308165      0.010705875    0.3175         0.10705875   
   3176000   250.12539     -5539.4418     -6302.1664     -132.76482      0.016726938    0.3176         0.16726938   
   3177000   237.90273     -5582.5553     -6308.0085      424.26198     -0.046823899    0.3177        -0.46823899   
   3178000   238.05236     -5584.4663     -6310.3757     -250.19044      0.015627756    0.3178         0.15627756   
   3179000   246.37534     -5510.62       -6261.9092      252.35453     -0.026431447    0.3179        -0.26431447   
   3180000   243.9564      -5492.7658     -6236.6788      43.440548     -0.0034051011   0.318         -0.034051011  
   3181000   240.85931     -5534.2634     -6268.7323      478.7809      -0.051877556    0.3181        -0.51877556   
   3182000   255.44597     -5458.2303     -6237.1792     -671.32371      0.07398689     0.3182         0.7398689    
   3183000   237.99298     -5582.7623     -6308.4907     -336.7023       0.028081382    0.3183         0.28081382   
   3184000   246.75056     -5530.6966     -6283.13        727.91856     -0.075699913    0.3184        -0.75699913   
   3185000   250.79479     -5508.5139     -6273.2796      74.877831     -0.0094037317   0.3185        -0.094037317  
   3186000   238.82235     -5571.9802     -6300.2376     -81.277979      0.015955639    0.3186         0.15955639   
   3187000   246.12583     -5522.5972     -6273.1256     -140.78881      0.0076290713   0.3187         0.076290713  
   3188000   239.65404     -5520.0199     -6250.8134      1491.8946     -0.14251944     0.3188        -1.4251944    
   3189000   249.88183     -5517.1811     -6279.163       19.862567     -0.0026418438   0.3189        -0.026418438  
   3190000   247.35898     -5566.2485     -6320.5372     -181.24264      0.021411086    0.319          0.21411086   
   3191000   241.08686     -5587.1445     -6322.3072     -398.38571      0.041112723    0.3191         0.41112723   
   3192000   248.05166     -5527.0643     -6283.4652      136.86938     -0.012219496    0.3192        -0.12219496   
   3193000   241.2313      -5562.7761     -6298.3793     -313.732        0.027808943    0.3193         0.27808943   
   3194000   243.23916     -5599.7329     -6341.4588      472.19481     -0.05680034     0.3194        -0.5680034    
   3195000   244.65103     -5595.6522     -6341.6834      39.0444        0.0021426669   0.3195         0.021426669  
   3196000   249.09792     -5527.986      -6287.5774     -29.500724     -0.003931418    0.3196        -0.03931418   
   3197000   245.97625     -5543.4914     -6293.5636     -417.37282      0.047132248    0.3197         0.47132248   
   3198000   241.82506     -5498.0334     -6235.4472      122.16716     -0.013725039    0.3198        -0.13725039   
   3199000   256.9251      -5534.3573     -6317.8167     -107.15761      0.018105812    0.3199         0.18105812   
   3200000   239.69776     -5566.711      -6297.6378      149.48951     -0.0085292899   0.32          -0.085292899  
Loop time of 96.4015 on 56 procs for 100000 steps with 1536 atoms

Performance: 89.625 ns/day, 0.268 hours/ns, 1037.329 timesteps/s, 1.593 Matom-step/s
99.8% CPU use with 56 MPI tasks x no OpenMP threads

MPI task timing breakdown:
Section |  min time  |  avg time  |  max time  |%varavg| %total
---------------------------------------------------------------
Pair    | 21.744     | 24.515     | 26.49      |  22.6 | 25.43
Bond    | 0.011318   | 0.014436   | 0.026469   |   2.1 |  0.01
Kspace  | 40.08      | 42.062     | 44.987     |  17.3 | 43.63
Neigh   | 1.6535     | 1.6555     | 1.6572     |   0.1 |  1.72
Comm    | 10.126     | 10.426     | 10.766     |   5.2 | 10.81
Output  | 0.076304   | 0.11951    | 0.15472    |   6.1 |  0.12
Modify  | 12.196     | 15.107     | 16.76      |  33.0 | 15.67
Other   |            | 2.502      |            |       |  2.60

Nlocal:        27.4286 ave          34 max          20 min
Histogram: 3 4 6 4 6 7 9 9 4 4
Nghost:         4162.8 ave        4220 max        4083 min
Histogram: 2 1 1 10 6 8 9 10 6 3
Neighs:        12010.7 ave       15028 max        8650 min
Histogram: 3 4 6 4 7 6 10 8 4 4

Total # of neighbors = 672598
Ave neighs/atom = 437.88932
Ave special neighs/atom = 2
Neighbor list builds = 1098
Dangerous builds = 0
kspace_style pppm/tip4p 1.0e-5
next nloop
jump SELF loop_start
run 100000 # 100ps
PPPM initialization ...
  extracting TIP4P info from pair style
  using 12-bit tables for long-range coulomb
  G vector (1/distance) = 0.33423023
  grid = 27 36 27
  stencil order = 5
  estimated absolute RMS force accuracy = 0.0024905684
  estimated relative force accuracy = 7.5002728e-06
  using double precision KISS FFT
  3d grid and FFT values/proc = 5148 540
Generated 0 of 1 mixed pair_coeff terms from geometric mixing rule
Per MPI rank memory allocation (min/avg/max) = 9.784 | 9.803 | 9.817 Mbytes
   Step          Temp          TotEng         PotEng          Pxy           v_sxy         v_strain     v_viscosity  
   3200000   239.69795     -5566.7099     -6297.6373      149.65714     -0.008546549    0.32          -0.08546549   
   3201000   245.45241     -5563.5986     -6312.0735     -190.32124      0.030206671    0.3201         0.30206671   
   3202000   235.67447     -5572.4661     -6291.1244     -1060.3903      0.11646875     0.3202         1.1646875    
   3203000   240.22337     -5590.0378     -6322.5674      0.011845364    0.0044998616   0.3203         0.044998616  
   3204000   252.85317     -5531.2461     -6302.2886     -287.0594       0.032479021    0.3204         0.32479021   
   3205000   232.58953     -5576.7526     -6286.0039     -475.81239      0.050667969    0.3205         0.50667969   
   3206000   244.20446     -5599.8583     -6344.5277      168.32354     -0.012537722    0.3206        -0.12537722   
   3207000   246.39338     -5531.7644     -6283.1086     -126.89927      0.012338202    0.3207         0.12338202   
   3208000   245.57569     -5544.7615     -6293.6123     -904.99579      0.078226752    0.3208         0.78226752   
   3209000   247.65702     -5562.6416     -6317.8392     -252.17431      0.024228741    0.3209         0.24228741   
   3210000   237.42446     -5531.9173     -6255.912      -490.10565      0.051794418    0.321          0.51794418   
   3211000   245.30634     -5533.3056     -6281.3351     -169.78694      0.016652678    0.3211         0.16652678   
   3212000   236.45894     -5595.1793     -6316.2298     -628.04025      0.056383262    0.3212         0.56383262   
   3213000   246.324       -5515.8836     -6267.0163     -24.341358      0.0031323892   0.3213         0.031323892  
   3214000   236.33053     -5508.2021     -6228.861       796.90718     -0.079204603    0.3214        -0.79204603   
   3215000   241.36983     -5563.6572     -6299.6828      516.8815      -0.054818637    0.3215        -0.54818637   
   3216000   240.0962      -5554.5749     -6286.7167     -813.5139       0.089769291    0.3216         0.89769291   
   3217000   232.49097     -5529.0432     -6237.9939     -558.6069       0.045441762    0.3217         0.45441762   
   3218000   253.52684     -5505.0368     -6278.1336      393.43299     -0.039675943    0.3218        -0.39675943   
   3219000   247.11165     -5541.1795     -6294.7141     -571.9197       0.054185419    0.3219         0.54185419   
   3220000   236.36539     -5541.7224     -6262.4876     -222.79012      0.011092329    0.322          0.11092329   
   3221000   251.50525     -5492.0824     -6259.0146     -384.94836      0.038505881    0.3221         0.38505881   
   3222000   245.73493     -5537.8935     -6287.2299      461.11102     -0.051492096    0.3222        -0.51492096   
   3223000   251.54335     -5537.2024     -6304.2508     -312.48191      0.040110385    0.3223         0.40110385   
   3224000   247.16498     -5542.6467     -6296.3438     -386.9169       0.04908744     0.3224         0.4908744    
   3225000   244.48651     -5555.7696     -6301.2991      20.435592     -0.01551747     0.3225        -0.1551747    
   3226000   247.33585     -5473.7705     -6227.9887     -568.70178      0.057672941    0.3226         0.57672941   
   3227000   248.55732     -5517.2322     -6275.1751      584.77347     -0.059543628    0.3227        -0.59543628   
   3228000   245.94066     -5524.6352     -6274.5989     -15.729768      0.0057290938   0.3228         0.057290938  
   3229000   241.53489     -5468.4009     -6204.9299      232.69956     -0.016721211    0.3229        -0.16721211   
   3230000   245.0445      -5534.9343     -6282.1653      1066.1968     -0.11493576     0.323         -1.1493576    
   3231000   241.40711     -5564.7894     -6300.9287      1147.9342     -0.11260599     0.3231        -1.1260599    
   3232000   251.80219     -5524.5313     -6292.3691      539.66986     -0.051513668    0.3232        -0.51513668   
   3233000   247.9714      -5551.195      -6307.3512     -62.980108      0.0062334037   0.3233         0.062334037  
   3234000   254.08151     -5502.6999     -6277.4881      1184.5397     -0.12390665     0.3234        -1.2390665    
   3235000   236.76553     -5613.488      -6335.4734      531.8133      -0.052703217    0.3235        -0.52703217   
   3236000   241.44693     -5582.939      -6319.1997     -502.49373      0.046845524    0.3236         0.46845524   
   3237000   248.18409     -5533.7031     -6290.5079     -261.054        0.027631817    0.3237         0.27631817   
   3238000   240.40493     -5556.2975     -6289.3807      119.65449     -0.013545236    0.3238        -0.13545236   
   3239000   244.01241     -5569.4418     -6313.5256      996.13405     -0.099804104    0.3239        -0.99804104   
   3240000   252.39416     -5490.6505     -6260.2934     -122.13435      0.0064716821   0.324          0.064716821  
   3241000   243.06711     -5555.7268     -6296.928      -547.03052      0.056411625    0.3241         0.56411625   
   3242000   245.49084     -5531.3384     -6279.9304      621.20902     -0.073174029    0.3242        -0.73174029   
   3243000   250.35595     -5553.1386     -6316.5662     -138.12324      0.0084664019   0.3243         0.084664019  
   3244000   239.86551     -5599.205      -6330.6434      452.35929     -0.044940337    0.3244        -0.44940337   
   3245000   243.91645     -5506.6515     -6250.4427      403.44005     -0.043919376    0.3245        -0.43919376   
   3246000   245.4214      -5515.5033     -6263.8837      424.558       -0.045487564    0.3246        -0.45487564   
   3247000   229.22227     -5619.1361     -6318.1194      105.24951     -0.00058374153  0.3247        -0.0058374153 
   3248000   244.02382     -5560.1306     -6304.2492     -672.77901      0.065886669    0.3248         0.65886669   
   3249000   239.48345     -5557.1761     -6287.4495      231.08573     -0.024811926    0.3249        -0.24811926   
   3250000   249.84328     -5518.317      -6280.1813      250.99339     -0.019079741    0.325         -0.19079741   
   3251000   245.20017     -5559.7923     -6307.4981     -64.980932      0.0085786124   0.3251         0.085786124  
   3252000   235.07966     -5595.3441     -6312.1887     -480.25601      0.052747617    0.3252         0.52747617   
   3253000   245.81289     -5498.6777     -6248.2518     -158.41346      0.013358409    0.3253         0.13358409   
   3254000   240.85148     -5539.326      -6273.7709      727.09843     -0.074885303    0.3254        -0.74885303   
   3255000   249.63718     -5483.56       -6244.7958     -482.74373      0.043659231    0.3255         0.43659231   
   3256000   239.02365     -5537.1583     -6266.0296      609.28801     -0.056721716    0.3256        -0.56721716   
   3257000   242.83581     -5487.6959     -6228.1918     -367.43233      0.035291832    0.3257         0.35291832   
   3258000   240.27419     -5526.6065     -6259.2911      606.06672     -0.059531502    0.3258        -0.59531502   
   3259000   245.74993     -5519.7949     -6269.1771      357.09312     -0.033055407    0.3259        -0.33055407   
   3260000   237.3084      -5476.7245     -6200.3653     -325.11592      0.033290166    0.326          0.33290166   
   3261000   253.57985     -5489.2524     -6262.5108     -152.88755      0.0099260521   0.3261         0.099260521  
   3262000   253.90372     -5484.6841     -6258.9301     -173.90198      0.0019265309   0.3262         0.019265309  
   3263000   251.84162     -5510.091      -6278.0489      294.5023      -0.036468036    0.3263        -0.36468036   
   3264000   236.89496     -5598.1259     -6320.506       253.51777     -0.016458717    0.3264        -0.16458717   
   3265000   247.54386     -5462.295      -6217.1475     -733.03878      0.071173145    0.3265         0.71173145   
   3266000   246.21022     -5468.8756     -6219.6613      102.92756     -0.01669525     0.3266        -0.1669525    
   3267000   232.52985     -5577.0493     -6286.1185      350.4688      -0.036521297    0.3267        -0.36521297   
   3268000   250.89304     -5486.1187     -6251.1841     -239.9334       0.024443135    0.3268         0.24443135   
   3269000   240.99299     -5545.3602     -6280.2367     -70.988189     -0.00069260458  0.3269        -0.0069260458 
   3270000   243.59279     -5546.499      -6289.3033      12.413027      0.0066835352   0.327          0.066835352  
   3271000   243.93343     -5561.0516     -6304.8946      279.24348     -0.026246928    0.3271        -0.26246928   
   3272000   243.45459     -5561.7139     -6304.0967     -78.044738      0.0019064398   0.3272         0.019064398  
   3273000   238.19912     -5565.1823     -6291.5393     -70.134417      0.0070922996   0.3273         0.070922996  
   3274000   245.2814      -5547.5786     -6295.532       335.38385     -0.036540503    0.3274        -0.36540503   
   3275000   252.71266     -5491.1067     -6261.7208     -510.81142      0.053368253    0.3275         0.53368253   
   3276000   244.26248     -5607.9211     -6352.7674      319.19356     -0.036483399    0.3276        -0.36483399   
   3277000   252.37646     -5500.2735     -6269.8624      191.06335     -0.020333236    0.3277        -0.20333236   
   3278000   246.04604     -5522.9888     -6273.2738      185.17835     -0.03026017     0.3278        -0.3026017    
   3279000   238.78768     -5570.8939     -6299.0455     -549.37756      0.050595429    0.3279         0.50595429   
   3280000   253.08884     -5532.0804     -6303.8416     -34.422104      0.0034630518   0.328          0.034630518  
   3281000   245.19727     -5566.6612     -6314.3581     -668.93203      0.068107855    0.3281         0.68107855   
   3282000   239.42866     -5624.027      -6354.1332      746.29396     -0.06951219     0.3282        -0.6951219    
   3283000   249.37363     -5518.0959     -6278.528       238.69011     -0.023234346    0.3283        -0.23234346   
   3284000   229.65671     -5624.6618     -6324.9698      426.29691     -0.035240898    0.3284        -0.35240898   
   3285000   250.55975     -5536.3395     -6300.3885     -11.063412      0.0016564502   0.3285         0.016564502  
   3286000   250.13746     -5533.6011     -6296.3624     -446.79994      0.026312607    0.3286         0.26312607   
   3287000   254.76689     -5534.2081     -6311.0863     -322.77198      0.043918224    0.3287         0.43918224   
   3288000   253.12664     -5540.8977     -6312.7741     -192.79718      0.017798336    0.3288         0.17798336   
   3289000   247.84383     -5506.3359     -6262.1031     -385.73723      0.028255446    0.3289         0.28255446   
   3290000   251.49016     -5519.8332     -6286.7194     -310.73661      0.038978523    0.329          0.38978523   
   3291000   250.17892     -5577.1965     -6340.0843     -428.09847      0.041528944    0.3291         0.41528944   
   3292000   247.12937     -5550.7558     -6304.3444     -138.47165      0.015739345    0.3292         0.15739345   
   3293000   244.41047     -5574.6183     -6319.9159     -708.92057      0.079680131    0.3293         0.79680131   
   3294000   241.79699     -5590.5464     -6327.8746     -167.9174       0.028215338    0.3294         0.28215338   
   3295000   242.78651     -5558.5854     -6298.9309     -304.6201       0.045475538    0.3295         0.45475538   
   3296000   253.22322     -5533.2767     -6305.4477     -175.1159       0.019199138    0.3296         0.19199138   
   3297000   265.02256     -5472.8473     -6280.9987     -245.90131      0.020942889    0.3297         0.20942889   
   3298000   231.90813     -5553.2555     -6260.4289     -71.301007      0.0027933638   0.3298         0.027933638  
   3299000   237.72897     -5560.4527     -6285.376      -421.39929      0.041809915    0.3299         0.41809915   
   3300000   255.95074     -5538.4903     -6318.9785      267.54948     -0.021272311    0.33          -0.21272311   
Loop time of 96.4845 on 56 procs for 100000 steps with 1536 atoms

Performance: 89.548 ns/day, 0.268 hours/ns, 1036.435 timesteps/s, 1.592 Matom-step/s
99.8% CPU use with 56 MPI tasks x no OpenMP threads

MPI task timing breakdown:
Section |  min time  |  avg time  |  max time  |%varavg| %total
---------------------------------------------------------------
Pair    | 20.585     | 24.499     | 27.06      |  25.4 | 25.39
Bond    | 0.011296   | 0.014455   | 0.025133   |   2.0 |  0.01
Kspace  | 39.698     | 42.085     | 45.664     |  18.2 | 43.62
Neigh   | 1.6253     | 1.627      | 1.6282     |   0.1 |  1.69
Comm    | 10.197     | 10.462     | 10.783     |   5.3 | 10.84
Output  | 0.076499   | 0.12002    | 0.15537    |   6.1 |  0.12
Modify  | 12.226     | 15.101     | 16.699     |  32.9 | 15.65
Other   |            | 2.576      |            |       |  2.67

Nlocal:        27.4286 ave          35 max          21 min
Histogram: 5 1 7 8 4 16 6 7 1 1
Nghost:        4181.86 ave        4238 max        4137 min
Histogram: 6 6 4 11 9 4 7 1 5 3
Neighs:        12007.3 ave       15484 max        9171 min
Histogram: 5 1 7 8 16 4 10 3 1 1

Total # of neighbors = 672407
Ave neighs/atom = 437.76497
Ave special neighs/atom = 2
Neighbor list builds = 1080
Dangerous builds = 0
kspace_style pppm/tip4p 1.0e-5
next nloop
jump SELF loop_start
run 100000 # 100ps
PPPM initialization ...
  extracting TIP4P info from pair style
  using 12-bit tables for long-range coulomb
  G vector (1/distance) = 0.33400135
  grid = 27 36 27
  stencil order = 5
  estimated absolute RMS force accuracy = 0.0025251796
  estimated relative force accuracy = 7.6045034e-06
  using double precision KISS FFT
  3d grid and FFT values/proc = 5148 540
Generated 0 of 1 mixed pair_coeff terms from geometric mixing rule
Per MPI rank memory allocation (min/avg/max) = 9.784 | 9.804 | 9.817 Mbytes
   Step          Temp          TotEng         PotEng          Pxy           v_sxy         v_strain     v_viscosity  
   3300000   255.95069     -5538.4903     -6318.9783      267.76543     -0.021294732    0.33          -0.21294732   
   3301000   247.58841     -5531.0622     -6286.0505      23.862326     -0.012427238    0.3301        -0.12427238   
   3302000   246.2608      -5545.9966     -6296.9366     -476.60314      0.053313933    0.3302         0.53313933   
   3303000   246.77838     -5539.7677     -6292.286       341.45456     -0.035669711    0.3303        -0.35669711   
   3304000   251.62722     -5488.1838     -6255.488       218.34923     -0.02552483     0.3304        -0.2552483    
   3305000   241.88408     -5512.3671     -6249.9608      470.11658     -0.057766624    0.3305        -0.57766624   
   3306000   242.67425     -5516.0062     -6256.0094      289.02052     -0.020842255    0.3306        -0.20842255   
   3307000   245.1441      -5550.1906     -6297.7254     -245.28685      0.024746736    0.3307         0.24746736   
   3308000   250.01919     -5505.9364     -6268.3371      282.16314     -0.026885305    0.3308        -0.26885305   
   3309000   242.01348     -5504.0826     -6242.071      -1060.5541      0.10691349     0.3309         1.0691349    
   3310000   236.43264     -5552.1452     -6273.1154      845.84889     -0.082653577    0.331         -0.82653577   
   3311000   249.00776     -5500.2689     -6259.5853      337.59845     -0.03675973     0.3311        -0.3675973    
   3312000   244.70676     -5519.9777     -6266.1788     -56.762347     -0.001488098    0.3312        -0.01488098   
   3313000   253.26417     -5509.5026     -6281.7985      611.00718     -0.062959451    0.3313        -0.62959451   
   3314000   239.19129     -5575.3438     -6304.7262      584.02659     -0.051228566    0.3314        -0.51228566   
   3315000   242.89631     -5484.6306     -6225.311       1053.824      -0.099475112    0.3315        -0.99475112   
   3316000   247.14966     -5506.7158     -6260.3663      226.57258     -0.020998654    0.3316        -0.20998654   
   3317000   252.45628     -5514.1664     -6283.9986      222.31058     -0.013479646    0.3317        -0.13479646   
   3318000   244.00339     -5521.3497     -6265.406       488.25884     -0.054724278    0.3318        -0.54724278   
   3319000   246.47183     -5525.9971     -6277.5806     -258.69686      0.027016314    0.3319         0.27016314   
   3320000   255.35424     -5537.1209     -6315.7901      406.45873     -0.045636648    0.332         -0.45636648   
   3321000   254.05444     -5487.0803     -6261.7859     -482.94555      0.047331462    0.3321         0.47331462   
   3322000   240.3114      -5558.2781     -6291.0762     -739.99507      0.074500258    0.3322         0.74500258   
   3323000   253.72307     -5480.5271     -6254.2223      125.40414     -0.0085150692   0.3323        -0.085150692  
   3324000   240.96793     -5551.294      -6286.0941      318.21567     -0.032531616    0.3324        -0.32531616   
   3325000   245.95543     -5579.2126     -6329.2214      520.33243     -0.055526819    0.3325        -0.55526819   
   3326000   257.73437     -5490.9165     -6276.8436      77.885595     -0.016117075    0.3326        -0.16117075   
   3327000   249.00398     -5542.4373     -6301.7423      323.30858     -0.02804085     0.3327        -0.2804085    
   3328000   251.50172     -5452.886      -6219.8075      437.20444     -0.036365698    0.3328        -0.36365698   
   3329000   251.63783     -5496.571      -6263.9075     -400.22151      0.037803905    0.3329         0.37803905   
   3330000   240.01996     -5546.5087     -6278.418      -7.3590162      0.0012085212   0.333          0.012085212  
   3331000   251.56104     -5454.9411     -6222.0434      392.88976     -0.045480167    0.3331        -0.45480167   
   3332000   249.18092     -5523.4719     -6283.3163      890.84154     -0.081874189    0.3332        -0.81874189   
   3333000   239.46714     -5543.1323     -6273.3559      658.03979     -0.062332572    0.3333        -0.62332572   
   3334000   240.34091     -5550.7703     -6283.6583      457.47035     -0.032884539    0.3334        -0.32884539   
   3335000   257.60736     -5518.1331     -6303.6729      593.38099     -0.068924326    0.3335        -0.68924326   
   3336000   248.82523     -5580.6994     -6339.4592     -931.19383      0.10033465     0.3336         1.0033465    
   3337000   255.37055     -5569.4429     -6348.1619     -462.00746      0.051394316    0.3337         0.51394316   
   3338000   244.65333     -5525.2625     -6271.3007      197.26879     -0.023684002    0.3338        -0.23684002   
   3339000   243.83873     -5503.5925     -6247.1467      192.05477     -0.016803119    0.3339        -0.16803119   
   3340000   245.03278     -5586.6137     -6333.809      -1095.5315      0.1153226      0.334          1.153226     
   3341000   239.10567     -5570.5641     -6299.6855     -200.08493      0.010153226    0.3341         0.10153226   
   3342000   252.27744     -5582.6042     -6351.8912     -456.66574      0.045589763    0.3342         0.45589763   
   3343000   250.42385     -5508.0963     -6271.7309      929.19373     -0.096394301    0.3343        -0.96394301   
   3344000   241.76519     -5560.1031     -6297.3343     -151.03078      0.0093126087   0.3344         0.093126087  
   3345000   242.74072     -5525.367      -6265.573      -83.875881      0.011210368    0.3345         0.11210368   
   3346000   251.14221     -5486.2102     -6252.0354      185.00699     -0.015611262    0.3346        -0.15611262   
   3347000   240.63544     -5548.7567     -6282.5429     -943.03725      0.085604551    0.3347         0.85604551   
   3348000   251.07929     -5489.4129     -6255.0462     -171.75614      0.026798235    0.3348         0.26798235   
   3349000   237.77297     -5529.3903     -6254.4477     -879.72305      0.083269088    0.3349         0.83269088   
   3350000   247.21262     -5511.8887     -6265.7311      653.61649     -0.054554238    0.335         -0.54554238   
   3351000   236.27151     -5580.2484     -6300.7273     -148.79728      0.010342102    0.3351         0.10342102   
   3352000   241.39512     -5484.7141     -6220.8168      1234.0628     -0.12062625     0.3352        -1.2062625    
   3353000   249.74092     -5548.1028     -6309.655       654.35293     -0.076792771    0.3353        -0.76792771   
   3354000   252.1502      -5512.1447     -6281.0436      68.078211      0.0044782216   0.3354         0.044782216  
   3355000   239.48141     -5578.8215     -6309.0886      287.07749     -0.025641187    0.3355        -0.25641187   
   3356000   243.71548     -5505.4219     -6248.6003      829.60507     -0.083186763    0.3356        -0.83186763   
   3357000   237.75664     -5583.6457     -6308.6533     -94.417945      0.0033060271   0.3357         0.033060271  
   3358000   256.4392      -5516.2585     -6298.2361      491.40901     -0.049791957    0.3358        -0.49791957   
   3359000   238.55678     -5517.6742     -6245.1217      767.10969     -0.071552596    0.3359        -0.71552596   
   3360000   245.27732     -5554.5462     -6302.4872      456.29125     -0.0467327      0.336         -0.467327     
   3361000   248.48454     -5555.2748     -6312.9958     -744.88802      0.07586819     0.3361         0.7586819    
   3362000   248.76877     -5520.4912     -6279.0789      801.65666     -0.085635142    0.3362        -0.85635142   
   3363000   252.06434     -5553.9501     -6322.5872     -297.9559       0.034054796    0.3363         0.34054796   
   3364000   239.31923     -5546.1009     -6275.8735      469.22383     -0.049053322    0.3364        -0.49053322   
   3365000   244.7966      -5566.2256     -6312.7007      507.66269     -0.053933381    0.3365        -0.53933381   
   3366000   245.63059     -5582.772      -6331.7902      45.859227     -0.016644844    0.3366        -0.16644844   
   3367000   249.59541     -5549.2472     -6310.3556     -842.13692      0.074010201    0.3367         0.74010201   
   3368000   250.38632     -5569.3755     -6332.8957     -185.8522       0.026713742    0.3368         0.26713742   
   3369000   257.24698     -5544.8909     -6329.3318      746.64225     -0.064140004    0.3369        -0.64140004   
   3370000   252.96938     -5544.1158     -6315.5127     -23.555286     -0.00092055582  0.337         -0.0092055582 
   3371000   248.85401     -5557.7713     -6316.6189     -704.34397      0.074078528    0.3371         0.74078528   
   3372000   252.69304     -5504.8565     -6275.4108      250.37569     -0.024852568    0.3372        -0.24852568   
   3373000   238.04087     -5616.0644     -6341.9387      543.07255     -0.056278764    0.3373        -0.56278764   
   3374000   254.0701      -5494.7491     -6269.5025      232.7662      -0.016948806    0.3374        -0.16948806   
   3375000   247.24619     -5547.7873     -6301.7321      479.2914      -0.047680634    0.3375        -0.47680634   
   3376000   247.34568     -5569.8588     -6324.107      -40.485631      0.0044710635   0.3376         0.044710635  
   3377000   245.41007     -5502.5079     -6250.8537     -408.44322      0.041123056    0.3377         0.41123056   
   3378000   239.67896     -5549.9697     -6280.8393      373.49955     -0.042326904    0.3378        -0.42326904   
   3379000   251.63299     -5512.5564     -6279.8781     -156.58679      0.015276723    0.3379         0.15276723   
   3380000   251.12631     -5525.5735     -6291.3502     -433.13001      0.039229033    0.338          0.39229033   
   3381000   241.57147     -5528.7971     -6265.4376     -831.36133      0.088430426    0.3381         0.88430426   
   3382000   242.63355     -5539.691      -6279.5702     -122.95349      0.0096430833   0.3382         0.096430833  
   3383000   252.73682     -5488.2259     -6258.9136     -46.191348      0.0069208153   0.3383         0.069208153  
   3384000   234.89948     -5585.7113     -6302.0065     -174.39105      0.011272689    0.3384         0.11272689   
   3385000   246.98534     -5550.2567     -6303.4061      54.432838      0.0019316032   0.3385         0.019316032  
   3386000   246.55861     -5491.7889     -6243.637      -516.58562      0.057320004    0.3386         0.57320004   
   3387000   244.20761     -5522.6593     -6267.3383     -370.86771      0.038225402    0.3387         0.38225402   
   3388000   240.09778     -5544.8568     -6277.0035     -292.2952       0.029008364    0.3388         0.29008364   
   3389000   251.14629     -5513.7557     -6279.5934     -142.1932       0.01663336     0.3389         0.1663336    
   3390000   242.44503     -5460.9902     -6200.2945     -0.85694404     0.0029814223   0.339          0.029814223  
   3391000   249.53597     -5509.8488     -6270.776       446.50282     -0.035100991    0.3391        -0.35100991   
   3392000   246.86515     -5552.0679     -6304.8507      290.32749     -0.017506216    0.3392        -0.17506216   
   3393000   249.15733     -5501.5627     -6261.3353      118.31463     -0.011649346    0.3393        -0.11649346   
   3394000   240.34982     -5558.8759     -6291.7911      171.45072     -0.011010232    0.3394        -0.11010232   
   3395000   253.02341     -5473.5831     -6245.1448     -409.17475      0.02971933     0.3395         0.2971933    
   3396000   248.66423     -5513.7542     -6272.0232      943.1317      -0.091417196    0.3396        -0.91417196   
   3397000   242.9895      -5560.4192     -6301.3838      386.13643     -0.03706254     0.3397        -0.3706254    
   3398000   247.83667     -5448.7811     -6204.5265     -417.30137      0.041726584    0.3398         0.41726584   
   3399000   252.74812     -5496.3022     -6267.0244      457.86862     -0.038578587    0.3399        -0.38578587   
   3400000   233.26795     -5637.1648     -6348.4847      984.24565     -0.09370351     0.34          -0.9370351    
Loop time of 96.8364 on 56 procs for 100000 steps with 1536 atoms

Performance: 89.223 ns/day, 0.269 hours/ns, 1032.670 timesteps/s, 1.586 Matom-step/s
99.7% CPU use with 56 MPI tasks x no OpenMP threads

MPI task timing breakdown:
Section |  min time  |  avg time  |  max time  |%varavg| %total
---------------------------------------------------------------
Pair    | 21.712     | 24.506     | 26.642     |  23.1 | 25.31
Bond    | 0.011472   | 0.014423   | 0.023403   |   1.8 |  0.01
Kspace  | 40.07      | 42.075     | 44.918     |  17.4 | 43.45
Neigh   | 1.6668     | 1.669      | 1.6708     |   0.1 |  1.72
Comm    | 10.271     | 10.525     | 10.82      |   4.6 | 10.87
Output  | 0.076464   | 0.29702    | 0.36671    |  17.1 |  0.31
Modify  | 12.29      | 15.169     | 16.785     |  32.9 | 15.66
Other   |            | 2.581      |            |       |  2.67

Nlocal:        27.4286 ave          35 max          21 min
Histogram: 5 2 11 8 5 5 5 12 2 1
Nghost:        4207.09 ave        4258 max        4148 min
Histogram: 3 3 5 4 10 6 7 5 10 3
Neighs:        12012.2 ave       15332 max        9186 min
Histogram: 5 3 10 8 8 2 5 12 2 1

Total # of neighbors = 672685
Ave neighs/atom = 437.94596
Ave special neighs/atom = 2
Neighbor list builds = 1101
Dangerous builds = 0
kspace_style pppm/tip4p 1.0e-5
next nloop
jump SELF loop_start
run 100000 # 100ps
PPPM initialization ...
  extracting TIP4P info from pair style
  using 12-bit tables for long-range coulomb
  G vector (1/distance) = 0.33375054
  grid = 27 36 27
  stencil order = 5
  estimated absolute RMS force accuracy = 0.0025636324
  estimated relative force accuracy = 7.7203027e-06
  using double precision KISS FFT
  3d grid and FFT values/proc = 5148 540
Generated 0 of 1 mixed pair_coeff terms from geometric mixing rule
Per MPI rank memory allocation (min/avg/max) = 9.784 | 9.804 | 9.817 Mbytes
   Step          Temp          TotEng         PotEng          Pxy           v_sxy         v_strain     v_viscosity  
   3400000   233.26794     -5637.1645     -6348.4844      984.49637     -0.093728937    0.34          -0.93728937   
   3401000   246.40752     -5507.0435     -6258.4308     -97.84602       0.0029380523   0.3401         0.029380523  
   3402000   235.57648     -5613.6402     -6331.9998      574.36754     -0.055346781    0.3402        -0.55346781   
   3403000   255.16265     -5527.1627     -6305.2477      443.18476     -0.047012299    0.3403        -0.47012299   
   3404000   243.16918     -5540.0634     -6281.5759      134.9351      -0.015427139    0.3404        -0.15427139   
   3405000   243.81896     -5550.0052     -6293.499      -220.71745      0.019883897    0.3405         0.19883897   
   3406000   238.65548     -5571.5329     -6299.2815      640.32754     -0.068398177    0.3406        -0.68398177   
   3407000   239.47047     -5579.6312     -6309.865      -208.97439      0.017098357    0.3407         0.17098357   
   3408000   238.49389     -5575.0991     -6302.355      -554.31634      0.043914588    0.3408         0.43914588   
   3409000   248.55654     -5524.9061     -6282.8466     -102.58189      0.010667345    0.3409         0.10667345   
   3410000   255.28804     -5579.3152     -6357.7825      514.72455     -0.046080938    0.341         -0.46080938   
   3411000   243.60403     -5574.4479     -6317.2864      541.20835     -0.049683525    0.3411        -0.49683525   
   3412000   251.55205     -5547.0595     -6314.1344      50.926837     -0.0057749332   0.3412        -0.057749332  
   3413000   239.80354     -5556.4669     -6287.7164     -745.83383      0.070313997    0.3413         0.70313997   
   3414000   248.45308     -5504.4693     -6262.0943      474.95994     -0.05478014     0.3414        -0.5478014    
   3415000   245.78307     -5574.8744     -6324.3576      886.39987     -0.08380818     0.3415        -0.8380818    
   3416000   245.20949     -5529.6268     -6277.3609     -310.59944      0.041054197    0.3416         0.41054197   
   3417000   256.33384     -5509.1173     -6290.7737      49.472792     -0.0070191484   0.3417        -0.070191484  
   3418000   245.72032     -5530.7886     -6280.0805     -122.9314       0.011888856    0.3418         0.11888856   
   3419000   246.69867     -5566.3759     -6318.6511      285.88688     -0.025387222    0.3419        -0.25387222   
   3420000   259.70615     -5501.1853     -6293.1251      298.47081     -0.031925131    0.342         -0.31925131   
   3421000   243.98474     -5531.8093     -6275.8087     -327.34614      0.033581868    0.3421         0.33581868   
   3422000   231.6316      -5596.5805     -6302.9107      316.98032     -0.037183589    0.3422        -0.37183589   
   3423000   253.186       -5552.0654     -6324.1229      951.08686     -0.093889396    0.3423        -0.93889396   
   3424000   245.20407     -5564.2982     -6312.0158      414.46709     -0.031736302    0.3424        -0.31736302   
   3425000   241.48941     -5569.095      -6305.4852     -216.21418      0.01831552     0.3425         0.1831552    
   3426000   245.70312     -5542.4686     -6291.708       516.43691     -0.04881749     0.3426        -0.4881749    
   3427000   238.51122     -5509.723      -6237.0316      431.16891     -0.045897984    0.3427        -0.45897984   
   3428000   240.13488     -5543.7103     -6275.9701      855.73134     -0.090185234    0.3428        -0.90185234   
   3429000   253.37991     -5521.961      -6294.6097      525.13496     -0.04626526     0.3429        -0.4626526    
   3430000   247.3179      -5506.282      -6260.4455      27.160895     -0.012419164    0.343         -0.12419164   
   3431000   250.47284     -5468.419      -6232.203      -284.34145      0.021551346    0.3431         0.21551346   
   3432000   236.67594     -5528.6455     -6250.3577      615.83135     -0.058568132    0.3432        -0.58568132   
   3433000   248.14455     -5482.5596     -6239.2438      434.70437     -0.045152417    0.3433        -0.45152417   
   3434000   246.75348     -5530.1348     -6282.5771      436.07328     -0.039127035    0.3434        -0.39127035   
   3435000   247.63396     -5508.575      -6263.7022      37.456819     -0.004189128    0.3435        -0.04189128   
   3436000   234.36903     -5525.9192     -6240.5967     -493.14505      0.04978399     0.3436         0.4978399    
   3437000   246.77261     -5563.354      -6315.8546     -218.22901      0.014218655    0.3437         0.14218655   
   3438000   251.80574     -5506.0599     -6273.9084     -121.94371      0.014113871    0.3438         0.14113871   
   3439000   254.43608     -5514.9188     -6290.7882      644.13918     -0.066662556    0.3439        -0.66662556   
   3440000   242.01742     -5545.1543     -6283.1546     -301.07793      0.034359784    0.344          0.34359784   
   3441000   252.28605     -5469.2752     -6238.5884      242.57086     -0.025496221    0.3441        -0.25496221   
   3442000   231.35351     -5592.8188     -6298.3009     -36.762388      0.014728243    0.3442         0.14728243   
   3443000   255.42915     -5437.7534     -6216.651       73.990035     -0.0097936221   0.3443        -0.097936221  
   3444000   238.46412     -5574.5174     -6301.6825     -255.40945      0.030276678    0.3444         0.30276678   
   3445000   240.67273     -5544.8772     -6278.777      -222.42048      0.016392333    0.3445         0.16392333   
   3446000   257.0086      -5459.6512     -6243.3652     -1297.3807      0.13038515     0.3446         1.3038515    
   3447000   243.74517     -5542.1917     -6285.4606      51.19073      -0.0035021468   0.3447        -0.035021468  
   3448000   243.41691     -5554.4881     -6296.756       1136.3237     -0.10837753     0.3448        -1.0837753    
   3449000   251.09551     -5523.3479     -6289.0306     -915.17273      0.1028179      0.3449         1.028179     
   3450000   237.54601     -5577.7388     -6302.1042     -124.42014      0.014053       0.345          0.14053      
   3451000   254.40398     -5509.6404     -6285.412       664.17708     -0.070991441    0.3451        -0.70991441   
   3452000   250.82635     -5563.9557     -6328.8177      145.94109     -0.019182319    0.3452        -0.19182319   
   3453000   240.05169     -5544.7156     -6276.7217      533.34919     -0.050703274    0.3453        -0.50703274   
   3454000   247.8742      -5518.6877     -6274.5475     -347.08945      0.038185958    0.3454         0.38185958   
   3455000   232.57183     -5581.1585     -6290.3557      175.19973     -0.026998244    0.3455        -0.26998244   
   3456000   258.09833     -5518.5753     -6305.6122     -813.17518      0.081947078    0.3456         0.81947078   
   3457000   248.90715     -5541.7805     -6300.7901      193.73983     -0.021630644    0.3457        -0.21630644   
   3458000   240.78085     -5569.7493     -6303.9789     -404.58028      0.04471366     0.3458         0.4471366    
   3459000   247.09826     -5523.2334     -6276.7271     -178.92511      0.014120877    0.3459         0.14120877   
   3460000   241.45164     -5579.2186     -6315.4937     -21.729591     -0.0070509658   0.346         -0.070509658  
   3461000   248.99425     -5511.4459     -6270.7212      499.88804     -0.044418999    0.3461        -0.44418999   
   3462000   247.91655     -5522.119      -6278.108      -440.58536      0.040902989    0.3462         0.40902989   
   3463000   245.97205     -5490.6072     -6240.6667     -1008.7403      0.10167527     0.3463         1.0167527    
   3464000   238.85854     -5544.4819     -6272.8496     -460.71864      0.045560915    0.3464         0.45560915   
   3465000   250.43728     -5519.3554     -6283.031       331.85418     -0.022349609    0.3465        -0.22349609   
   3466000   252.73572     -5479.2451     -6249.9295      1317.9639     -0.13239322     0.3466        -1.3239322    
   3467000   243.70651     -5528.2569     -6271.4079     -48.77354       0.0011347929   0.3467         0.011347929  
   3468000   240.68096     -5559.8241     -6293.7491     -257.88269      0.016553157    0.3468         0.16553157   
   3469000   251.8766      -5489.8361     -6257.9007     -79.061963      0.0032466906   0.3469         0.032466906  
   3470000   243.78573     -5532.9686     -6276.3611      135.8428      -0.01113668     0.347         -0.1113668    
   3471000   244.78695     -5595.0894     -6341.5351      941.37252     -0.089795428    0.3471        -0.89795428   
   3472000   229.61952     -5565.0765     -6265.271      -57.880539      0.0049515455   0.3472         0.049515455  
   3473000   244.52119     -5492.5422     -6238.1775      955.40606     -0.097865721    0.3473        -0.97865721   
   3474000   244.11909     -5505.0276     -6249.4367     -727.63268      0.080735325    0.3474         0.80735325   
   3475000   245.50319     -5567.2071     -6315.8368      709.19473     -0.073986792    0.3475        -0.73986792   
   3476000   247.19718     -5540.6029     -6294.3982      1269.0591     -0.12029687     0.3476        -1.2029687    
   3477000   252.66142     -5493.1639     -6263.6217     -154.06678      0.018553057    0.3477         0.18553057   
   3478000   249.56243     -5549.0909     -6310.0987     -182.92549      0.013121536    0.3478         0.13121536   
   3479000   245.20592     -5509.7083     -6257.4315     -785.62253      0.082466039    0.3479         0.82466039   
   3480000   248.99314     -5529.6967     -6288.9686     -209.75505      0.021778168    0.348          0.21778168   
   3481000   236.44844     -5567.0178     -6288.0363      52.048319     -0.004910555    0.3481        -0.04910555   
   3482000   249.13549     -5441.3697     -6201.0756     -233.05574      0.015883053    0.3482         0.15883053   
   3483000   239.03333     -5522.637      -6251.5377     -395.36059      0.032923208    0.3483         0.32923208   
   3484000   244.15094     -5493.4485     -6237.9547      371.20165     -0.048049071    0.3484        -0.48049071   
   3485000   239.73855     -5550.391      -6281.4422      240.97611     -0.015513681    0.3485        -0.15513681   
   3486000   250.81386     -5416.8588     -6181.6828     -466.00769      0.045027433    0.3486         0.45027433   
   3487000   242.30155     -5509.8219     -6248.6887     -76.908006      3.2928526e-05  0.3487         0.00032928526
   3488000   235.47046     -5537.025      -6255.0613     -124.57433      0.017589703    0.3488         0.17589703   
   3489000   252.96983     -5497.7335     -6269.1317      958.33131     -0.10162732     0.3489        -1.0162732    
   3490000   245.47999     -5554.7367     -6303.2956      208.90295     -0.023235063    0.349         -0.23235063   
   3491000   257.14862     -5458.1042     -6242.2451      390.80235     -0.028877371    0.3491        -0.28877371   
   3492000   243.8255      -5512.1375     -6255.6514      1225.7099     -0.11878471     0.3492        -1.1878471    
   3493000   243.43298     -5510.6146     -6252.9315     -540.73921      0.058978274    0.3493         0.58978274   
   3494000   236.43361     -5504.8005     -6225.7737      173.94747     -0.020788312    0.3494        -0.20788312   
   3495000   250.61255     -5537.6018     -6301.8118      75.291851     -0.020325493    0.3495        -0.20325493   
   3496000   255.57101     -5467.7306     -6247.0608     -427.22219      0.036902091    0.3496         0.36902091   
   3497000   243.78227     -5568.1918     -6311.5738      529.32315     -0.064254198    0.3497        -0.64254198   
   3498000   247.06263     -5611.5796     -6364.9647      187.46925     -0.02634794     0.3498        -0.2634794    
   3499000   250.60554     -5519.4927     -6283.6814     -31.987632     -0.0040629605   0.3499        -0.040629605  
   3500000   240.81372     -5619.7568     -6354.0866      24.925667     -0.0011594636   0.35          -0.011594636  
Loop time of 96.4936 on 56 procs for 100000 steps with 1536 atoms

Performance: 89.540 ns/day, 0.268 hours/ns, 1036.338 timesteps/s, 1.592 Matom-step/s
99.8% CPU use with 56 MPI tasks x no OpenMP threads

MPI task timing breakdown:
Section |  min time  |  avg time  |  max time  |%varavg| %total
---------------------------------------------------------------
Pair    | 22.528     | 24.432     | 26.407     |  19.5 | 25.32
Bond    | 0.011343   | 0.014396   | 0.023592   |   1.9 |  0.01
Kspace  | 39.838     | 42.039     | 44.1       |  14.9 | 43.57
Neigh   | 1.6625     | 1.6637     | 1.6649     |   0.1 |  1.72
Comm    | 10.297     | 10.521     | 10.766     |   4.0 | 10.90
Output  | 0.11451    | 0.15822    | 0.19391    |   5.4 |  0.16
Modify  | 12.236     | 15.137     | 16.74      |  32.9 | 15.69
Other   |            | 2.529      |            |       |  2.62

Nlocal:        27.4286 ave          35 max          20 min
Histogram: 3 3 6 5 13 5 8 5 6 2
Nghost:        4224.88 ave        4296 max        4160 min
Histogram: 2 2 8 13 8 7 8 0 5 3
Neighs:        12016.9 ave       15315 max        8741 min
Histogram: 3 4 5 8 10 7 6 5 6 2

Total # of neighbors = 672946
Ave neighs/atom = 438.11589
Ave special neighs/atom = 2
Neighbor list builds = 1092
Dangerous builds = 0
kspace_style pppm/tip4p 1.0e-5
next nloop
jump SELF loop_start
run 100000 # 100ps
PPPM initialization ...
  extracting TIP4P info from pair style
  using 12-bit tables for long-range coulomb
  G vector (1/distance) = 0.33347625
  grid = 27 36 27
  stencil order = 5
  estimated absolute RMS force accuracy = 0.0026063213
  estimated relative force accuracy = 7.8488591e-06
  using double precision KISS FFT
  3d grid and FFT values/proc = 5148 540
Generated 0 of 1 mixed pair_coeff terms from geometric mixing rule
Per MPI rank memory allocation (min/avg/max) = 9.785 | 9.804 | 9.818 Mbytes
   Step          Temp          TotEng         PotEng          Pxy           v_sxy         v_strain     v_viscosity  
   3500000   240.81358     -5619.7572     -6354.0866      25.110873     -0.0011782635   0.35          -0.011782635  
   3501000   248.68904     -5543.1198     -6301.4644     -271.469        0.021094915    0.3501         0.21094915   
   3502000   235.37285     -5579.5122     -6297.2507      392.95773     -0.034388745    0.3502        -0.34388745   
   3503000   251.13331     -5546.4257     -6312.2237     -564.26221      0.064620706    0.3503         0.64620706   
   3504000   253.61368     -5475.3711     -6248.7327      6.1931282     -0.0099615057   0.3504        -0.099615057  
   3505000   239.4218      -5516.8854     -6246.9707      153.83982     -0.015661324    0.3505        -0.15661324   
   3506000   247.25608     -5534.6009     -6288.5759     -1042.2091      0.10459095     0.3506         1.0459095    
   3507000   235.55148     -5548.8502     -6267.1335     -137.96224      0.0064914802   0.3507         0.064914802  
   3508000   243.45245     -5540.3181     -6282.6944     -119.09737      0.015048913    0.3508         0.15048913   
   3509000   244.14115     -5589.416      -6333.8924      362.18756     -0.034348034    0.3509        -0.34348034   
   3510000   238.69709     -5563.9143     -6291.7897     -881.29567      0.090602674    0.351          0.90602674   
   3511000   250.46632     -5561.7445     -6325.5086     -17.366465      0.011886431    0.3511         0.11886431   
   3512000   243.13866     -5588.3436     -6329.763       482.62514     -0.05426041     0.3512        -0.5426041    
   3513000   238.94865     -5607.0758     -6335.7183     -871.87872      0.084172927    0.3513         0.84172927   
   3514000   248.13501     -5501.2804     -6257.9356     -519.56961      0.04911152     0.3514         0.4911152    
   3515000   242.51202     -5569.8916     -6309.4001     -99.509447      0.0087650362   0.3515         0.087650362  
   3516000   264.38984     -5487.6728     -6293.8949      138.13362     -0.01071589     0.3516        -0.1071589    
   3517000   244.0498      -5549.4228     -6293.6206      353.03303     -0.036908298    0.3517        -0.36908298   
   3518000   244.62312     -5570.3817     -6316.3278      284.02289     -0.026535788    0.3518        -0.26535788   
   3519000   249.13948     -5579.8051     -6339.5232      736.04583     -0.065607386    0.3519        -0.65607386   
   3520000   245.78216     -5570.616      -6320.0964     -634.44462      0.053761658    0.352          0.53761658   
   3521000   237.78264     -5600.5261     -6325.6131      532.78416     -0.048691671    0.3521        -0.48691671   
   3522000   247.5731      -5525.5804     -6280.5221      387.19558     -0.048820717    0.3522        -0.48820717   
   3523000   248.8775      -5602.8001     -6361.7193     -349.57253      0.033416752    0.3523         0.33416752   
   3524000   238.78388     -5584.2596     -6312.3997     -157.69284      0.015652351    0.3524         0.15652351   
   3525000   251.88789     -5548.361      -6316.4601      118.3078      -0.017318863    0.3525        -0.17318863   
   3526000   236.88764     -5615.7143     -6338.0721     -221.60681      0.011887042    0.3526         0.11887042   
   3527000   245.56351     -5604.0966     -6352.9103     -1.8544788      0.00055838477  0.3527         0.0055838477 
   3528000   245.65731     -5551.299      -6300.3987      210.24349     -0.023166392    0.3528        -0.23166392   
   3529000   256.046       -5546.6403     -6327.419       1199.1635     -0.12309345     0.3529        -1.2309345    
   3530000   240.76432     -5623.3919     -6357.5711      236.34991     -0.023414946    0.353         -0.23414946   
   3531000   244.7226      -5579.3542     -6325.6036     -229.29741      0.019043749    0.3531         0.19043749   
   3532000   254.49092     -5550.5022     -6326.5388      309.71433     -0.031036577    0.3532        -0.31036577   
   3533000   239.20416     -5636.1774     -6365.5991      415.66718     -0.037611056    0.3533        -0.37611056   
   3534000   256.65233     -5577.4391     -6360.0667      862.75992     -0.090589678    0.3534        -0.90589678   
   3535000   248.25183     -5600.7003     -6357.7117     -279.20279      0.019690454    0.3535         0.19690454   
   3536000   237.85857     -5648.2337     -6373.5521      62.49854      -0.012273336    0.3536        -0.12273336   
   3537000   254.46092     -5557.2651     -6333.2103      461.76623     -0.039528324    0.3537        -0.39528324   
   3538000   242.81315     -5611.6397     -6352.0665     -161.63513      0.019323902    0.3538         0.19323902   
   3539000   246.12234     -5552.6704     -6303.1881      161.74037     -0.020432967    0.3539        -0.20432967   
   3540000   255.98938     -5575.2384     -6355.8443      92.845469     -0.0033317622   0.354         -0.033317622  
   3541000   249.39274     -5604.123      -6364.6134     -148.69489     -0.003229729    0.3541        -0.03229729   
   3542000   251.67668     -5573.1767     -6340.6317      932.20155     -0.11087947     0.3542        -1.1087947    
   3543000   237.54588     -5646.4779     -6370.8428      65.203751     -0.0081764576   0.3543        -0.081764576  
   3544000   252.60618     -5580.7117     -6351.001       2.5370836     -0.0024759409   0.3544        -0.024759409  
   3545000   249.20884     -5576.4677     -6336.3973      454.60857     -0.046149257    0.3545        -0.46149257   
   3546000   245.51145     -5610.0161     -6358.671       430.00657     -0.041988358    0.3546        -0.41988358   
   3547000   242.33812     -5578.2728     -6317.2511     -461.31202      0.061104266    0.3547         0.61104266   
   3548000   254.37149     -5561.2467     -6336.9192      252.88608     -0.028926585    0.3548        -0.28926585   
   3549000   244.01274     -5562.2002     -6306.285      -124.93507      0.0064050982   0.3549         0.064050982  
   3550000   248.09646     -5547.7467     -6304.2843      217.6664      -0.016349321    0.355         -0.16349321   
   3551000   240.8514      -5545.701      -6280.1458     -141.09009      0.018541213    0.3551         0.18541213   
   3552000   237.37056     -5603.4559     -6327.2863     -281.86312      0.035456982    0.3552         0.35456982   
   3553000   260.24554     -5547.2561     -6340.8407      361.10353     -0.042869957    0.3553        -0.42869957   
   3554000   245.7266      -5582.5206     -6331.8316     -190.21151      0.017501791    0.3554         0.17501791   
   3555000   242.76474     -5612.8121     -6353.0913      205.5309      -0.025649771    0.3555        -0.25649771   
   3556000   251.93041     -5527.6825     -6295.9112      274.14009     -0.02942941     0.3556        -0.2942941    
   3557000   254.42894     -5542.1497     -6317.9973     -103.40753      0.014894949    0.3557         0.14894949   
   3558000   241.28211     -5569.1382     -6304.8964      248.55886     -0.030858472    0.3558        -0.30858472   
   3559000   256.87907     -5547.4043     -6330.7233     -377.18384      0.037219408    0.3559         0.37219408   
   3560000   230.31916     -5559.8683     -6262.1963      933.74409     -0.094262028    0.356         -0.94262028   
   3561000   235.10738     -5565.2395     -6282.1686     -579.40383      0.052271984    0.3561         0.52271984   
   3562000   247.7783      -5520.6778     -6276.2452      156.38762     -0.0094847159   0.3562        -0.094847159  
   3563000   250.60554     -5556.3258     -6320.5144     -98.539186      0.0045023526   0.3563         0.045023526  
   3564000   249.69864     -5553.8833     -6315.3065     -362.22538      0.024961254    0.3564         0.24961254   
   3565000   250.6625      -5514.2247     -6278.5871     -238.87363      0.021516738    0.3565         0.21516738   
   3566000   234.26015     -5594.3853     -6308.7309     -293.01881      0.040881849    0.3566         0.40881849   
   3567000   247.52976     -5547.3204     -6302.1299     -199.87325      0.022430386    0.3567         0.22430386   
   3568000   244.84262     -5557.1133     -6303.7287      202.83522     -0.02098196     0.3568        -0.2098196    
   3569000   245.09115     -5605.378      -6352.7513     -150.47234      0.017371977    0.3569         0.17371977   
   3570000   253.80817     -5516.5371     -6290.4917     -100.50676      0.0042690846   0.357          0.042690846  
   3571000   236.0634      -5562.8732     -6282.7175      585.31203     -0.06803986     0.3571        -0.6803986    
   3572000   257.49027     -5505.5151     -6290.6978      360.27228     -0.034910367    0.3572        -0.34910367   
   3573000   249.81336     -5557.0174     -6318.7905      362.51181     -0.03463765     0.3573        -0.3463765    
   3574000   245.97573     -5554.6103     -6304.681       24.662607     -0.002618558    0.3574        -0.02618558   
   3575000   261.34997     -5460.97       -6257.9224      159.76        -0.0076346543   0.3575        -0.076346543  
   3576000   241.48345     -5579.9218     -6316.2939     -352.46777      0.035428659    0.3576         0.35428659   
   3577000   252.70794     -5513.7113     -6284.311       131.69499     -0.018939629    0.3577        -0.18939629   
   3578000   232.8034      -5581.5684     -6291.4718      267.81688     -0.025883501    0.3578        -0.25883501   
   3579000   257.01221     -5514.6622     -6298.3872      919.40978     -0.092580874    0.3579        -0.92580874   
   3580000   242.4257      -5546.2891     -6285.5345      344.80051     -0.043411691    0.358         -0.43411691   
   3581000   249.15243     -5569.5697     -6329.3273      628.0585      -0.060359774    0.3581        -0.60359774   
   3582000   250.67935     -5579.689      -6344.1028      798.63911     -0.078845297    0.3582        -0.78845297   
   3583000   241.50918     -5586.7889     -6323.2394     -1021.8663      0.11138926     0.3583         1.1138926    
   3584000   233.77119     -5583.113      -6295.9676      301.26399     -0.031391943    0.3584        -0.31391943   
   3585000   235.01279     -5530.6309     -6247.2716     -61.901816      0.0073298729   0.3585         0.073298729  
   3586000   233.09691     -5593.2851     -6304.0835     -471.08324      0.050217806    0.3586         0.50217806   
   3587000   253.62024     -5486.2402     -6259.6218      841.05529     -0.074811619    0.3587        -0.74811619   
   3588000   245.67458     -5524.841      -6273.9934     -193.68696      0.007166344    0.3588         0.07166344   
   3589000   245.89769     -5545.5921     -6295.4248      273.47663     -0.024347181    0.3589        -0.24347181   
   3590000   235.07953     -5606.0328     -6322.8769      168.58819     -0.028757336    0.359         -0.28757336   
   3591000   243.89916     -5568.1301     -6311.8685      1012.5724     -0.095168615    0.3591        -0.95168615   
   3592000   242.5417      -5549.2137     -6288.8128     -354.82051      0.034374996    0.3592         0.34374996   
   3593000   237.27501     -5564.4518     -6287.9908     -542.24192      0.053932536    0.3593         0.53932536   
   3594000   245.84527     -5556.5038     -6306.1767     -775.69772      0.062442306    0.3594         0.62442306   
   3595000   254.75194     -5504.5007     -6281.3333     -284.08261      0.027505405    0.3595         0.27505405   
   3596000   239.90283     -5603.4625     -6335.0146     -896.11437      0.075696732    0.3596         0.75696732   
   3597000   247.69942     -5510.6719     -6265.9988      671.11411     -0.068743459    0.3597        -0.68743459   
   3598000   239.28094     -5543.7981     -6273.4538      174.71745     -0.018624776    0.3598        -0.18624776   
   3599000   245.83471     -5567.0215     -6316.6622      480.16672     -0.043642658    0.3599        -0.43642658   
   3600000   250.11415     -5509.0999     -6271.7902     -186.48899      0.01796471     0.36           0.1796471    
Loop time of 96.0042 on 56 procs for 100000 steps with 1536 atoms

Performance: 89.996 ns/day, 0.267 hours/ns, 1041.621 timesteps/s, 1.600 Matom-step/s
99.8% CPU use with 56 MPI tasks x no OpenMP threads

MPI task timing breakdown:
Section |  min time  |  avg time  |  max time  |%varavg| %total
---------------------------------------------------------------
Pair    | 20.972     | 24.427     | 26.419     |  22.8 | 25.44
Bond    | 0.011337   | 0.014421   | 0.024301   |   2.0 |  0.02
Kspace  | 39.534     | 41.567     | 44.985     |  17.0 | 43.30
Neigh   | 1.6137     | 1.6155     | 1.6169     |   0.1 |  1.68
Comm    | 10.253     | 10.566     | 10.983     |   5.7 | 11.01
Output  | 0.076037   | 0.1198     | 0.15544    |   6.2 |  0.12
Modify  | 12.261     | 15.141     | 16.728     |  32.7 | 15.77
Other   |            | 2.553      |            |       |  2.66

Nlocal:        27.4286 ave          35 max          18 min
Histogram: 1 2 3 4 9 17 3 13 3 1
Nghost:         4197.8 ave        4274 max        4132 min
Histogram: 3 4 8 8 7 9 10 3 1 3
Neighs:        11998.1 ave       15201 max        7834 min
Histogram: 1 2 3 4 8 11 10 13 2 2

Total # of neighbors = 671893
Ave neighs/atom = 437.43034
Ave special neighs/atom = 2
Neighbor list builds = 1066
Dangerous builds = 0
kspace_style pppm/tip4p 1.0e-5
next nloop
jump SELF loop_start
run 100000 # 100ps
PPPM initialization ...
  extracting TIP4P info from pair style
  using 12-bit tables for long-range coulomb
  G vector (1/distance) = 0.33311539
  grid = 27 36 27
  stencil order = 5
  estimated absolute RMS force accuracy = 0.002657033
  estimated relative force accuracy = 8.001576e-06
  using double precision KISS FFT
  3d grid and FFT values/proc = 5148 540
Generated 0 of 1 mixed pair_coeff terms from geometric mixing rule
Per MPI rank memory allocation (min/avg/max) = 9.785 | 9.804 | 9.818 Mbytes
   Step          Temp          TotEng         PotEng          Pxy           v_sxy         v_strain     v_viscosity  
   3600000   250.11427     -5509.0991     -6271.7897     -186.21487      0.017936897    0.36           0.17936897   
   3601000   255.45973     -5514.4847     -6293.4756     -350.39852      0.038206729    0.3601         0.38206729   
   3602000   244.29748     -5533.7942     -6278.7473     -166.73221      0.011918513    0.3602         0.11918513   
   3603000   234.00264     -5560.2113     -6273.7717     -302.12944      0.040390144    0.3603         0.40390144   
   3604000   253.16339     -5494.4771     -6266.4656      116.93159     -0.0085222538   0.3604        -0.085222538  
   3605000   246.83273     -5471.0119     -6223.6959     -431.6829       0.043503176    0.3605         0.43503176   
   3606000   252.38102     -5491.6443     -6261.2471      182.58886     -0.0096030977   0.3606        -0.096030977  
   3607000   243.19965     -5519.99       -6261.5954      336.25458     -0.032648668    0.3607        -0.32648668   
   3608000   243.3633      -5520.2022     -6262.3066      300.2754      -0.021521944    0.3608        -0.21521944   
   3609000   256.98743     -5465.2546     -6248.9041     -448.79119      0.040465793    0.3609         0.40465793   
   3610000   243.69327     -5581.5488     -6324.6594     -462.03991      0.048142421    0.361          0.48142421   
   3611000   255.30532     -5498.5944     -6277.1144      367.52451     -0.033804669    0.3611        -0.33804669   
   3612000   238.32067     -5555.2228     -6281.9504      314.53464     -0.035615755    0.3612        -0.35615755   
   3613000   244.74772     -5556.2386     -6302.5647      431.05609     -0.036306466    0.3613        -0.36306466   
   3614000   241.24167     -5512.2282     -6247.863       370.38037     -0.03023127     0.3614        -0.3023127    
   3615000   246.94616     -5526.1529     -6279.1828      747.94766     -0.066068368    0.3615        -0.66068368   
   3616000   254.55008     -5460.6069     -6236.8239      291.01995     -0.028075743    0.3616        -0.28075743   
   3617000   251.99677     -5492.4969     -6260.928       7.7285698      0.0071855536   0.3617         0.071855536  
   3618000   241.05649     -5579.5197     -6314.5898      79.902003     -0.002928369    0.3618        -0.02928369   
   3619000   241.72188     -5532.8479     -6269.947      -480.04077      0.049402626    0.3619         0.49402626   
   3620000   247.06124     -5501.0533     -6254.4341     -111.85462      0.0022313586   0.362          0.022313586  
   3621000   241.0907      -5575.0775     -6310.2519     -662.33415      0.060263457    0.3621         0.60263457   
   3622000   249.6841      -5503.3319     -6264.7108      33.850785      0.0027972972   0.3622         0.027972972  
   3623000   236.49993     -5564.1899     -6285.3653     -105.55958      0.0025035341   0.3623         0.025035341  
   3624000   248.45049     -5523.7805     -6281.3976     -178.58139      0.016282938    0.3624         0.16282938   
   3625000   252.66278     -5510.6261     -6281.0881      133.12452     -0.0094813426   0.3625        -0.094813426  
   3626000   247.99974     -5461.9722     -6218.2148     -368.52077      0.044057609    0.3626         0.44057609   
   3627000   240.6419      -5528.1488     -6261.9547     -42.188382      0.010488215    0.3627         0.10488215   
   3628000   252.94865     -5456.2476     -6227.5813      116.77213     -0.010718047    0.3628        -0.10718047   
   3629000   243.11747     -5515.8512     -6257.206      -180.47104      0.017099509    0.3629         0.17099509   
   3630000   239.81696     -5545.1426     -6276.4329     -208.85175      0.021538924    0.363          0.21538924   
   3631000   247.68532     -5477.6735     -6232.9573      327.08313     -0.034070616    0.3631        -0.34070616   
   3632000   235.92378     -5553.1948     -6272.6134      392.6576      -0.039312866    0.3632        -0.39312866   
   3633000   242.1269      -5531.901      -6270.2352     -221.87404      0.031814655    0.3633         0.31814655   
   3634000   250.4185      -5488.061      -6251.6793      188.86341     -0.029118387    0.3634        -0.29118387   
   3635000   243.54855     -5504.017      -6246.6863      88.232045     -0.0083984674   0.3635        -0.083984674  
   3636000   236.76336     -5532.8672     -6254.8459      237.5605      -0.028494273    0.3636        -0.28494273   
   3637000   247.48677     -5490.9382     -6245.6166     -385.78473      0.029298318    0.3637         0.29298318   
   3638000   246.4306      -5545.9132     -6297.3709      422.90439     -0.038605599    0.3638        -0.38605599   
   3639000   248.27623     -5449.3082     -6206.3939     -324.15191      0.028379397    0.3639         0.28379397   
   3640000   235.88862     -5535.9653     -6255.2767     -299.99532      0.033145216    0.364          0.33145216   
   3641000   243.33163     -5480.4951     -6222.5029      428.42031     -0.041197851    0.3641        -0.41197851   
   3642000   244.75007     -5525.835      -6272.1681      659.89174     -0.065759891    0.3642        -0.65759891   
   3643000   253.73048     -5532.3043     -6306.0221      266.90554     -0.031744455    0.3643        -0.31744455   
   3644000   244.8766      -5475.3166     -6222.0357     -140.28508      0.011109814    0.3644         0.11109814   
   3645000   246.18565     -5555.6373     -6306.3481     -418.62143      0.043678109    0.3645         0.43678109   
   3646000   247.77701     -5504.5288     -6260.0922      45.040024     -0.0050262238   0.3646        -0.050262238  
   3647000   253.07629     -5472.6203     -6244.3432      56.622497     -0.0095816026   0.3647        -0.095816026  
   3648000   240.44788     -5546.1072     -6279.3214      393.33725     -0.041625296    0.3648        -0.41625296   
   3649000   247.40918     -5539.9519     -6294.3937      23.795113     -0.019848706    0.3649        -0.19848706   
   3650000   256.46214     -5521.5574     -6303.605      -231.7438       0.030701891    0.365          0.30701891   
   3651000   252.99521     -5546.2028     -6317.6785     -1269.6962      0.12987281     0.3651         1.2987281    
   3652000   243.9097      -5569.9821     -6313.7527      68.768958     -0.022454723    0.3652        -0.22454723   
   3653000   251.59247     -5532.4981     -6299.6963     -868.06115      0.09281565     0.3653         0.9281565    
   3654000   238.42097     -5522.8682     -6249.9017     -772.60715      0.085528247    0.3654         0.85528247   
   3655000   237.28345     -5548.6219     -6272.1866     -450.46474      0.035079111    0.3655         0.35079111   
   3656000   255.40469     -5473.1517     -6251.9748      1231.8428     -0.11758629     0.3656        -1.1758629    
   3657000   255.64411     -5526.5597     -6306.1128     -725.92546      0.069972886    0.3657         0.69972886   
   3658000   240.61014     -5574.3069     -6308.0159      81.209883     -0.010156964    0.3658        -0.10156964   
   3659000   253.07666     -5463.3104     -6235.0345      623.51174     -0.063554202    0.3659        -0.63554202   
   3660000   238.68424     -5579.7991     -6307.6354     -447.26482      0.034900556    0.366          0.34900556   
   3661000   243.24657     -5584.5986     -6326.347       712.54409     -0.075021391    0.3661        -0.75021391   
   3662000   255.17122     -5507.6445     -6285.7556      195.77236     -0.010341018    0.3662        -0.10341018   
   3663000   235.90507     -5580.0039     -6299.3655     -483.65623      0.049034589    0.3663         0.49034589   
   3664000   242.2327      -5559.6541     -6298.3109     -361.26187      0.031577386    0.3664         0.31577386   
   3665000   246.15285     -5564.108      -6314.7188     -1079.0603      0.10878438     0.3665         1.0878438    
   3666000   247.13673     -5563.881      -6317.492       1512.2562     -0.14821611     0.3666        -1.4821611    
   3667000   240.41642     -5593.07       -6326.1883     -375.18078      0.034626675    0.3667         0.34626675   
   3668000   244.02821     -5580.928      -6325.06        110.07076     -0.010796128    0.3668        -0.10796128   
   3669000   243.58344     -5586.1        -6328.8757      436.0324      -0.050416253    0.3669        -0.50416253   
   3670000   252.53899     -5525.3372     -6295.4217     -249.41011      0.030187647    0.367          0.30187647   
   3671000   249.70886     -5582.9683     -6344.4227      348.60464     -0.038688834    0.3671        -0.38688834   
   3672000   237.32816     -5557.8631     -6281.5641     -450.56184      0.052339828    0.3672         0.52339828   
   3673000   256.14603     -5588.1435     -6369.2271      850.97407     -0.082630188    0.3673        -0.82630188   
   3674000   262.4899      -5537.7801     -6338.2086      350.11299     -0.038134909    0.3674        -0.38134909   
   3675000   247.36072     -5594.9285     -6349.2225      120.10275     -0.009330158    0.3675        -0.09330158   
   3676000   223.43152     -5596.006      -6277.3311      284.74807     -0.02188865     0.3676        -0.2188865    
   3677000   249.04967     -5549.5322     -6308.9765      264.97325     -0.033152833    0.3677        -0.33152833   
   3678000   243.47901     -5566.2387     -6308.696       104.77535     -0.018423074    0.3678        -0.18423074   
   3679000   240.01457     -5586.3122     -6318.2051     -658.71094      0.074522285    0.3679         0.74522285   
   3680000   238.05837     -5580.5157     -6306.4435      43.077002      0.0051187194   0.368          0.051187194  
   3681000   243.0699      -5507.051      -6248.2608     -179.39622      0.021089796    0.3681         0.21089796   
   3682000   236.67905     -5585.3406     -6307.0622      555.2071      -0.047036109    0.3682        -0.47036109   
   3683000   250.71951     -5538.9494     -6303.4857     -161.42872      0.028501451    0.3683         0.28501451   
   3684000   247.79285     -5526.0442     -6281.6559     -83.224187      0.0041690917   0.3684         0.041690917  
   3685000   244.55747     -5568.149      -6313.8949     -1148.6714      0.10852836     0.3685         1.0852836    
   3686000   255.94919     -5568.9028     -6349.3863     -983.84432      0.094032958    0.3686         0.94032958   
   3687000   245.15527     -5591.0428     -6338.6116     -645.24914      0.05532325     0.3687         0.5532325    
   3688000   255.03493     -5530.1815     -6307.8771     -454.79981      0.049882712    0.3688         0.49882712   
   3689000   247.68027     -5573.4116     -6328.6801     -155.63785      0.023555014    0.3689         0.23555014   
   3690000   244.15953     -5540.8993     -6285.4317      38.3362       -0.0068741857   0.369         -0.068741857  
   3691000   239.72056     -5555.4968     -6286.4932     -306.80462      0.037182296    0.3691         0.37182296   
   3692000   242.24163     -5562.2529     -6300.937       333.39769     -0.040898246    0.3692        -0.40898246   
   3693000   251.60117     -5550.5461     -6317.7708     -263.29809      0.033462603    0.3693         0.33462603   
   3694000   243.49227     -5618.4617     -6360.9594     -349.74541      0.043561856    0.3694         0.43561856   
   3695000   245.56055     -5596.3829     -6345.1875      33.529662      0.00091215085  0.3695         0.0091215085 
   3696000   254.00744     -5564.5978     -6339.1601      16.559581      0.0048258694   0.3696         0.048258694  
   3697000   248.65461     -5640.2452     -6398.4848     -988.36667      0.096358004    0.3697         0.96358004   
   3698000   244.37038     -5539.6013     -6284.7766      26.257632      0.0043889064   0.3698         0.043889064  
   3699000   252.42514     -5574.7011     -6344.4384     -827.85916      0.08060077     0.3699         0.8060077    
   3700000   249.9463      -5587.8363     -6350.0147     -395.08486      0.038595264    0.37           0.38595264   
Loop time of 96.6065 on 56 procs for 100000 steps with 1536 atoms

Performance: 89.435 ns/day, 0.268 hours/ns, 1035.127 timesteps/s, 1.590 Matom-step/s
99.8% CPU use with 56 MPI tasks x no OpenMP threads

MPI task timing breakdown:
Section |  min time  |  avg time  |  max time  |%varavg| %total
---------------------------------------------------------------
Pair    | 21.013     | 24.503     | 27.43      |  23.8 | 25.36
Bond    | 0.011394   | 0.014436   | 0.024348   |   2.0 |  0.01
Kspace  | 39.416     | 42.024     | 45.639     |  18.5 | 43.50
Neigh   | 1.6822     | 1.6839     | 1.6856     |   0.1 |  1.74
Comm    | 10.245     | 10.562     | 10.879     |   5.3 | 10.93
Output  | 0.077725   | 0.11993    | 0.15533    |   6.1 |  0.12
Modify  | 12.28      | 15.163     | 16.838     |  32.9 | 15.70
Other   |            | 2.535      |            |       |  2.62

Nlocal:        27.4286 ave          33 max          15 min
Histogram: 1 0 2 2 2 7 11 15 11 5
Nghost:        4223.45 ave        4268 max        4165 min
Histogram: 1 4 4 7 6 7 8 6 6 7
Neighs:        12010.4 ave       14548 max        6518 min
Histogram: 1 0 2 2 3 9 10 13 11 5

Total # of neighbors = 672583
Ave neighs/atom = 437.87956
Ave special neighs/atom = 2
Neighbor list builds = 1091
Dangerous builds = 0
kspace_style pppm/tip4p 1.0e-5
next nloop
jump SELF loop_start
run 100000 # 100ps
PPPM initialization ...
  extracting TIP4P info from pair style
  using 12-bit tables for long-range coulomb
  G vector (1/distance) = 0.33279762
  grid = 27 36 27
  stencil order = 5
  estimated absolute RMS force accuracy = 0.0027091139
  estimated relative force accuracy = 8.1584159e-06
  using double precision KISS FFT
  3d grid and FFT values/proc = 5148 540
Generated 0 of 1 mixed pair_coeff terms from geometric mixing rule
Per MPI rank memory allocation (min/avg/max) = 9.785 | 9.804 | 9.818 Mbytes
   Step          Temp          TotEng         PotEng          Pxy           v_sxy         v_strain     v_viscosity  
   3700000   249.94661     -5587.8347     -6350.0141     -394.76307      0.038562456    0.37           0.38562456   
   3701000   246.57019     -5558.1611     -6310.0445     -741.66578      0.075831591    0.3701         0.75831591   
   3702000   244.52648     -5568.9168     -6314.5682     -125.58232      0.016765666    0.3702         0.16765666   
   3703000   243.54778     -5581.2436     -6323.9106      465.82994     -0.041523306    0.3703        -0.41523306   
   3704000   263.18571     -5482.2301     -6284.7803     -525.22903      0.052739923    0.3704         0.52739923   
   3705000   242.61647     -5604.7681     -6344.5952      34.190514     -0.011834065    0.3705        -0.11834065   
   3706000   237.78035     -5587.0346     -6312.1145     -508.66621      0.042671063    0.3706         0.42671063   
   3707000   241.66262     -5572.5697     -6309.4881     -1488.878       0.13810615     0.3707         1.3810615    
   3708000   246.47857     -5566.1351     -6317.7392      157.49089     -0.0079470238   0.3708        -0.079470238  
   3709000   246.68289     -5500.4411     -6252.6682      577.01651     -0.062275378    0.3709        -0.62275378   
   3710000   242.03253     -5522.3434     -6260.3898     -199.05411      0.0210451      0.371          0.210451     
   3711000   235.89449     -5534.6341     -6253.9633     -730.51401      0.071200919    0.3711         0.71200919   
   3712000   244.8031      -5495.7629     -6242.2578      141.23502     -0.011181119    0.3712        -0.11181119   
   3713000   249.99397     -5524.8929     -6287.2167      1000.3027     -0.10123871     0.3713        -1.0123871    
   3714000   234.72639     -5539.0339     -6254.8012      639.79835     -0.067359212    0.3714        -0.67359212   
   3715000   240.5777      -5521.5113     -6255.1214     -309.6616       0.031902485    0.3715         0.31902485   
   3716000   255.22212     -5518.6263     -6296.8926      533.66054     -0.051829077    0.3716        -0.51829077   
   3717000   236.75632     -5592.7019     -6314.6592      41.22677      -0.01482716     0.3717        -0.1482716    
   3718000   251.87945     -5522.0936     -6290.1669      266.3624      -0.032922834    0.3718        -0.32922834   
   3719000   250.58762     -5541.0687     -6305.2027     -656.09916      0.071781818    0.3719         0.71781818   
   3720000   245.05407     -5536.8545     -6284.1146     -362.55094      0.033705529    0.372          0.33705529   
   3721000   249.69603     -5514.6976     -6276.1129     -54.532572     -0.00024081568  0.3721        -0.0024081568 
   3722000   251.22275     -5534.1733     -6300.2441     -40.452761      0.0019326213   0.3722         0.019326213  
   3723000   252.89768     -5512.7311     -6283.9093     -234.69093      0.022594753    0.3723         0.22594753   
   3724000   246.29594     -5546.6639     -6297.711       51.029099     -0.005508936    0.3724        -0.05508936   
   3725000   249.59467     -5522.4733     -6283.5795      21.581079     -0.00044169575  0.3725        -0.0044169575 
   3726000   240.44019     -5570.2112     -6303.402      -1228.0926      0.1225164      0.3726         1.225164     
   3727000   248.30168     -5512.8121     -6269.9755     -468.30111      0.042877236    0.3727         0.42877236   
   3728000   239.52374     -5596.8464     -6327.2426     -78.583482      0.006044803    0.3728         0.06044803   
   3729000   249.75825     -5492.5381     -6254.1431     -689.43168      0.06488194     0.3729         0.6488194    
   3730000   235.54696     -5589.2541     -6307.5236     -263.31749      0.02760774     0.373          0.2760774    
   3731000   238.59286     -5599.6481     -6327.2057      793.33948     -0.064138311    0.3731        -0.64138311   
   3732000   252.61743     -5524.5828     -6294.9065      1031.4199     -0.10854402     0.3732        -1.0854402    
   3733000   247.48265     -5541.5775     -6296.2433     -938.74528      0.08481641     0.3733         0.8481641    
   3734000   238.8016      -5582.3622     -6310.5564     -461.15385      0.043507953    0.3734         0.43507953   
   3735000   248.7682      -5537.052      -6295.6379      571.56875     -0.053630748    0.3735        -0.53630748   
   3736000   242.44535     -5611.0809     -6350.3862      253.00533     -0.017005559    0.3736        -0.17005559   
   3737000   253.19333     -5514.1021     -6286.1819      43.614804     -0.0059970093   0.3737        -0.059970093  
   3738000   240.46963     -5564.881      -6298.1616     -184.16962      0.01150663     0.3738         0.1150663    
   3739000   240.60864     -5530.4852     -6264.1897     -286.76095      0.023581415    0.3739         0.23581415   
   3740000   247.03811     -5552.6508     -6305.9611      673.58669     -0.079483543    0.374         -0.79483543   
   3741000   249.34086     -5528.228      -6288.5602      156.97423     -0.014556068    0.3741        -0.14556068   
   3742000   244.61739     -5559.298      -6305.2266     -892.75901      0.079509838    0.3742         0.79509838   
   3743000   251.33197     -5542.8519     -6309.2557     -270.43505      0.038819235    0.3743         0.38819235   
   3744000   253.17916     -5508.5789     -6280.6155      309.21386     -0.034836636    0.3744        -0.34836636   
   3745000   251.32446     -5529.6189     -6295.9998     -266.69355      0.024893239    0.3745         0.24893239   
   3746000   242.75182     -5514.933      -6255.1728     -436.48492      0.042273974    0.3746         0.42273974   
   3747000   242.26036     -5556.705      -6295.4461     -584.83708      0.059841159    0.3747         0.59841159   
   3748000   255.66969     -5437.0174     -6216.6485     -153.20316      0.019255286    0.3748         0.19255286   
   3749000   254.55289     -5502.7306     -6278.9562      17.448997     -0.0051300846   0.3749        -0.051300846  
   3750000   245.6413      -5560.8053     -6309.8562      565.77565     -0.051253696    0.375         -0.51253696   
   3751000   258.49385     -5482.096      -6270.339       583.47503     -0.068878014    0.3751        -0.68878014   
   3752000   245.47481     -5510.3732     -6258.9164      415.41636     -0.044221347    0.3752        -0.44221347   
   3753000   252.82753     -5529.0568     -6300.0211      618.9329      -0.061086945    0.3753        -0.61086945   
   3754000   246.88208     -5505.7424     -6258.5769     -363.40168      0.037579265    0.3754         0.37579265   
   3755000   245.95358     -5500.8166     -6250.8197      420.59226     -0.031167033    0.3755        -0.31167033   
   3756000   252.81655     -5508.4638     -6279.3946     -443.22504      0.05077352     0.3756         0.5077352    
   3757000   260.83813     -5504.6563     -6300.048      -15.7496        0.0067276722   0.3757         0.067276722  
   3758000   235.12906     -5588.5753     -6305.5705      79.530689     -0.0095243306   0.3758        -0.095243306  
   3759000   250.6703      -5530.2089     -6294.5951     -164.97768      0.008061271    0.3759         0.08061271   
   3760000   241.32329     -5520.315      -6256.1987      278.86767     -0.032422975    0.376         -0.32422975   
   3761000   245.36814     -5520.7065     -6268.9245      533.71008     -0.047361543    0.3761        -0.47361543   
   3762000   248.77197     -5559.7889     -6318.3863     -891.56494      0.088891837    0.3762         0.88891837   
   3763000   236.85709     -5580.6028     -6302.8674     -117.1043       0.014734467    0.3763         0.14734467   
   3764000   236.68741     -5528.4977     -6250.2448     -382.23759      0.029417448    0.3764         0.29417448   
   3765000   250.04572     -5566.7674     -6329.249       50.219912     -0.001962057    0.3765        -0.01962057   
   3766000   239.7049      -5539.1661     -6270.1147      1130.6935     -0.10947469     0.3766        -1.0947469    
   3767000   252.65163     -5551.7209     -6322.1489      908.38184     -0.086749645    0.3767        -0.86749645   
   3768000   237.17963     -5545.274      -6268.5221      652.71812     -0.065455243    0.3768        -0.65455243   
   3769000   249.3934      -5496.148      -6256.6404      620.72468     -0.052946988    0.3769        -0.52946988   
   3770000   246.77064     -5548.9703     -6301.465      -115.66092      0.012244677    0.377          0.12244677   
   3771000   238.54933     -5585.2162     -6312.641      -133.06894      0.014591043    0.3771         0.14591043   
   3772000   247.5365      -5514.385      -6269.215       446.90765     -0.043963709    0.3772        -0.43963709   
   3773000   244.69829     -5551.9769     -6298.1522     -172.14121      0.013572896    0.3773         0.13572896   
   3774000   242.93546     -5522.4199     -6263.2197     -310.36633      0.0272552      0.3774         0.272552     
   3775000   253.44375     -5468.6528     -6241.4963     -189.38528      0.02177198     0.3775         0.2177198    
   3776000   238.2203      -5607.594      -6334.0155      493.80502     -0.039616258    0.3776        -0.39616258   
   3777000   254.01723     -5513.0298     -6287.622       222.5664      -0.030446687    0.3777        -0.30446687   
   3778000   248.13256     -5590.0801     -6346.7277     -585.13901      0.055929452    0.3778         0.55929452   
   3779000   247.54338     -5521.6801     -6276.5311     -804.89266      0.090429437    0.3779         0.90429437   
   3780000   247.36489     -5540.9136     -6295.2203     -82.224219      0.0079395383   0.378          0.079395383  
   3781000   261.03223     -5488.6846     -6284.6681     -68.491419      0.0052920426   0.3781         0.052920426  
   3782000   235.31222     -5607.8983     -6325.452       171.74096     -0.01822513     0.3782        -0.1822513    
   3783000   251.90403     -5544.6564     -6312.8046      13.627328     -0.011447572    0.3783        -0.11447572   
   3784000   251.19353     -5551.0125     -6316.9942      414.96596     -0.03002012     0.3784        -0.3002012    
   3785000   258.53441     -5513.0152     -6301.3819      514.31002     -0.049898986    0.3785        -0.49898986   
   3786000   250.65506     -5543.0706     -6307.4103      24.383905     -0.0029678026   0.3786        -0.029678026  
   3787000   239.51846     -5606.1902     -6336.5702     -36.410708     -0.0015173067   0.3787        -0.015173067  
   3788000   244.03553     -5588.6638     -6332.8181      485.88714     -0.042413689    0.3788        -0.42413689   
   3789000   245.66845     -5585.1366     -6334.2703      164.8075      -0.020128341    0.3789        -0.20128341   
   3790000   245.49263     -5556.8502     -6305.4477      201.44235     -0.016879025    0.379         -0.16879025   
   3791000   246.46667     -5555.8657     -6307.4335      851.67538     -0.093467173    0.3791        -0.93467173   
   3792000   250.45921     -5498.1402     -6261.8827      432.00806     -0.046932781    0.3792        -0.46932781   
   3793000   240.52036     -5572.5949     -6306.0301     -503.86677      0.051716913    0.3793         0.51716913   
   3794000   248.053       -5532.64       -6289.0451      719.93392     -0.078399436    0.3794        -0.78399436   
   3795000   252.45377     -5539.8984     -6309.723       360.00521     -0.029234649    0.3795        -0.29234649   
   3796000   236.71488     -5603.3006     -6325.1316      43.091686     -0.0068586972   0.3796        -0.068586972  
   3797000   244.54619     -5553.0729     -6298.7844      485.99839     -0.060314866    0.3797        -0.60314866   
   3798000   241.91985     -5518.9342     -6256.6371      839.08284     -0.082877754    0.3798        -0.82877754   
   3799000   258.20631     -5553.953      -6341.3193      441.07091     -0.035460644    0.3799        -0.35460644   
   3800000   240.97553     -5622.6691     -6357.4923      617.85355     -0.067027104    0.38          -0.67027104   
Loop time of 96.7054 on 56 procs for 100000 steps with 1536 atoms

Performance: 89.344 ns/day, 0.269 hours/ns, 1034.068 timesteps/s, 1.588 Matom-step/s
99.8% CPU use with 56 MPI tasks x no OpenMP threads

MPI task timing breakdown:
Section |  min time  |  avg time  |  max time  |%varavg| %total
---------------------------------------------------------------
Pair    | 21.861     | 24.523     | 27.011     |  24.2 | 25.36
Bond    | 0.011406   | 0.014455   | 0.024404   |   2.0 |  0.01
Kspace  | 39.367     | 42.053     | 44.817     |  18.4 | 43.49
Neigh   | 1.6796     | 1.6812     | 1.6826     |   0.1 |  1.74
Comm    | 10.274     | 10.56      | 10.878     |   5.1 | 10.92
Output  | 0.078122   | 0.12016    | 0.15553    |   6.1 |  0.12
Modify  | 12.295     | 15.182     | 16.835     |  32.8 | 15.70
Other   |            | 2.572      |            |       |  2.66

Nlocal:        27.4286 ave          36 max          22 min
Histogram: 6 7 10 4 11 7 4 4 2 1
Nghost:        4239.95 ave        4309 max        4186 min
Histogram: 2 3 10 14 7 6 7 5 1 1
Neighs:        12011.4 ave       15702 max        9587 min
Histogram: 6 7 9 5 12 6 4 3 3 1

Total # of neighbors = 672636
Ave neighs/atom = 437.91406
Ave special neighs/atom = 2
Neighbor list builds = 1078
Dangerous builds = 0
kspace_style pppm/tip4p 1.0e-5
next nloop
jump SELF loop_start
run 100000 # 100ps
PPPM initialization ...
  extracting TIP4P info from pair style
  using 12-bit tables for long-range coulomb
  G vector (1/distance) = 0.33245174
  grid = 27 36 27
  stencil order = 5
  estimated absolute RMS force accuracy = 0.0027668051
  estimated relative force accuracy = 8.3321513e-06
  using double precision KISS FFT
  3d grid and FFT values/proc = 5148 540
Generated 0 of 1 mixed pair_coeff terms from geometric mixing rule
Per MPI rank memory allocation (min/avg/max) = 9.785 | 9.804 | 9.818 Mbytes
   Step          Temp          TotEng         PotEng          Pxy           v_sxy         v_strain     v_viscosity  
   3800000   240.97541     -5622.6695     -6357.4924      618.06165     -0.067048248    0.38          -0.67048248   
   3801000   250.47863     -5588.463      -6352.2646      920.13285     -0.099129067    0.3801        -0.99129067   
   3802000   250.08198     -5556.7606     -6319.3528      64.730401     -0.0058060093   0.3802        -0.058060093  
   3803000   246.72487     -5605.1653     -6357.5204      526.66455     -0.049386871    0.3803        -0.49386871   
   3804000   244.3605      -5546.0833     -6291.2285     -219.53987      0.029771902    0.3804         0.29771902   
   3805000   245.30026     -5573.154      -6321.1649      307.76817     -0.037101314    0.3805        -0.37101314   
   3806000   239.89336     -5572.3283     -6303.8516     -779.31398      0.076918127    0.3806         0.76918127   
   3807000   256.64262     -5561.888      -6344.486       126.40212     -0.018242224    0.3807        -0.18242224   
   3808000   245.21716     -5566.3656     -6314.1231      3.2709932     -0.00280778     0.3808        -0.0280778    
   3809000   244.73934     -5549.5688     -6295.8692     -463.21047      0.049153361    0.3809         0.49153361   
   3810000   239.07335     -5561.4713     -6290.4941      174.82079     -0.010720295    0.381         -0.10720295   
   3811000   250.69802     -5489.4314     -6253.9021     -584.62698      0.062436       0.3811         0.62436      
   3812000   246.36978     -5585.4117     -6336.684      -498.94755      0.040457352    0.3812         0.40457352   
   3813000   247.95501     -5520.1638     -6276.27        41.665019     -0.0052877367   0.3813        -0.052877367  
   3814000   252.8089      -5476.0139     -6246.9215      134.59435     -0.011395344    0.3814        -0.11395344   
   3815000   248.97712     -5536.1035     -6295.3265     -20.118311      0.0036896663   0.3815         0.036896663  
   3816000   256.33841     -5557.8418     -6339.5122      299.30437     -0.02628797     0.3816        -0.2628797    
   3817000   242.02029     -5573.3177     -6311.3268     -971.65197      0.10275879     0.3817         1.0275879    
   3818000   244.55522     -5564.9876     -6310.7267     -488.74336      0.044842729    0.3818         0.44842729   
   3819000   253.92746     -5508.5746     -6282.893      -286.10354      0.030555246    0.3819         0.30555246   
   3820000   240.18624     -5569.6916     -6302.108      -944.79487      0.097933973    0.382          0.97933973   
   3821000   247.38818     -5536.4943     -6290.872      -105.10596      0.016117112    0.3821         0.16117112   
   3822000   244.80125     -5540.6238     -6287.1131     -511.81535      0.054080733    0.3822         0.54080733   
   3823000   241.8919      -5565.0735     -6302.6911      424.82856     -0.044365907    0.3823        -0.44365907   
   3824000   251.25435     -5510.0811     -6276.2483      490.30296     -0.049521422    0.3824        -0.49521422   
   3825000   234.70978     -5592.6537     -6308.3703     -392.37233      0.039760083    0.3825         0.39760083   
   3826000   252.24442     -5533.8181     -6303.0044      275.57638     -0.019364223    0.3826        -0.19364223   
   3827000   245.30881     -5564.4303     -6312.4673      202.00838     -0.019919703    0.3827        -0.19919703   
   3828000   246.47438     -5550.1001     -6301.6913     -546.6222       0.043315648    0.3828         0.43315648   
   3829000   245.49372     -5531.7021     -6280.3029      436.72256     -0.037433572    0.3829        -0.37433572   
   3830000   253.40756     -5511.1068     -6283.8399     -510.12707      0.036985825    0.383          0.36985825   
   3831000   239.62009     -5559.2606     -6289.9506     -121.78312      0.0066414162   0.3831         0.066414162  
   3832000   238.92225     -5593.0368     -6321.5988     -272.36164      0.025078082    0.3832         0.25078082   
   3833000   261.70634     -5463.2874     -6261.3265     -65.231885     -0.00086380747  0.3833        -0.0086380747 
   3834000   241.33193     -5608.0555     -6343.9655     -83.517772      0.0089457715   0.3834         0.089457715  
   3835000   251.77681     -5522.4743     -6290.2346      39.580781     -0.00057319515  0.3835        -0.0057319515 
   3836000   242.00694     -5560.9305     -6298.8989     -151.04877      0.025869408    0.3836         0.25869408   
   3837000   243.70815     -5559.1667     -6302.3227     -557.96942      0.053754941    0.3837         0.53754941   
   3838000   250.6678      -5502.4633     -6266.8418      656.13142     -0.065267846    0.3838        -0.65267846   
   3839000   246.65109     -5551.235      -6303.3651      998.10378     -0.09607949     0.3839        -0.9607949    
   3840000   238.99964     -5593.2162     -6322.0142     -271.50926      0.027083114    0.384          0.27083114   
   3841000   232.60219     -5584.7017     -6293.9915      996.39652     -0.087614709    0.3841        -0.87614709   
   3842000   248.65154     -5519.2709     -6277.5011      394.58991     -0.033435177    0.3842        -0.33435177   
   3843000   243.62542     -5583.3382     -6326.2419     -60.907159      0.011206519    0.3843         0.11206519   
   3844000   245.27104     -5509.9421     -6257.8639      404.04872     -0.040036214    0.3844        -0.40036214   
   3845000   249.12094     -5500.3147     -6259.9763      561.38941     -0.04883133     0.3845        -0.4883133    
   3846000   241.6648      -5553.2076     -6290.1327     -449.32769      0.036107294    0.3846         0.36107294   
   3847000   240.17698     -5579.913      -6312.3012     -115.69083      0.013801953    0.3847         0.13801953   
   3848000   246.08542     -5498.1389     -6248.5441     -481.66792      0.057476995    0.3848         0.57476995   
   3849000   236.19078     -5567.7745     -6288.0072      141.05275     -0.018783497    0.3849        -0.18783497   
   3850000   245.41805     -5558.9467     -6307.3169     -50.390331      0.0080449778   0.385          0.080449778  
   3851000   240.63373     -5522.132      -6255.913      -454.93843      0.048589034    0.3851         0.48589034   
   3852000   238.41083     -5575.3516     -6302.3541     -1335.0226      0.13968577     0.3852         1.3968577    
   3853000   247.42151     -5528.1811     -6282.6605     -531.21329      0.046576787    0.3853         0.46576787   
   3854000   247.64939     -5554.2823     -6309.4566     -355.04377      0.036655324    0.3854         0.36655324   
   3855000   241.51778     -5545.884      -6282.3608     -29.940048      7.1312771e-05  0.3855         0.00071312771
   3856000   250.61604     -5575.095      -6339.3157     -764.5139       0.079190111    0.3856         0.79190111   
   3857000   251.41015     -5547.376      -6314.0183     -118.93318      0.013291374    0.3857         0.13291374   
   3858000   237.84911     -5539.63       -6264.9197     -371.30763      0.039876426    0.3858         0.39876426   
   3859000   255.92981     -5505.9216     -6286.346      -548.51351      0.05823964     0.3859         0.5823964    
   3860000   237.12276     -5587.214      -6310.2887      155.74888     -0.014187442    0.386         -0.14187442   
   3861000   246.31419     -5533.5323     -6284.6351      700.83618     -0.077700594    0.3861        -0.77700594   
   3862000   235.65069     -5567.4017     -6285.9876     -530.46229      0.055733714    0.3862         0.55733714   
   3863000   240.06058     -5582.8644     -6314.8976      89.000716      0.00064745686  0.3863         0.0064745686 
   3864000   256.16584     -5549.2253     -6330.3694     -96.112365      0.0087305081   0.3864         0.087305081  
   3865000   240.84677     -5606.8167     -6341.2473      55.448131     -0.0123473      0.3865        -0.123473     
   3866000   240.54652     -5621.1196     -6354.6347      455.86501     -0.043098368    0.3866        -0.43098368   
   3867000   251.75748     -5539.4967     -6307.1981     -288.84236      0.035027963    0.3867         0.35027963   
   3868000   243.58064     -5602.1269     -6344.8941     -293.09967      0.027075509    0.3868         0.27075509   
   3869000   244.4285      -5586.8904     -6332.243       381.90847     -0.04411955     0.3869        -0.4411955    
   3870000   253.86506     -5569.3976     -6343.5258      445.8298      -0.040214613    0.387         -0.40214613   
   3871000   240.4627      -5600.7122     -6333.9717      100.80514     -0.006917806    0.3871        -0.06917806   
   3872000   251.80897     -5527.7884     -6295.6468     -304.96841      0.030149883    0.3872         0.30149883   
   3873000   236.71768     -5613.1602     -6334.9997     -187.74361      0.020990163    0.3873         0.20990163   
   3874000   245.92392     -5592.4612     -6342.3739     -19.515854      0.0042174574   0.3874         0.042174574  
   3875000   241.70734     -5556.4105     -6293.4653     -118.28229      0.011826021    0.3875         0.11826021   
   3876000   256.34882     -5514.5902     -6296.2922      767.83288     -0.080248384    0.3876        -0.80248384   
   3877000   251.74385     -5583.3817     -6351.0415      173.8449      -0.013661232    0.3877        -0.13661232   
   3878000   233.92684     -5620.1685     -6333.4976     -19.325349      0.005297903    0.3878         0.05297903   
   3879000   253.8835      -5595.1973     -6369.3817     -601.69363      0.066381963    0.3879         0.66381963   
   3880000   242.301       -5553.7224     -6292.5875      604.02961     -0.062723231    0.388         -0.62723231   
   3881000   245.56168     -5588.3633     -6337.1714     -578.85446      0.055707025    0.3881         0.55707025   
   3882000   257.96622     -5531.903      -6318.5371      1455.399      -0.14185861     0.3882        -1.4185861    
   3883000   245.72724     -5549.6885     -6299.0014      869.69216     -0.093436978    0.3883        -0.93436978   
   3884000   256.93725     -5564.2885     -6347.7849     -628.19408      0.052791419    0.3884         0.52791419   
   3885000   248.10559     -5560.2001     -6316.7656     -221.35438      0.026951782    0.3885         0.26951782   
   3886000   252.91404     -5540.0228     -6311.2509      10.615564      0.00041221054  0.3886         0.0041221054 
   3887000   243.46354     -5601.8406     -6344.2507     -727.58948      0.07424714     0.3887         0.7424714    
   3888000   233.63072     -5602.772      -6315.1982      209.75338     -0.022601482    0.3888        -0.22601482   
   3889000   247.69063     -5564.5161     -6319.8161      342.10936     -0.033915763    0.3889        -0.33915763   
   3890000   245.19352     -5553.1995     -6300.885      -93.111704      0.0069897228   0.389          0.069897228  
   3891000   252.96945     -5524.4789     -6295.876      -309.24205      0.031881026    0.3891         0.31881026   
   3892000   248.69274     -5540.062      -6298.4178     -219.21346      0.031624605    0.3892         0.31624605   
   3893000   240.3972      -5567.7408     -6300.8005     -343.21612      0.029732925    0.3893         0.29732925   
   3894000   250.17298     -5563.9232     -6326.7928      324.77542     -0.024690383    0.3894        -0.24690383   
   3895000   251.88848     -5528.6347     -6296.7356     -502.85615      0.046947815    0.3895         0.46947815   
   3896000   236.98251     -5551.6859     -6274.3329     -308.68712      0.037462797    0.3896         0.37462797   
   3897000   250.76101     -5568.0823     -6332.7451     -290.68008      0.030781261    0.3897         0.30781261   
   3898000   247.63875     -5506.1469     -6261.2887     -224.78556      0.0182154      0.3898         0.182154     
   3899000   248.83014     -5505.9198     -6264.6947     -274.94762      0.023955982    0.3899         0.23955982   
   3900000   248.85638     -5543.6036     -6302.4585     -127.24862      0.0071142908   0.39           0.071142908  
Loop time of 97.0519 on 56 procs for 100000 steps with 1536 atoms

Performance: 89.025 ns/day, 0.270 hours/ns, 1030.377 timesteps/s, 1.583 Matom-step/s
99.8% CPU use with 56 MPI tasks x no OpenMP threads

MPI task timing breakdown:
Section |  min time  |  avg time  |  max time  |%varavg| %total
---------------------------------------------------------------
Pair    | 22.307     | 24.504     | 27.734     |  25.1 | 25.25
Bond    | 0.011248   | 0.014494   | 0.023689   |   2.0 |  0.01
Kspace  | 39.214     | 42.374     | 44.513     |  18.7 | 43.66
Neigh   | 1.6564     | 1.658      | 1.6596     |   0.1 |  1.71
Comm    | 10.284     | 10.599     | 10.943     |   5.4 | 10.92
Output  | 0.077962   | 0.12034    | 0.1559     |   6.1 |  0.12
Modify  | 12.315     | 15.191     | 16.82      |  32.8 | 15.65
Other   |            | 2.592      |            |       |  2.67

Nlocal:        27.4286 ave          39 max          19 min
Histogram: 3 2 7 10 13 10 7 2 1 1
Nghost:        4228.23 ave        4287 max        4166 min
Histogram: 3 5 5 8 4 9 8 5 6 3
Neighs:        12004.9 ave       17183 max        8446 min
Histogram: 4 2 10 15 10 7 5 1 1 1

Total # of neighbors = 672276
Ave neighs/atom = 437.67969
Ave special neighs/atom = 2
Neighbor list builds = 1061
Dangerous builds = 0
kspace_style pppm/tip4p 1.0e-5
next nloop
jump SELF loop_start
run 100000 # 100ps
PPPM initialization ...
  extracting TIP4P info from pair style
  using 12-bit tables for long-range coulomb
  G vector (1/distance) = 0.3320763
  grid = 27 36 27
  stencil order = 5
  estimated absolute RMS force accuracy = 0.0028306346
  estimated relative force accuracy = 8.5243719e-06
  using double precision KISS FFT
  3d grid and FFT values/proc = 5148 540
Generated 0 of 1 mixed pair_coeff terms from geometric mixing rule
Per MPI rank memory allocation (min/avg/max) = 9.785 | 9.804 | 9.818 Mbytes
   Step          Temp          TotEng         PotEng          Pxy           v_sxy         v_strain     v_viscosity  
   3900000   248.85653     -5543.6028     -6302.4582     -127.07213      0.0070961361   0.39           0.070961361  
   3901000   250.06819     -5501.6268     -6264.1769      175.37187     -0.017131122    0.3901        -0.17131122   
   3902000   244.21218     -5556.4547     -6301.1477     -360.56133      0.039925107    0.3902         0.39925107   
   3903000   239.86423     -5559.5286     -6290.9631     -728.05813      0.06685346     0.3903         0.6685346    
   3904000   244.27383     -5511.2477     -6256.1286     -351.93062      0.031987471    0.3904         0.31987471   
   3905000   249.49741     -5485.766      -6246.5756      476.14817     -0.046332915    0.3905        -0.46332915   
   3906000   248.95696     -5585.6533     -6344.8148      330.70637     -0.034037938    0.3906        -0.34037938   
   3907000   246.36942     -5546.7941     -6298.0654     -430.5586       0.051259015    0.3907         0.51259015   
   3908000   246.95405     -5523.6348     -6276.6887      442.67571     -0.036936668    0.3908        -0.36936668   
   3909000   236.97518     -5561.6482     -6284.2729     -144.30074      0.021406165    0.3909         0.21406165   
   3910000   253.08794     -5506.9915     -6278.75       -22.007501     -0.0024957242   0.391         -0.024957242  
   3911000   235.22853     -5561.9142     -6279.2127     -177.31986      0.024588008    0.3911         0.24588008   
   3912000   251.63122     -5522.3581     -6289.6744     -468.21782      0.034941883    0.3912         0.34941883   
   3913000   247.13413     -5502.9529     -6256.556       117.52149     -0.015615277    0.3913        -0.15615277   
   3914000   245.78338     -5539.2885     -6288.7727      280.62442     -0.037785771    0.3914        -0.37785771   
   3915000   243.27525     -5500.6331     -6242.469       23.631466     -0.0022403762   0.3915        -0.022403762  
   3916000   234.88082     -5572.4171     -6288.6553     -1019.6071      0.089915639    0.3916         0.89915639   
   3917000   241.07987     -5538.8906     -6274.0319     -74.198798      0.019051448    0.3917         0.19051448   
   3918000   246.80758     -5472.304      -6224.9113     -365.32966      0.032272861    0.3918         0.32272861   
   3919000   242.88657     -5527.6146     -6268.2653     -806.1885       0.089575637    0.3919         0.89575637   
   3920000   235.44531     -5509.096      -6227.0556     -387.16617      0.040100318    0.392          0.40100318   
   3921000   241.73194     -5521.7327     -6258.8625      236.04        -0.017024218    0.3921        -0.17024218   
   3922000   250.72343     -5497.414      -6261.9621     -464.33591      0.044911998    0.3922         0.44911998   
   3923000   233.41349     -5561.1116     -6272.8754     -292.94892      0.017995241    0.3923         0.17995241   
   3924000   250.8047      -5471.9135     -6236.7095     -969.55213      0.084730794    0.3924         0.84730794   
   3925000   249.08438     -5466.5949     -6226.145      -361.79393      0.022019962    0.3925         0.22019962   
   3926000   233.37796     -5570.3674     -6282.0228     -103.51065      0.0066461016   0.3926         0.066461016  
   3927000   250.7318      -5472.9715     -6237.5452     -425.70299      0.0332882      0.3927         0.332882     
   3928000   240.48912     -5525.994      -6259.334      -140.66967      0.010516392    0.3928         0.10516392   
   3929000   238.38973     -5553.8997     -6280.8379     -184.87475      0.025703893    0.3929         0.25703893   
   3930000   251.53713     -5503.0659     -6270.0954     -200.92856      0.028864395    0.393          0.28864395   
   3931000   251.02255     -5494.8669     -6260.3272      1188.515      -0.12943423     0.3931        -1.2943423    
   3932000   242.58921     -5547.5942     -6287.3381      20.055109     -0.0018184122   0.3932        -0.018184122  
   3933000   251.3197      -5530.0418     -6296.4082     -436.1329       0.041104771    0.3933         0.41104771   
   3934000   233.89021     -5533.4271     -6246.6445      1129.5732     -0.11102769     0.3934        -1.1102769    
   3935000   249.61702     -5493.8327     -6255.007       943.02716     -0.10316185     0.3935        -1.0316185    
   3936000   239.70709     -5577.3337     -6308.289      -263.77841      0.023507183    0.3936         0.23507183   
   3937000   230.7056      -5602.7566     -6306.263      -35.29369       0.0010298527   0.3937         0.010298527  
   3938000   241.53937     -5515.7764     -6252.319       49.784222      0.0015472024   0.3938         0.015472024  
   3939000   252.43636     -5453.9143     -6223.6859     -398.06842      0.047395325    0.3939         0.47395325   
   3940000   241.2372      -5570.7458     -6306.3669      1267.3739     -0.1252329      0.394         -1.252329     
   3941000   258.18533     -5485.8139     -6273.1162      28.433322     -0.0028377531   0.3941        -0.028377531  
   3942000   237.23379     -5595.2721     -6318.6854      130.40046     -0.018312169    0.3942        -0.18312169   
   3943000   254.37233     -5496.4261     -6272.1011     -783.70698      0.080743254    0.3943         0.80743254   
   3944000   248.13021     -5514.1595     -6270.8         635.2221      -0.06133296     0.3944        -0.6133296    
   3945000   242.34138     -5520.013      -6259.0012     -52.856117     -0.0037635874   0.3945        -0.037635874  
   3946000   239.32482     -5558.7784     -6288.568       231.79116     -0.018453219    0.3946        -0.18453219   
   3947000   253.35178     -5505.0998     -6277.6627      35.569414     -0.0035378443   0.3947        -0.035378443  
   3948000   239.06736     -5535.9346     -6264.9392     -222.46459      0.016210559    0.3948         0.16210559   
   3949000   237.72147     -5531.0333     -6255.9337     -691.47756      0.067591766    0.3949         0.67591766   
   3950000   250.56658     -5527.5741     -6291.644      -154.1723       0.0076932855   0.395          0.076932855  
   3951000   248.76099     -5533.9075     -6292.4714     -65.79719      -0.010981316    0.3951        -0.10981316   
   3952000   263.28169     -5474.0619     -6276.9049     -293.41293      0.024244489    0.3952         0.24244489   
   3953000   257.49431     -5477.9868     -6263.1819     -24.307778      0.0019589672   0.3953         0.019589672  
   3954000   253.62043     -5472.4576     -6245.8398      968.08513     -0.098938065    0.3954        -0.98938065   
   3955000   237.90575     -5535.8914     -6261.3538     -335.01624      0.035781188    0.3955         0.35781188   
   3956000   246.96586     -5467.9646     -6221.0545     -1129.6974      0.11213033     0.3956         1.1213033    
   3957000   265.91857     -5420.5233     -6231.4071     -91.244515      0.0073624531   0.3957         0.073624531  
   3958000   238.93674     -5491.9852     -6220.5914     -208.24469      0.018735109    0.3958         0.18735109   
   3959000   248.51666     -5499.5259     -6257.3448      623.69855     -0.068776994    0.3959        -0.68776994   
   3960000   241.01128     -5527.3024     -6262.2347     -308.46385      0.033446108    0.396          0.33446108   
   3961000   244.36989     -5590.0321     -6335.206       32.957228     -0.0033630888   0.3961        -0.033630888  
   3962000   245.00786     -5525.4651     -6272.5844     -443.00262      0.040368486    0.3962         0.40368486   
   3963000   239.49947     -5511.4771     -6241.7993     -333.061        0.025891401    0.3963         0.25891401   
   3964000   237.03679     -5570.7301     -6293.5426      1621.7604     -0.1539226      0.3964        -1.539226     
   3965000   238.8929      -5572.9582     -6301.4307     -63.395166      0.012388965    0.3965         0.12388965   
   3966000   243.81997     -5549.4307     -6292.9277      157.26868     -0.017287209    0.3966        -0.17287209   
   3967000   254.09609     -5482.9639     -6257.7965      416.71983     -0.044825443    0.3967        -0.44825443   
   3968000   240.81161     -5566.8426     -6301.166       393.31272     -0.033380469    0.3968        -0.33380469   
   3969000   253.64677     -5513.2328     -6286.6953      528.76671     -0.060960549    0.3969        -0.60960549   
   3970000   243.96149     -5521.4891     -6265.4177      738.45014     -0.060773466    0.397         -0.60773466   
   3971000   254.44325     -5516.3979     -6292.2891      226.40146     -0.015753342    0.3971        -0.15753342   
   3972000   242.53513     -5567.2684     -6306.8474      180.34277     -0.019735419    0.3972        -0.19735419   
   3973000   247.50182     -5574.1202     -6328.8445      677.16705     -0.068197754    0.3973        -0.68197754   
   3974000   239.81299     -5613.1268     -6344.405       57.429796     -0.0059251729   0.3974        -0.059251729  
   3975000   231.99224     -5609.0904     -6316.5202      839.42685     -0.085435698    0.3975        -0.85435698   
   3976000   241.0875      -5626.3337     -6361.4984      628.99795     -0.059759254    0.3976        -0.59759254   
   3977000   242.64253     -5547.7634     -6287.6699      342.23517     -0.037377531    0.3977        -0.37377531   
   3978000   244.5796      -5536.4021     -6282.2155      459.4836      -0.043292806    0.3978        -0.43292806   
   3979000   245.41798     -5617.9134     -6366.2833     -213.7502       0.023828024    0.3979         0.23828024   
   3980000   249.42006     -5612.0889     -6372.6627     -24.473299      0.0040859169   0.398          0.040859169  
   3981000   238.56584     -5608.7964     -6336.2716     -387.10896      0.033856237    0.3981         0.33856237   
   3982000   243.96214     -5564.7311     -6308.6616      220.50279     -0.021256647    0.3982        -0.21256647   
   3983000   246.75391     -5547.3899     -6299.8335      615.08168     -0.054762438    0.3983        -0.54762438   
   3984000   257.54198     -5570.9575     -6356.298       223.0883      -0.017867766    0.3984        -0.17867766   
   3985000   256.26348     -5527.1969     -6308.6388     -1381.5255      0.13026822     0.3985         1.3026822    
   3986000   245.84159     -5545.3097     -6294.9713     -649.79998      0.061938188    0.3986         0.61938188   
   3987000   243.86744     -5609.1766     -6352.8183      126.0325      -0.0084777874   0.3987        -0.084777874  
   3988000   259.57752     -5512.5564     -6304.1039      99.536026     -0.010744418    0.3988        -0.10744418   
   3989000   249.30604     -5575.9561     -6336.1822     -463.43425      0.041398121    0.3989         0.41398121   
   3990000   254.219       -5505.4639     -6280.6714      500.74131     -0.042993277    0.399         -0.42993277   
   3991000   243.0869      -5551.2443     -6292.5059      749.49531     -0.081144326    0.3991        -0.81144326   
   3992000   256.84203     -5522.4223     -6305.6283      420.07251     -0.043078188    0.3992        -0.43078188   
   3993000   244.44445     -5537.4089     -6282.8101      118.3563       0.0018891466   0.3993         0.018891466  
   3994000   243.40375     -5533.0869     -6275.3146     -1340.6081      0.12782037     0.3994         1.2782037    
   3995000   243.10446     -5557.5166     -6298.8318     -930.54019      0.097680143    0.3995         0.97680143   
   3996000   253.24471     -5596.4417     -6368.6782     -552.28202      0.055650831    0.3996         0.55650831   
   3997000   249.09237     -5526.6418     -6286.2163      421.63976     -0.04041427     0.3997        -0.4041427    
   3998000   248.97271     -5594.107      -6353.3166     -174.06316      0.022305086    0.3998         0.22305086   
   3999000   250.51563     -5571.9514     -6335.8659     -243.2041       0.023110499    0.3999         0.23110499   
   4000000   247.90004     -5528.4979     -6284.4365      414.87698     -0.040640294    0.4           -0.40640294   
Loop time of 97.0699 on 56 procs for 100000 steps with 1536 atoms

Performance: 89.008 ns/day, 0.270 hours/ns, 1030.185 timesteps/s, 1.582 Matom-step/s
99.8% CPU use with 56 MPI tasks x no OpenMP threads

MPI task timing breakdown:
Section |  min time  |  avg time  |  max time  |%varavg| %total
---------------------------------------------------------------
Pair    | 21.996     | 24.489     | 27.275     |  25.3 | 25.23
Bond    | 0.011385   | 0.014517   | 0.024204   |   1.9 |  0.01
Kspace  | 39.555     | 42.279     | 44.883     |  18.6 | 43.56
Neigh   | 1.7214     | 1.7228     | 1.7243     |   0.0 |  1.77
Comm    | 10.356     | 10.641     | 10.979     |   4.9 | 10.96
Output  | 0.077587   | 0.11982    | 0.15534    |   6.1 |  0.12
Modify  | 12.326     | 15.221     | 16.849     |  32.8 | 15.68
Other   |            | 2.583      |            |       |  2.66

Nlocal:        27.4286 ave          35 max          19 min
Histogram: 1 2 1 6 9 19 10 3 4 1
Nghost:        4276.98 ave        4326 max        4214 min
Histogram: 2 3 4 6 7 8 9 6 6 5
Neighs:        12005.2 ave       15362 max        8325 min
Histogram: 1 2 1 6 19 9 10 5 2 1

Total # of neighbors = 672292
Ave neighs/atom = 437.6901
Ave special neighs/atom = 2
Neighbor list builds = 1102
Dangerous builds = 0
kspace_style pppm/tip4p 1.0e-5
next nloop
jump SELF loop_start
run 100000 # 100ps
PPPM initialization ...
  extracting TIP4P info from pair style
  using 12-bit tables for long-range coulomb
  G vector (1/distance) = 0.33167
  grid = 27 36 27
  stencil order = 5
  estimated absolute RMS force accuracy = 0.0029011639
  estimated relative force accuracy = 8.7367688e-06
  using double precision KISS FFT
  3d grid and FFT values/proc = 5148 540
Generated 0 of 1 mixed pair_coeff terms from geometric mixing rule
Per MPI rank memory allocation (min/avg/max) = 9.785 | 9.804 | 9.818 Mbytes
   Step          Temp          TotEng         PotEng          Pxy           v_sxy         v_strain     v_viscosity  
   4000000   247.9         -5528.4982     -6284.4367      415.11979     -0.040665217    0.4           -0.40665217   
   4001000   240.14851     -5574.3005     -6306.6018     -281.62023      0.033544654    0.4001         0.33544654   
   4002000   239.4287      -5531.9888     -6262.0952     -486.23416      0.047518664    0.4002         0.47518664   
   4003000   250.32377     -5533.4682     -6296.7976      274.99665     -0.01375191     0.4003        -0.1375191    
   4004000   244.75881     -5537.9363     -6284.2961     -3.7998846     -0.0025251708   0.4004        -0.025251708  
   4005000   254.19319     -5564.3311     -6339.4599     -745.0091       0.067586542    0.4005         0.67586542   
   4006000   234.81856     -5547.5008     -6263.5492     -440.57565      0.04359654     0.4006         0.4359654    
   4007000   246.4963      -5618.6494     -6370.3075      60.021669     -0.0042650764   0.4007        -0.042650764  
   4008000   249.11351     -5525.6842     -6285.3231     -289.01287      0.03793593     0.4008         0.3793593    
   4009000   253.13862     -5535.5748     -6307.4878      602.023       -0.058109656    0.4009        -0.58109656   
   4010000   249.48264     -5567.0434     -6327.8079      388.84699     -0.032296336    0.401         -0.32296336   
   4011000   241.14496     -5554.9549     -6290.2948     -338.21773      0.034069102    0.4011         0.34069102   
   4012000   251.8362      -5545.9872     -6313.9286      40.303197     -0.0057805518   0.4012        -0.057805518  
   4013000   244.1791      -5517.1761     -6261.7682      170.05359     -0.011610734    0.4013        -0.11610734   
   4014000   245.9133      -5529.9949     -6279.8753      704.19693     -0.08110097     0.4014        -0.8110097    
   4015000   243.78422     -5504.8195     -6248.2074     -513.02613      0.063309641    0.4015         0.63309641   
   4016000   234.99277     -5554.8221     -6271.4017      589.26816     -0.058287988    0.4016        -0.58287988   
   4017000   254.9382      -5512.3516     -6289.7522      15.771699     -0.0085236787   0.4017        -0.085236787  
   4018000   248.4947      -5548.5277     -6306.2797      383.48872     -0.034178175    0.4018        -0.34178175   
   4019000   249.79593     -5519.9831     -6281.703       134.39411     -0.0092201779   0.4019        -0.092201779  
   4020000   249.67078     -5553.8904     -6315.2286     -854.76705      0.080689969    0.402          0.80689969   
   4021000   246.15933     -5492.3206     -6242.9512      147.13712     -0.013498898    0.4021        -0.13498898   
   4022000   246.80338     -5508.8822     -6261.4767     -291.38327      0.026281349    0.4022         0.26281349   
   4023000   239.34318     -5548.9768     -6278.8224      58.643966     -0.0088626709   0.4023        -0.088626709  
   4024000   251.82701     -5489.2787     -6257.1921      164.86893     -0.0088067524   0.4024        -0.088067524  
   4025000   236.34949     -5529.201      -6249.9178     -156.26477      0.0048008035   0.4025         0.048008035  
   4026000   241.90183     -5454.4715     -6192.1194     -408.88279      0.042877277    0.4026         0.42877277   
   4027000   237.88297     -5525.4817     -6250.8746     -269.63193      0.03041366     0.4027         0.3041366    
   4028000   240.0312      -5557.5415     -6289.4852     -1364.6558      0.13492629     0.4028         1.3492629    
   4029000   257.21498     -5477.7099     -6262.0532     -935.86862      0.094045998    0.4029         0.94045998   
   4030000   250.51467     -5539.1931     -6303.1047      7.4418681     -0.0020228605   0.403         -0.020228605  
   4031000   242.13806     -5519.652      -6258.0202     -905.33095      0.091054954    0.4031         0.91054954   
   4032000   246.97326     -5479.0361     -6232.1486     -241.7216       0.027299968    0.4032         0.27299968   
   4033000   242.45944     -5521.0478     -6260.396      -353.90755      0.033408205    0.4033         0.33408205   
   4034000   243.4664      -5553.4195     -6295.8383     -280.22555      0.020363644    0.4034         0.20363644   
   4035000   246.00327     -5502.6083     -6252.763       429.87384     -0.043028937    0.4035        -0.43028937   
   4036000   252.78219     -5503.765      -6274.5911      1070.3502     -0.093708531    0.4036        -0.93708531   
   4037000   248.95142     -5499.8543     -6258.999      -39.166169     -0.015519991    0.4037        -0.15519991   
   4038000   239.60806     -5496.3125     -6226.9658     -323.41996      0.025303547    0.4038         0.25303547   
   4039000   249.2967      -5526.2528     -6286.4503      110.25567     -0.012217587    0.4039        -0.12217587   
   4040000   246.74979     -5535.6489     -6288.08        464.94863     -0.03824959     0.404         -0.3824959    
   4041000   244.50189     -5529.8298     -6275.4063      507.2868      -0.043940125    0.4041        -0.43940125   
   4042000   248.95144     -5566.789      -6325.9338     -269.29013      0.020525757    0.4042         0.20525757   
   4043000   233.98265     -5599.5023     -6313.0017      253.99379     -0.026633653    0.4043        -0.26633653   
   4044000   257.69554     -5494.859      -6280.6677      918.6659      -0.10406109     0.4044        -1.0406109    
   4045000   248.47775     -5573.3366     -6331.0369     -89.274017      0.0086763853   0.4045         0.086763853  
   4046000   260.738       -5533.3695     -6328.4558      319.98074     -0.025652156    0.4046        -0.25652156   
   4047000   247.63823     -5544.9964     -6300.1367      135.17477     -0.019986878    0.4047        -0.19986878   
   4048000   242.95908     -5531.3202     -6272.192      -1095.8036      0.11336285     0.4048         1.1336285    
   4049000   240.04609     -5559.3592     -6291.3482      1004.2594     -0.11039046     0.4049        -1.1039046    
   4050000   242.9169      -5525.7162     -6266.4594      465.77246     -0.049725188    0.405         -0.49725188   
   4051000   240.61644     -5545.155      -6278.8832      888.7426      -0.080501694    0.4051        -0.80501694   
   4052000   242.21646     -5560.2703     -6298.8775      534.36873     -0.052589693    0.4052        -0.52589693   
   4053000   239.31752     -5568.9119     -6298.6793     -174.34785      0.019916258    0.4053         0.19916258   
   4054000   255.44679     -5459.7393     -6238.6907      1007.1634     -0.10263997     0.4054        -1.0263997    
   4055000   249.1225      -5508.5231     -6268.1894      136.08038     -0.0047772152   0.4055        -0.047772152  
   4056000   244.4899      -5541.2401     -6286.7799     -627.00093      0.063892805    0.4056         0.63892805   
   4057000   257.20679     -5516.5012     -6300.8195     -303.82142      0.027931573    0.4057         0.27931573   
   4058000   238.41879     -5619.2712     -6346.298      -292.5711       0.034316743    0.4058         0.34316743   
   4059000   252.22522     -5486.4412     -6255.5689     -636.07289      0.057978653    0.4059         0.57978653   
   4060000   238.10047     -5553.4393     -6279.4954     -161.54357      0.018230989    0.406          0.18230989   
   4061000   243.2427      -5519.1271     -6260.8638     -24.066854      0.0043781562   0.4061         0.043781562  
   4062000   244.56074     -5553.1044     -6298.8603     -498.73993      0.047624544    0.4062         0.47624544   
   4063000   229.56688     -5565.5707     -6265.6048     -982.80253      0.094774073    0.4063         0.94774073   
   4064000   246.83402     -5484.1429     -6236.8309     -1277.3005      0.12488987     0.4064         1.2488987    
   4065000   235.07787     -5622.3988     -6339.2379     -244.81357      0.028957593    0.4065         0.28957593   
   4066000   242.55578     -5540.548      -6280.19       -88.959522      0.0091583659   0.4066         0.091583659  
   4067000   262.06276     -5486.7415     -6285.8675     -537.58687      0.049154664    0.4067         0.49154664   
   4068000   251.49138     -5505.351      -6272.241      -59.346996      0.011417667    0.4068         0.11417667   
   4069000   247.34902     -5518.7588     -6273.0171     -238.80115      0.018692919    0.4069         0.18692919   
   4070000   238.52549     -5615.2106     -6342.5627      371.35341     -0.040915339    0.407         -0.40915339   
   4071000   252.74157     -5576.9824     -6347.6847     -719.11091      0.075287856    0.4071         0.75287856   
   4072000   251.54202     -5513.5282     -6280.5725     -1269.847       0.12288379     0.4072         1.2288379    
   4073000   242.93398     -5544.7659     -6285.5612      392.35634     -0.020682005    0.4073        -0.20682005   
   4074000   248.0544      -5533.4519     -6289.8612     -288.67217      0.029422279    0.4074         0.29422279   
   4075000   247.82974     -5516.012      -6271.7363     -485.80465      0.04220672     0.4075         0.4220672    
   4076000   240.85509     -5543.9199     -6278.3759     -30.633963     -0.0007919259   0.4076        -0.007919259  
   4077000   253.58328     -5554.2645     -6327.5335     -329.50908      0.022146288    0.4077         0.22146288   
   4078000   242.83607     -5534.1459     -6274.6426     -554.82219      0.056003857    0.4078         0.56003857   
   4079000   246.38683     -5562.9284     -6314.2527     -560.73286      0.051289096    0.4079         0.51289096   
   4080000   242.32582     -5588.7696     -6327.7103     -395.10812      0.040067606    0.408          0.40067606   
   4081000   238.36784     -5597.2793     -6324.1508      96.177916     -0.016390526    0.4081        -0.16390526   
   4082000   243.9791      -5564.1463     -6308.1286      55.621686     -0.0099926071   0.4082        -0.099926071  
   4083000   244.34708     -5561.6637     -6306.7681      95.295809     -0.0081469085   0.4083        -0.081469085  
   4084000   250.12064     -5583.2205     -6345.9306     -439.35599      0.044092054    0.4084         0.44092054   
   4085000   236.3867      -5589.2159     -6310.0461     -645.64761      0.068002088    0.4085         0.68002088   
   4086000   252.44955     -5497.9137     -6267.7254     -149.65985      0.026668275    0.4086         0.26668275   
   4087000   242.43342     -5589.4464     -6328.7153      305.96312     -0.041943838    0.4087        -0.41943838   
   4088000   249.93869     -5556.7057     -6318.861       74.958264     -0.013061151    0.4088        -0.13061151   
   4089000   246.54084     -5524.6175     -6276.4114     -308.37992      0.032450418    0.4089         0.32450418   
   4090000   248.76716     -5527.3458     -6285.9286     -808.03802      0.070022544    0.409          0.70022544   
   4091000   242.48229     -5595.8436     -6335.2615      50.109294     -0.013326517    0.4091        -0.13326517   
   4092000   242.88983     -5540.8113     -6281.4719     -248.29915      0.028754846    0.4092         0.28754846   
   4093000   244.89011     -5576.5886     -6323.3489      71.917881     -0.0072424276   0.4093        -0.072424276  
   4094000   246.51292     -5552.0476     -6303.7564      197.427       -0.016740222    0.4094        -0.16740222   
   4095000   249.41959     -5523.4339     -6284.0062     -303.75397      0.038265792    0.4095         0.38265792   
   4096000   243.25526     -5563.1024     -6304.8774      18.532506      0.0020791859   0.4096         0.020791859  
   4097000   247.87727     -5503.1679     -6259.0371      46.231665      0.004015695    0.4097         0.04015695   
   4098000   243.20608     -5541.0404     -6282.6654      927.9354      -0.08803671     0.4098        -0.8803671    
   4099000   242.32154     -5506.6532     -6245.5809      928.84016     -0.077070455    0.4099        -0.77070455   
   4100000   235.75295     -5613.7598     -6332.6575      488.27133     -0.057122005    0.41          -0.57122005   
Loop time of 96.6407 on 56 procs for 100000 steps with 1536 atoms

Performance: 89.403 ns/day, 0.268 hours/ns, 1034.760 timesteps/s, 1.589 Matom-step/s
99.8% CPU use with 56 MPI tasks x no OpenMP threads

MPI task timing breakdown:
Section |  min time  |  avg time  |  max time  |%varavg| %total
---------------------------------------------------------------
Pair    | 21.708     | 24.427     | 26.223     |  19.8 | 25.28
Bond    | 0.01143    | 0.014579   | 0.026275   |   2.1 |  0.02
Kspace  | 40.024     | 41.94      | 44.745     |  15.0 | 43.40
Neigh   | 1.6611     | 1.6622     | 1.6632     |   0.0 |  1.72
Comm    | 10.426     | 10.677     | 11         |   4.9 | 11.05
Output  | 0.077872   | 0.12012    | 0.15566    |   6.1 |  0.12
Modify  | 12.318     | 15.245     | 16.868     |  32.8 | 15.77
Other   |            | 2.555      |            |       |  2.64

Nlocal:        27.4286 ave          33 max          22 min
Histogram: 4 8 3 7 7 8 5 6 2 6
Nghost:        4240.79 ave        4330 max        4150 min
Histogram: 4 5 6 7 5 6 8 7 6 2
Neighs:        12004.7 ave       14672 max        9492 min
Histogram: 3 3 9 6 10 8 6 4 2 5

Total # of neighbors = 672263
Ave neighs/atom = 437.67122
Ave special neighs/atom = 2
Neighbor list builds = 1070
Dangerous builds = 0
kspace_style pppm/tip4p 1.0e-5
next nloop
jump SELF loop_start
run 100000 # 100ps
PPPM initialization ...
  extracting TIP4P info from pair style
  using 12-bit tables for long-range coulomb
  G vector (1/distance) = 0.3312317
  grid = 27 36 27
  stencil order = 5
  estimated absolute RMS force accuracy = 0.0029789884
  estimated relative force accuracy = 8.9711352e-06
  using double precision KISS FFT
  3d grid and FFT values/proc = 5148 540
Generated 0 of 1 mixed pair_coeff terms from geometric mixing rule
Per MPI rank memory allocation (min/avg/max) = 9.785 | 9.804 | 9.818 Mbytes
   Step          Temp          TotEng         PotEng          Pxy           v_sxy         v_strain     v_viscosity  
   4100000   235.75296     -5613.7602     -6332.6579      488.49134     -0.057144314    0.41          -0.57144314   
   4101000   256.95839     -5496.5937     -6280.1546     -568.22031      0.063302639    0.4101         0.63302639   
   4102000   249.59536     -5563.5007     -6324.6089      319.0406      -0.017359471    0.4102        -0.17359471   
   4103000   247.7031      -5599.112      -6354.4501     -241.61123      0.029535705    0.4103         0.29535705   
   4104000   245.82724     -5548.2981     -6297.916       13.057103      0.0068957973   0.4104         0.068957973  
   4105000   237.59551     -5594.3698     -6318.8862     -69.414219      0.0076228138   0.4105         0.076228138  
   4106000   249.23113     -5564.0146     -6324.0122     -28.628952      0.0040379669   0.4106         0.040379669  
   4107000   250.64847     -5525.6602     -6289.9798     -441.06529      0.039949018    0.4107         0.39949018   
   4108000   243.92272     -5547.25       -6291.0603     -319.64784      0.028436179    0.4108         0.28436179   
   4109000   250.42263     -5541.5064     -6305.1373     -383.50638      0.040294956    0.4109         0.40294956   
   4110000   250.30897     -5540.1033     -6303.3876      920.05363     -0.093577205    0.411         -0.93577205   
   4111000   245.24417     -5560.5974     -6308.4373      158.33762     -0.0078427755   0.4111        -0.078427755  
   4112000   237.61295     -5587.0743     -6311.6438     -7.4743873      0.004004329    0.4112         0.04004329   
   4113000   251.32267     -5500.9564     -6267.3319      390.07049     -0.045948625    0.4113        -0.45948625   
   4114000   242.72406     -5555.79       -6295.9452      1028.983      -0.10739533     0.4114        -1.0739533    
   4115000   238.10117     -5482.1964     -6208.2547      364.39912     -0.046947076    0.4115        -0.46947076   
   4116000   261.57376     -5492.6714     -6290.3062      402.04933     -0.029315945    0.4116        -0.29315945   
   4117000   244.13927     -5549.3858     -6293.8564      261.93836     -0.027515645    0.4117        -0.27515645   
   4118000   259.06668     -5506.3094     -6296.2992      735.05994     -0.070293232    0.4118        -0.70293232   
   4119000   245.24552     -5517.4691     -6265.3132      222.52187     -0.026587297    0.4119        -0.26587297   
   4120000   253.87522     -5512.1582     -6286.3174      639.53286     -0.073758497    0.412         -0.73758497   
   4121000   236.12539     -5539.7507     -6259.7841     -398.40344      0.037162682    0.4121         0.37162682   
   4122000   258.42209     -5477.0989     -6265.1231      146.77765     -0.011062754    0.4122        -0.11062754   
   4123000   244.4279      -5511.2442     -6256.595      -145.01923      0.013965309    0.4123         0.13965309   
   4124000   242.5711      -5571.9126     -6311.6013      23.126763     -0.0049914441   0.4124        -0.049914441  
   4125000   254.57321     -5518.3909     -6294.6785      154.16886     -0.012012557    0.4125        -0.12012557   
   4126000   241.03639     -5529.693      -6264.7018      225.69219     -0.018459746    0.4126        -0.18459746   
   4127000   250.03781     -5529.5149     -6291.9724     -605.82701      0.062976738    0.4127         0.62976738   
   4128000   238.5345      -5530.4474     -6257.827       1115.1241     -0.10124774     0.4128        -1.0124774    
   4129000   247.67128     -5492.2325     -6247.4735      290.00062     -0.02062249     0.4129        -0.2062249    
   4130000   247.70999     -5545.272      -6300.6311     -638.5264       0.072153366    0.413          0.72153366   
   4131000   252.08895     -5512.7669     -6281.479      -669.91745      0.078085268    0.4131         0.78085268   
   4132000   248.42303     -5522.1336     -6279.667      -53.756051      0.0064575658   0.4132         0.064575658  
   4133000   248.83901     -5480.8709     -6239.6728      441.04499     -0.037982957    0.4133        -0.37982957   
   4134000   245.1673      -5559.9268     -6307.5323     -1025.2535      0.11021835     0.4134         1.1021835    
   4135000   239.63812     -5555.8759     -6286.6209      291.27407     -0.035834405    0.4135        -0.35834405   
   4136000   239.46259     -5553.869      -6284.0787      163.84422     -0.022975012    0.4136        -0.22975012   
   4137000   244.03016     -5484.6809     -6228.8188     -554.4487       0.05324619     0.4137         0.5324619    
   4138000   236.04263     -5558.5554     -6278.3364      304.49195     -0.026199005    0.4138        -0.26199005   
   4139000   258.43296     -5483.3932     -6271.4505     -408.79885      0.04385053     0.4139         0.4385053    
   4140000   236.79724     -5562.6584     -6284.7404     -1039.3948      0.11025128     0.414          1.1025128    
   4141000   257.29105     -5477.3573     -6261.9326      40.712535     -0.01154622     0.4141        -0.1154622    
   4142000   238.42388     -5577.0908     -6304.1331      204.93606     -0.034262981    0.4142        -0.34262981   
   4143000   239.30461     -5505.3201     -6235.0481      209.05158     -0.0051732381   0.4143        -0.051732381  
   4144000   246.53809     -5505.6718     -6257.4574      10.10968      -0.011636073    0.4144        -0.11636073   
   4145000   244.66899     -5522.5023     -6268.5883     -409.37392      0.035874619    0.4145         0.35874619   
   4146000   248.05385     -5508.2553     -6264.663       274.15301     -0.029157276    0.4146        -0.29157276   
   4147000   250.05441     -5509.6722     -6272.1803     -359.03291      0.034184022    0.4147         0.34184022   
   4148000   243.78415     -5517.6625     -6261.0502      27.825772     -0.0015884049   0.4148        -0.015884049  
   4149000   239.33089     -5482.554      -6212.3621     -1229.7818      0.12209006     0.4149         1.2209006    
   4150000   256.72138     -5484.5605     -6267.3986      36.495999     -0.0034664722   0.415         -0.034664722  
   4151000   252.28693     -5557.8316     -6327.1475      808.69399     -0.081739174    0.4151        -0.81739174   
   4152000   247.44324     -5521.7871     -6276.3327     -215.49097      0.043625646    0.4152         0.43625646   
   4153000   234.37829     -5520.3207     -6235.0265      248.74957     -0.023260922    0.4153        -0.23260922   
   4154000   245.90229     -5536.4632     -6286.3099      8.7817709     -0.00069145821  0.4154        -0.0069145821 
   4155000   254.53295     -5484.1922     -6260.357       322.84032     -0.036177933    0.4155        -0.36177933   
   4156000   247.63671     -5567.4082     -6322.5438     -364.49846      0.038093669    0.4156         0.38093669   
   4157000   253.00898     -5478.494      -6250.0117     -54.964124      0.0082886718   0.4157         0.082886718  
   4158000   242.10702     -5453.3129     -6191.5865     -971.02682      0.092519008    0.4158         0.92519008   
   4159000   236.99926     -5532.2927     -6254.9908      396.77015     -0.049665072    0.4159        -0.49665072   
   4160000   241.70908     -5518.9492     -6256.0093     -37.962647     -0.005227209    0.416         -0.05227209   
   4161000   240.59868     -5529.9859     -6263.6599     -228.58664      0.027384717    0.4161         0.27384717   
   4162000   247.64458     -5504.6703     -6259.83       -275.61491      0.033744674    0.4162         0.33744674   
   4163000   244.56829     -5517.7224     -6263.5013     -477.75391      0.046211038    0.4163         0.46211038   
   4164000   244.92348     -5509.2752     -6256.1372      295.18454     -0.03134073     0.4164        -0.3134073    
   4165000   260.47315     -5479.775      -6274.0537      195.18141     -0.017245444    0.4165        -0.17245444   
   4166000   242.83458     -5501.1439     -6241.636      -342.44061      0.033058509    0.4166         0.33058509   
   4167000   248.14297     -5549.7876     -6306.467       49.246896      0.0028358766   0.4167         0.028358766  
   4168000   247.16757     -5526.4371     -6280.1422     -282.10538      0.028608957    0.4168         0.28608957   
   4169000   243.60805     -5508.5051     -6251.3558      271.6987      -0.030195641    0.4169        -0.30195641   
   4170000   244.22345     -5528.4667     -6273.194      -39.294796      0.00078515818  0.417          0.0078515818 
   4171000   241.59867     -5508.359      -6245.0824     -506.94367      0.052038792    0.4171         0.52038792   
   4172000   242.19172     -5528.1384     -6266.6702      615.64        -0.061938045    0.4172        -0.61938045   
   4173000   233.78986     -5598.3145     -6311.226      -30.513297      0.0033659386   0.4173         0.033659386  
   4174000   246.76742     -5538.4091     -6290.8939     -269.02707      0.024662452    0.4174         0.24662452   
   4175000   251.22418     -5507.5119     -6273.587       11.967831      0.0036892457   0.4175         0.036892457  
   4176000   248.56472     -5540.8041     -6298.7695      755.59524     -0.066156266    0.4176        -0.66156266   
   4177000   245.39539     -5595.6851     -6343.9861      28.375655      0.0012884911   0.4177         0.012884911  
   4178000   260.78539     -5496.7946     -6292.0254     -239.86176      0.021949567    0.4178         0.21949567   
   4179000   246.48107     -5546.9171     -6298.5287     -870.80381      0.074163267    0.4179         0.74163267   
   4180000   249.16823     -5487.642      -6247.4478     -256.98847      0.025486672    0.418          0.25486672   
   4181000   243.58298     -5540.3803     -6283.1546      816.25547     -0.081031314    0.4181        -0.81031314   
   4182000   248.65404     -5488.3355     -6246.5733      144.23614     -0.012665674    0.4182        -0.12665674   
   4183000   252.95575     -5510.1966     -6281.552       410.93695     -0.036001975    0.4183        -0.36001975   
   4184000   236.12949     -5546.8992     -6266.9451      136.06439     -0.013267979    0.4184        -0.13267979   
   4185000   238.18979     -5531.5643     -6257.8928      452.05634     -0.038641042    0.4185        -0.38641042   
   4186000   244.41139     -5531.7449     -6277.0453     -186.64368      0.019850514    0.4186         0.19850514   
   4187000   251.11969     -5519          -6284.7565      653.21471     -0.055792509    0.4187        -0.55792509   
   4188000   252.04638     -5549.8376     -6318.4199     -514.49977      0.059479011    0.4188         0.59479011   
   4189000   239.28243     -5565.1853     -6294.8456      34.809731     -0.0016654276   0.4189        -0.016654276  
   4190000   248.42125     -5490.3949     -6247.9228     -862.0726       0.08888619     0.419          0.8888619    
   4191000   244.51271     -5502.9696     -6248.579       210.89979     -0.019001368    0.4191        -0.19001368   
   4192000   253.72806     -5556.9887     -6330.699      -764.39117      0.065050966    0.4192         0.65050966   
   4193000   240.45974     -5564.0253     -6297.2757     -71.041091      0.0018815102   0.4193         0.018815102  
   4194000   248.69502     -5484.5213     -6242.8841     -782.59447      0.071336104    0.4194         0.71336104   
   4195000   244.05066     -5553.7456     -6297.946       472.27411     -0.035675378    0.4195        -0.35675378   
   4196000   241.91026     -5568.1626     -6305.8362      88.362799      0.00015621365  0.4196         0.0015621365 
   4197000   253.26353     -5555.1171     -6327.4109      653.57082     -0.077389898    0.4197        -0.77389898   
   4198000   254.6661      -5518.6314     -6295.2022      1.0115955      0.0089511676   0.4198         0.089511676  
   4199000   247.08097     -5521.163      -6274.604      -393.29173      0.0303703      0.4199         0.303703     
   4200000   240.94234     -5586.8266     -6321.5486     -761.30331      0.0777456      0.42           0.777456     
Loop time of 96.5719 on 56 procs for 100000 steps with 1536 atoms

Performance: 89.467 ns/day, 0.268 hours/ns, 1035.497 timesteps/s, 1.591 Matom-step/s
99.8% CPU use with 56 MPI tasks x no OpenMP threads

MPI task timing breakdown:
Section |  min time  |  avg time  |  max time  |%varavg| %total
---------------------------------------------------------------
Pair    | 21.251     | 24.413     | 26.626     |  24.2 | 25.28
Bond    | 0.011405   | 0.014475   | 0.025578   |   2.1 |  0.01
Kspace  | 39.843     | 41.891     | 45.16      |  18.0 | 43.38
Neigh   | 1.7278     | 1.7292     | 1.7308     |   0.1 |  1.79
Comm    | 10.463     | 10.711     | 11.066     |   5.1 | 11.09
Output  | 0.077859   | 0.11993    | 0.15543    |   6.1 |  0.12
Modify  | 12.325     | 15.225     | 16.858     |  32.7 | 15.77
Other   |            | 2.468      |            |       |  2.56

Nlocal:        27.4286 ave          35 max          19 min
Histogram: 1 4 3 8 2 18 9 4 5 2
Nghost:        4255.05 ave        4347 max        4195 min
Histogram: 4 7 12 9 8 5 6 1 3 1
Neighs:        12006.4 ave       15211 max        8340 min
Histogram: 1 4 3 8 5 15 8 5 4 3

Total # of neighbors = 672357
Ave neighs/atom = 437.73242
Ave special neighs/atom = 2
Neighbor list builds = 1108
Dangerous builds = 0
kspace_style pppm/tip4p 1.0e-5
next nloop
jump SELF loop_start
run 100000 # 100ps
PPPM initialization ...
  extracting TIP4P info from pair style
  using 12-bit tables for long-range coulomb
  G vector (1/distance) = 0.33076043
  grid = 27 36 27
  stencil order = 5
  estimated absolute RMS force accuracy = 0.0030647381
  estimated relative force accuracy = 9.2293678e-06
  using double precision KISS FFT
  3d grid and FFT values/proc = 5148 540
Generated 0 of 1 mixed pair_coeff terms from geometric mixing rule
Per MPI rank memory allocation (min/avg/max) = 9.785 | 9.804 | 9.818 Mbytes
   Step          Temp          TotEng         PotEng          Pxy           v_sxy         v_strain     v_viscosity  
   4200000   240.94221     -5586.8263     -6321.5479     -761.16758      0.07773128     0.42           0.7773128    
   4201000   239.53344     -5573.1218     -6303.5476     -796.15616      0.070727839    0.4201         0.70727839   
   4202000   258.43418     -5490.3955     -6278.4566      152.72485     -0.011273709    0.4202        -0.11273709   
   4203000   250.227       -5553.3048     -6316.3392      77.443307     -0.011573967    0.4203        -0.11573967   
   4204000   229.82507     -5571.3876     -6272.2089     -19.33945      -0.0057067191   0.4204        -0.057067191  
   4205000   249.615       -5530.7801     -6291.9482      640.18166     -0.075205366    0.4205        -0.75205366   
   4206000   256.15967     -5496.6149     -6277.7402     -826.1179       0.086538012    0.4206         0.86538012   
   4207000   245.39357     -5574.5273     -6322.8228      362.90233     -0.03546797     0.4207        -0.3546797    
   4208000   252.041       -5551.1967     -6319.7626      616.96801     -0.060250845    0.4208        -0.60250845   
   4209000   246.91317     -5518.5376     -6271.4669     -48.030321      0.0081156185   0.4209         0.081156185  
   4210000   242.08036     -5573.6434     -6311.8356      2.669321      -0.0072801439   0.421         -0.072801439  
   4211000   245.52024     -5586.1738     -6334.8556     -219.70668      0.018572893    0.4211         0.18572893   
   4212000   250.08093     -5511.9649     -6274.5539      248.74064     -0.01735289     0.4212        -0.1735289    
   4213000   238.99745     -5570.3347     -6299.126      -122.34955      0.0098880124   0.4213         0.098880124  
   4214000   254.14125     -5467.3345     -6242.3049     -64.127269      0.0069760806   0.4214         0.069760806  
   4215000   247.23943     -5512.5825     -6266.5067      572.57693     -0.057300178    0.4215        -0.57300178   
   4216000   243.5681      -5508.5574     -6251.2863     -229.14759      0.021327593    0.4216         0.21327593   
   4217000   248.24361     -5513.3005     -6270.2868     -75.233697      0.0085583445   0.4217         0.085583445  
   4218000   244.67823     -5562.9652     -6309.0793      228.89418     -0.014557476    0.4218        -0.14557476   
   4219000   251.24669     -5502.4487     -6268.5925      126.80302     -0.0044805165   0.4219        -0.044805165  
   4220000   250.43677     -5485.915      -6249.5891     -402.69439      0.045287032    0.422          0.45287032   
   4221000   247.17562     -5556.1993     -6309.9289     -168.05022      0.023232454    0.4221         0.23232454   
   4222000   254.74914     -5515.3579     -6292.1819      57.199387     -0.0022544225   0.4222        -0.022544225  
   4223000   242.55754     -5517.5356     -6257.183      -1379.8377      0.13447712     0.4223         1.3447712    
   4224000   246.94059     -5529.7213     -6282.7342      61.092909     -0.0012707851   0.4224        -0.012707851  
   4225000   244.24848     -5510.7761     -6255.5798      318.09723     -0.024476305    0.4225        -0.24476305   
   4226000   252.37299     -5522.9475     -6292.5258      96.928869     -0.006209475    0.4226        -0.06209475   
   4227000   247.82719     -5566.4274     -6322.1438     -31.0184        0.0043937257   0.4227         0.043937257  
   4228000   244.41744     -5595.6983     -6341.0172     -175.2187       0.026644026    0.4228         0.26644026   
   4229000   244.50734     -5577.1734     -6322.7664     -457.80423      0.048576647    0.4229         0.48576647   
   4230000   243.08337     -5584.8016     -6326.0524     -876.41615      0.090194279    0.423          0.90194279   
   4231000   241.02001     -5566.2507     -6301.2096     -122.80751      0.019426024    0.4231         0.19426024   
   4232000   249.31981     -5569.6561     -6329.9241      1310.8932     -0.13203764     0.4232        -1.3203764    
   4233000   252.50806     -5584.5298     -6354.52        297.21467     -0.012888801    0.4233        -0.12888801   
   4234000   248.90133     -5586.909      -6345.901       850.24802     -0.088898296    0.4234        -0.88898296   
   4235000   248.78479     -5574.7423     -6333.3789      258.36578     -0.021494671    0.4235        -0.21494671   
   4236000   250.75928     -5540.9825     -6305.64        197.54177     -0.017869483    0.4236        -0.17869483   
   4237000   248.97324     -5561.8237     -6321.0349     -46.227875      0.0093287904   0.4237         0.093287904  
   4238000   250.18502     -5512.9121     -6275.8185      33.231878      0.011611726    0.4238         0.11611726   
   4239000   248.559       -5608.4526     -6366.4006      972.4517      -0.094562933    0.4239        -0.94562933   
   4240000   248.21754     -5554.9514     -6311.8582      342.60062     -0.036713271    0.424         -0.36713271   
   4241000   246.18479     -5569.5754     -6320.2835      427.43831     -0.042893878    0.4241        -0.42893878   
   4242000   234.95394     -5591.8189     -6308.28        160.11523     -0.010357397    0.4242        -0.10357397   
   4243000   246.78743     -5550.2724     -6302.8182      118.18671     -0.016829642    0.4243        -0.16829642   
   4244000   247.12058     -5546.305      -6299.8668      667.9708      -0.059310128    0.4244        -0.59310128   
   4245000   243.65752     -5585.8129     -6328.8146     -0.2524099     -0.012114862    0.4245        -0.12114862   
   4246000   245.884       -5541.5384     -6291.3294     -93.002552      0.011634882    0.4246         0.11634882   
   4247000   240.07493     -5546.8054     -6278.8824      462.68782     -0.040302935    0.4247        -0.40302935   
   4248000   238.5022      -5629.8193     -6357.1004      357.5747      -0.032452751    0.4248        -0.32452751   
   4249000   241.90102     -5550.455      -6288.1004      1366.2654     -0.13966422     0.4249        -1.3966422    
   4250000   237.82397     -5601.9969     -6327.2098     -1077.9377      0.10501558     0.425          1.0501558    
   4251000   233.2974      -5550.229      -6261.6388      224.19068     -0.032074247    0.4251        -0.32074247   
   4252000   252.74906     -5528.2453     -6298.9703     -147.30643      0.010309664    0.4252         0.10309664   
   4253000   249.5244      -5545.685      -6306.5769     -254.39336      0.033623132    0.4253         0.33623132   
   4254000   258.13419     -5529.7745     -6316.9208      127.14688      0.0015313559   0.4254         0.015313559  
   4255000   236.84641     -5581.8051     -6304.0371     -62.330947      0.011284758    0.4255         0.11284758   
   4256000   252.69323     -5502.6609     -6273.2157      29.971038      0.0023662862   0.4256         0.023662862  
   4257000   251.69312     -5523.0154     -6290.5205      80.241948     -0.0036065347   0.4257        -0.036065347  
   4258000   247.2529      -5516.844      -6270.8092     -201.54306      0.021877285    0.4258         0.21877285   
   4259000   244.49938     -5531.08       -6276.6487      464.11895     -0.055092096    0.4259        -0.55092096   
   4260000   253.83168     -5525.1053     -6299.1316      110.12635     -0.0087206018   0.426         -0.087206018  
   4261000   241.40866     -5554.1912     -6290.3352     -53.622775     -0.0035547729   0.4261        -0.035547729  
   4262000   241.53987     -5518.6569     -6255.201      -71.58336       0.0098700096   0.4262         0.098700096  
   4263000   239.88806     -5544.585      -6276.0921      734.83901     -0.068469861    0.4263        -0.68469861   
   4264000   246.29607     -5476.5155     -6227.563       206.01365     -0.018963829    0.4264        -0.18963829   
   4265000   246.64576     -5489.7637     -6241.8776     -407.70681      0.033234834    0.4265         0.33234834   
   4266000   242.02751     -5562.9922     -6301.0233      63.613266     -0.0065174128   0.4266        -0.065174128  
   4267000   255.71536     -5533.6557     -6313.4261     -600.86733      0.041354288    0.4267         0.41354288   
   4268000   244.73547     -5575.6844     -6321.9731     -97.43488       0.021929932    0.4268         0.21929932   
   4269000   243.77904     -5558.578      -6301.9502      4.7127589      0.0028122304   0.4269         0.028122304  
   4270000   254.46252     -5484.5468     -6260.4969      94.321552     -0.0063539327   0.427         -0.063539327  
   4271000   233.00503     -5571.944      -6282.4623      1015.2947     -0.105627       0.4271        -1.05627      
   4272000   257.51867     -5541.2425     -6326.5118     -435.42426      0.034535096    0.4272         0.34535096   
   4273000   243.56787     -5522.482      -6265.2102      125.93252     -0.0071077977   0.4273        -0.071077977  
   4274000   250.69227     -5591.1075     -6355.5607      344.01066     -0.038679271    0.4274        -0.38679271   
   4275000   252.42847     -5531.4298     -6301.1772      634.74018     -0.057686121    0.4275        -0.57686121   
   4276000   246.83615     -5556.5791     -6309.2736     -302.85339      0.027755967    0.4276         0.27755967   
   4277000   245.61659     -5498.0422     -6247.0177      745.16788     -0.065575377    0.4277        -0.65575377   
   4278000   245.3296      -5558.4839     -6306.5843     -198.49882      0.0068325688   0.4278         0.068325688  
   4279000   246.18994     -5534.0755     -6284.7994      479.52777     -0.041643209    0.4279        -0.41643209   
   4280000   247.43044     -5562.6869     -6317.1935     -487.09678      0.051669055    0.428          0.51669055   
   4281000   251.36504     -5531.9199     -6298.4246     -397.19183      0.033660045    0.4281         0.33660045   
   4282000   236.08358     -5585.495      -6305.4009     -189.99127      0.021211348    0.4282         0.21211348   
   4283000   256.52627     -5478.3336     -6260.5767      354.59609     -0.031216446    0.4283        -0.31216446   
   4284000   235.21575     -5563.9503     -6281.2099     -479.83248      0.044432773    0.4284         0.44432773   
   4285000   249.58238     -5524.5113     -6285.5799     -335.35084      0.027678715    0.4285         0.27678715   
   4286000   240.24728     -5563.203      -6295.8056      121.4679      -0.015373564    0.4286        -0.15373564   
   4287000   237.51373     -5620.0727     -6344.3396      649.129       -0.061144772    0.4287        -0.61144772   
   4288000   249.57667     -5482.9334     -6243.9847      273.20422     -0.035183543    0.4288        -0.35183543   
   4289000   242.9625      -5529.1783     -6270.0606      106.01604     -0.00085988171  0.4289        -0.0085988171 
   4290000   243.62084     -5568.0914     -6310.9811      660.03631     -0.069004053    0.429         -0.69004053   
   4291000   247.40843     -5580.2503     -6334.6898      479.5484      -0.055650376    0.4291        -0.55650376   
   4292000   244.3237      -5566.6512     -6311.6842      2.1088648      0.0011840203   0.4292         0.011840203  
   4293000   249.56795     -5563.68       -6324.7047     -18.825917     -0.0053365636   0.4293        -0.053365636  
   4294000   232.56982     -5625.8009     -6334.9921      965.57318     -0.10134952     0.4294        -1.0134952    
   4295000   249.80699     -5592.8093     -6354.5629      137.95837     -0.012426749    0.4295        -0.12426749   
   4296000   253.9285      -5538.0649     -6312.3865     -605.55682      0.058385319    0.4296         0.58385319   
   4297000   243.24864     -5598.879      -6340.6338     -49.924864      0.0039707634   0.4297         0.039707634  
   4298000   247.40039     -5528.2496     -6282.6646     -588.77546      0.066375267    0.4298         0.66375267   
   4299000   253.57813     -5570.818      -6344.0712     -188.99895      0.021433389    0.4299         0.21433389   
   4300000   236.20268     -5595.7845     -6316.0535      55.527091      0.0013280217   0.43           0.013280217  
Loop time of 96.6604 on 56 procs for 100000 steps with 1536 atoms

Performance: 89.385 ns/day, 0.269 hours/ns, 1034.550 timesteps/s, 1.589 Matom-step/s
99.8% CPU use with 56 MPI tasks x no OpenMP threads

MPI task timing breakdown:
Section |  min time  |  avg time  |  max time  |%varavg| %total
---------------------------------------------------------------
Pair    | 21.438     | 24.423     | 26.819     |  24.7 | 25.27
Bond    | 0.011309   | 0.014535   | 0.025376   |   2.1 |  0.02
Kspace  | 39.86      | 41.966     | 44.989     |  18.6 | 43.42
Neigh   | 1.6658     | 1.6669     | 1.6686     |   0.0 |  1.72
Comm    | 10.395     | 10.719     | 11.063     |   5.7 | 11.09
Output  | 0.078412   | 0.12081    | 0.1564     |   6.1 |  0.12
Modify  | 12.356     | 15.247     | 16.876     |  32.7 | 15.77
Other   |            | 2.503      |            |       |  2.59

Nlocal:        27.4286 ave          34 max          22 min
Histogram: 6 7 3 6 7 13 4 2 4 4
Nghost:        4271.34 ave        4344 max        4200 min
Histogram: 4 3 8 6 11 7 1 6 6 4
Neighs:        12006.7 ave       14967 max        9559 min
Histogram: 4 9 3 7 8 10 5 2 5 3

Total # of neighbors = 672375
Ave neighs/atom = 437.74414
Ave special neighs/atom = 2
Neighbor list builds = 1063
Dangerous builds = 0
kspace_style pppm/tip4p 1.0e-5
next nloop
jump SELF loop_start
run 100000 # 100ps
PPPM initialization ...
  extracting TIP4P info from pair style
  using 12-bit tables for long-range coulomb
  G vector (1/distance) = 0.33025544
  grid = 27 36 27
  stencil order = 5
  estimated absolute RMS force accuracy = 0.003159078
  estimated relative force accuracy = 9.5134696e-06
  using double precision KISS FFT
  3d grid and FFT values/proc = 5148 540
Generated 0 of 1 mixed pair_coeff terms from geometric mixing rule
Per MPI rank memory allocation (min/avg/max) = 9.785 | 9.804 | 9.818 Mbytes
   Step          Temp          TotEng         PotEng          Pxy           v_sxy         v_strain     v_viscosity  
   4300000   236.20268     -5595.7843     -6316.0534      55.691723      0.0013113239   0.43           0.013113239  
   4301000   257.05921     -5503.2496     -6287.1179     -318.52583      0.038209236    0.4301         0.38209236   
   4302000   242.0333      -5594.0355     -6332.0843      457.6381      -0.048407147    0.4302        -0.48407147   
   4303000   243.63257     -5526.3131     -6269.2386      657.70583     -0.061484439    0.4303        -0.61484439   
   4304000   240.01862     -5492.4735     -6224.3788      178.10088     -0.025262012    0.4304        -0.25262012   
   4305000   236.29554     -5558.3393     -6278.8915     -548.60116      0.055905771    0.4305         0.55905771   
   4306000   238.23025     -5523.5165     -6249.9683     -173.55739      0.018117022    0.4306         0.18117022   
   4307000   255.06252     -5553.0461     -6330.8258     -170.44753      0.019562279    0.4307         0.19562279   
   4308000   249.55493     -5551.7503     -6312.7352     -414.7203       0.043550085    0.4308         0.43550085   
   4309000   242.22431     -5542.9739     -6281.6051     -216.22287      0.029080372    0.4309         0.29080372   
   4310000   249.86588     -5524.4275     -6286.3607     -594.52816      0.058549754    0.431          0.58549754   
   4311000   246.60496     -5495.2572     -6247.2466     -520.3444       0.051060303    0.4311         0.51060303   
   4312000   253.85175     -5547.2549     -6321.3425     -252.82171      0.024696622    0.4312         0.24696622   
   4313000   244.70637     -5550.8721     -6297.072      -153.46991      0.018325668    0.4313         0.18325668   
   4314000   242.2104      -5570.7157     -6309.3045     -339.16607      0.018682697    0.4314         0.18682697   
   4315000   249.89608     -5520.8086     -6282.8338     -212.3395       0.01384914     0.4315         0.1384914    
   4316000   248.12438     -5547.3949     -6304.0176      230.08744     -0.025653168    0.4316        -0.25653168   
   4317000   254.10337     -5472.2924     -6247.1473     -120.85943      0.014583665    0.4317         0.14583665   
   4318000   246.9335      -5559.2564     -6312.2477      105.60724     -0.0080086699   0.4318        -0.080086699  
   4319000   243.23404     -5503.4075     -6245.1178     -325.66291      0.033056667    0.4319         0.33056667   
   4320000   252.70469     -5499.7499     -6270.3397     -141.62469      0.014140354    0.432          0.14140354   
   4321000   235.79077     -5577.9335     -6296.9465      493.62342     -0.055230248    0.4321        -0.55230248   
   4322000   253.15615     -5480.5087     -6252.4752     -630.02338      0.052892021    0.4322         0.52892021   
   4323000   252.64658     -5532.2611     -6302.6737     -145.80893      0.013670882    0.4323         0.13670882   
   4324000   253.69395     -5540.0757     -6313.6821      160.55571     -0.022510847    0.4324        -0.22510847   
   4325000   249.85203     -5499.7335     -6261.6245     -530.65048      0.063738643    0.4325         0.63738643   
   4326000   247.97978     -5547.5855     -6303.7673     -913.4321       0.096233435    0.4326         0.96233435   
   4327000   247.53315     -5522.0253     -6276.8452     -431.66151      0.034079007    0.4327         0.34079007   
   4328000   252.04005     -5485.4967     -6254.0598     -338.37295      0.029495164    0.4328         0.29495164   
   4329000   245.97284     -5547.0494     -6297.1113     -479.30693      0.041308643    0.4329         0.41308643   
   4330000   253.43088     -5522.1534     -6294.9576      587.59546     -0.065730672    0.433         -0.65730672   
   4331000   238.83446     -5552.9109     -6281.2052      840.58365     -0.083215784    0.4331        -0.83215784   
   4332000   247.26259     -5515.6776     -6269.6723     -322.86364      0.037895397    0.4332         0.37895397   
   4333000   250.00959     -5548.6206     -6310.992      -616.76171      0.05949142     0.4333         0.5949142    
   4334000   248.97353     -5510.6342     -6269.8463      125.48145     -0.011626632    0.4334        -0.11626632   
   4335000   256.29802     -5468.5398     -6250.0869     -248.81665      0.036744365    0.4335         0.36744365   
   4336000   237.35284     -5536.0241     -6259.8004      129.08426     -0.014562369    0.4336        -0.14562369   
   4337000   253.03942     -5442.4495     -6214.06        423.7585      -0.052331727    0.4337        -0.52331727   
   4338000   240.02697     -5505.9583     -6237.889      -162.41537      0.018380808    0.4338         0.18380808   
   4339000   243.87236     -5479.3717     -6223.0285     -100.40443      0.025790229    0.4339         0.25790229   
   4340000   249.45374     -5481.0745     -6241.7509     -94.240967      0.0078181698   0.434          0.078181698  
   4341000   243.33827     -5528.7584     -6270.7865     -828.43291      0.078415568    0.4341         0.78415568   
   4342000   243.36213     -5530.5978     -6272.6986     -413.6398       0.042036863    0.4342         0.42036863   
   4343000   242.05515     -5582.6946     -6320.81       -340.18988      0.039793277    0.4343         0.39793277   
   4344000   248.31502     -5532.5675     -6289.7716     -124.18819      0.015924948    0.4344         0.15924948   
   4345000   246.44477     -5558.6092     -6310.1102      701.68622     -0.075636057    0.4345        -0.75636057   
   4346000   239.68533     -5531.2662     -6262.1551      227.81054     -0.022791921    0.4346        -0.22791921   
   4347000   254.61293     -5483.7707     -6260.1794     -116.64946      0.018060481    0.4347         0.18060481   
   4348000   250.00735     -5472.8938     -6235.2583     -461.68449      0.053499842    0.4348         0.53499842   
   4349000   243.56762     -5524.5545     -6267.282      -1364.6169      0.14136601     0.4349         1.4136601    
   4350000   246.57634     -5523.3529     -6275.255      -903.06053      0.098021876    0.435          0.98021876   
   4351000   240.451       -5499.5723     -6232.7961     -1411.869       0.15081071     0.4351         1.5081071    
   4352000   246.12121     -5544.606      -6295.1203     -1048.8316      0.10349014     0.4352         1.0349014    
   4353000   249.34424     -5541.2887     -6301.6312     -395.82095      0.036933693    0.4353         0.36933693   
   4354000   240.48229     -5568.3959     -6301.7151      151.82329     -0.012529282    0.4354        -0.12529282   
   4355000   248.46104     -5534.0194     -6291.6687     -689.54779      0.067590279    0.4355         0.67590279   
   4356000   247.64675     -5487.106      -6242.2723     -611.01753      0.059202584    0.4356         0.59202584   
   4357000   237.99016     -5602.7582     -6328.478      -466.23219      0.042348427    0.4357         0.42348427   
   4358000   247.63942     -5517.1092     -6272.2531     -753.35689      0.086785674    0.4358         0.86785674   
   4359000   256.16623     -5498.4259     -6279.5712      149.90835     -0.018187476    0.4359        -0.18187476   
   4360000   242.2594      -5546.9142     -6285.6524     -578.25618      0.055007296    0.436          0.55007296   
   4361000   257.21785     -5479.4951     -6263.8472      299.56889     -0.023216386    0.4361        -0.23216386   
   4362000   236.41124     -5540.0683     -6260.9734     -558.31523      0.05148545     0.4362         0.5148545    
   4363000   255.66953     -5506.8487     -6286.4794      344.97556     -0.045197374    0.4363        -0.45197374   
   4364000   237.20811     -5593.9384     -6317.2734      42.188398      0.00086393614  0.4364         0.0086393614 
   4365000   237.80763     -5559.5574     -6284.7205     -210.43985      0.024565229    0.4365         0.24565229   
   4366000   248.06485     -5554.0088     -6310.45        465.71486     -0.043913999    0.4366        -0.43913999   
   4367000   244.05488     -5527.3456     -6271.5589     -540.81031      0.050487766    0.4367         0.50487766   
   4368000   243.56994     -5563.7814     -6306.5159      116.69572     -0.013357786    0.4368        -0.13357786   
   4369000   245.42016     -5574.7108     -6323.0873     -54.916623      0.0040414927   0.4369         0.040414927  
   4370000   248.1052      -5538.3963     -6294.9605     -1513.8356      0.15326487     0.437          1.5326487    
   4371000   245.73343     -5545.1485     -6294.4804     -86.890299      0.011783457    0.4371         0.11783457   
   4372000   257.27444     -5536.4142     -6320.9388     -274.87255      0.036577522    0.4372         0.36577522   
   4373000   250.43143     -5506.0025     -6269.6602      525.60584     -0.059245268    0.4373        -0.59245268   
   4374000   245.47332     -5571.8045     -6320.3432     -745.30461      0.078129001    0.4374         0.78129001   
   4375000   248.47474     -5520.8628     -6278.5538      485.36535     -0.044800359    0.4375        -0.44800359   
   4376000   247.38423     -5554.9932     -6309.3589      14.173694     -0.0060836067   0.4376        -0.060836067  
   4377000   257.57721     -5470.9807     -6256.4286     -281.66192      0.029146479    0.4377         0.29146479   
   4378000   242.69437     -5552.7591     -6292.8237      417.39786     -0.048452794    0.4378        -0.48452794   
   4379000   250.3782      -5486.8434     -6250.3388     -1185.4395      0.12044412     0.4379         1.2044412    
   4380000   246.05379     -5575.4174     -6325.7261      185.26796     -0.019300151    0.438         -0.19300151   
   4381000   255.43786     -5526.5008     -6305.4251      214.02253     -0.030403613    0.4381        -0.30403613   
   4382000   254.93583     -5499.0203     -6276.4136      240.60834     -0.028653482    0.4382        -0.28653482   
   4383000   258.8659      -5521.6232     -6311.0008     -549.26579      0.050997606    0.4383         0.50997606   
   4384000   248.33998     -5498.1654     -6255.4455      233.41311     -0.023318306    0.4384        -0.23318306   
   4385000   243.82508     -5584.762      -6328.2746     -1229.2971      0.13100353     0.4385         1.3100353    
   4386000   240.30257     -5576.1567     -6308.9279      443.45016     -0.05185625     0.4386        -0.5185625    
   4387000   242.92835     -5573.9063     -6314.6844      310.17575     -0.037729708    0.4387        -0.37729708   
   4388000   235.84759     -5545.3883     -6264.5746      89.827004     -0.0051471128   0.4388        -0.051471128  
   4389000   245.92286     -5594.0228     -6343.9323      470.13227     -0.052530457    0.4389        -0.52530457   
   4390000   246.91343     -5561.4889     -6314.4189     -400.26878      0.035361769    0.439          0.35361769   
   4391000   255.02686     -5508.1465     -6285.8174      669.09968     -0.074923369    0.4391        -0.74923369   
   4392000   245.36928     -5612.4381     -6360.6595      92.600573     -0.014767945    0.4392        -0.14767945   
   4393000   247.80949     -5546.7196     -6302.3821      36.105409      0.00030382934  0.4393         0.0030382934 
   4394000   238.46072     -5630.9237     -6358.0783     -145.68943      0.0079842703   0.4394         0.079842703  
   4395000   245.83455     -5587.5423     -6337.1824      156.78732     -0.01875737     0.4395        -0.1875737    
   4396000   239.80347     -5539.0306     -6270.2798      737.96999     -0.064772842    0.4396        -0.64772842   
   4397000   249.36123     -5521.7727     -6282.167       205.90138     -0.016565821    0.4397        -0.16565821   
   4398000   239.72361     -5575.4029     -6306.4086      217.48925     -0.013369104    0.4398        -0.13369104   
   4399000   250.66897     -5534.876      -6299.2581      1317.2174     -0.13156712     0.4399        -1.3156712    
   4400000   249.36773     -5577.6131     -6338.0272      340.90219     -0.033584175    0.44          -0.33584175   
Loop time of 96.8447 on 56 procs for 100000 steps with 1536 atoms

Performance: 89.215 ns/day, 0.269 hours/ns, 1032.581 timesteps/s, 1.586 Matom-step/s
99.8% CPU use with 56 MPI tasks x no OpenMP threads

MPI task timing breakdown:
Section |  min time  |  avg time  |  max time  |%varavg| %total
---------------------------------------------------------------
Pair    | 21.709     | 24.459     | 27.791     |  22.5 | 25.26
Bond    | 0.01136    | 0.014513   | 0.023932   |   2.0 |  0.01
Kspace  | 38.921     | 42.015     | 44.713     |  16.9 | 43.38
Neigh   | 1.7118     | 1.7137     | 1.7151     |   0.1 |  1.77
Comm    | 10.437     | 10.706     | 10.983     |   4.6 | 11.05
Output  | 0.077971   | 0.12013    | 0.15587    |   6.1 |  0.12
Modify  | 12.329     | 15.244     | 16.861     |  32.8 | 15.74
Other   |            | 2.573      |            |       |  2.66

Nlocal:        27.4286 ave          34 max          21 min
Histogram: 1 1 5 15 11 6 9 4 1 3
Nghost:        4328.02 ave        4371 max        4287 min
Histogram: 5 8 7 2 5 4 8 10 3 4
Neighs:        12009.1 ave       14889 max        9168 min
Histogram: 1 1 8 12 11 6 4 9 1 3

Total # of neighbors = 672512
Ave neighs/atom = 437.83333
Ave special neighs/atom = 2
Neighbor list builds = 1094
Dangerous builds = 0
kspace_style pppm/tip4p 1.0e-5
next nloop
jump SELF loop_start
run 100000 # 100ps
PPPM initialization ...
  extracting TIP4P info from pair style
  using 12-bit tables for long-range coulomb
  G vector (1/distance) = 0.32971622
  grid = 27 36 27
  stencil order = 5
  estimated absolute RMS force accuracy = 0.0032627098
  estimated relative force accuracy = 9.8255537e-06
  using double precision KISS FFT
  3d grid and FFT values/proc = 5148 540
Generated 0 of 1 mixed pair_coeff terms from geometric mixing rule
Per MPI rank memory allocation (min/avg/max) = 9.785 | 9.804 | 9.818 Mbytes
   Step          Temp          TotEng         PotEng          Pxy           v_sxy         v_strain     v_viscosity  
   4400000   249.36845     -5577.6105     -6338.0268      341.06938     -0.033601478    0.44          -0.33601478   
   4401000   247.76468     -5586.5127     -6342.0385     -106.27576      0.0066691777   0.4401         0.066691777  
   4402000   252.17197     -5530.2071     -6299.1724      16.68221       0.00022142244  0.4402         0.0022142244 
   4403000   245.17647     -5545.021      -6292.6544     -774.28643      0.079777093    0.4403         0.79777093   
   4404000   240.27745     -5602.5366     -6335.2312      672.98234     -0.0586897      0.4404        -0.586897     
   4405000   243.07623     -5514.8613     -6256.0903     -316.01784      0.039440086    0.4405         0.39440086   
   4406000   237.90526     -5551.0797     -6276.5406      367.49722     -0.031067866    0.4406        -0.31067866   
   4407000   250.37808     -5524.4362     -6287.9313      257.30811     -0.039741163    0.4407        -0.39741163   
   4408000   243.01834     -5496.7263     -6237.7788      933.88826     -0.098159999    0.4408        -0.98159999   
   4409000   251.74498     -5493.7916     -6261.4548      273.69256     -0.013259486    0.4409        -0.13259486   
   4410000   256.3678      -5480.7421     -6262.502       1010.1466     -0.090083447    0.441         -0.90083447   
   4411000   245.57541     -5504.8045     -6253.6544      155.19505     -0.015832661    0.4411        -0.15832661   
   4412000   246.9272      -5494.3379     -6247.31        572.77443     -0.052534573    0.4412        -0.52534573   
   4413000   242.59518     -5537.0721     -6276.8343     -38.058157      0.011391546    0.4413         0.11391546   
   4414000   239.77449     -5552.8557     -6284.0166      1031.9714     -0.1050859      0.4414        -1.050859     
   4415000   260.10304     -5496.7745     -6289.9246      275.85962     -0.017100468    0.4415        -0.17100468   
   4416000   251.73714     -5577.1042     -6344.7436      868.42052     -0.088100097    0.4416        -0.88100097   
   4417000   244.48262     -5558.5307     -6304.0483      270.98262     -0.028889879    0.4417        -0.28889879   
   4418000   243.90787     -5548.0197     -6291.7847      1069.6053     -0.11038971     0.4418        -1.1038971    
   4419000   237.18035     -5552.8789     -6276.1292      248.17879     -0.027892992    0.4419        -0.27892992   
   4420000   248.92438     -5522.807      -6281.8692      303.59699     -0.02804282     0.442         -0.2804282    
   4421000   246.91038     -5561.6266     -6314.5474     -220.47399      0.020483465    0.4421         0.20483465   
   4422000   239.94704     -5617.5542     -6349.2412      113.17585     -0.0098152053   0.4422        -0.098152053  
   4423000   252.85107     -5584.1102     -6355.1464      219.53609     -0.019154597    0.4423        -0.19154597   
   4424000   254.13738     -5540.3086     -6315.2671      124.55738     -0.011644585    0.4424        -0.11644585   
   4425000   247.8293      -5573.8311     -6329.5541      203.34452     -0.022052883    0.4425        -0.22052883   
   4426000   238.05424     -5623.857      -6349.7722      357.88746     -0.044847468    0.4426        -0.44847468   
   4427000   245.23316     -5593.0143     -6340.8206      1538.7456     -0.15077414     0.4427        -1.5077414    
   4428000   234.73871     -5625.3714     -6341.1763     -838.3349       0.082885092    0.4428         0.82885092   
   4429000   252.39132     -5558.674      -6328.3082      364.45899     -0.041391176    0.4429        -0.41391176   
   4430000   241.17106     -5600.2384     -6335.6578      277.41914     -0.018169672    0.443         -0.18169672   
   4431000   253.9104      -5483.3421     -6257.6085     -422.17148      0.049134555    0.4431         0.49134555   
   4432000   247.5075      -5581.1728     -6335.9144     -439.14983      0.042992034    0.4432         0.42992034   
   4433000   246.66116     -5593.8042     -6345.9651      37.189363      0.0056154172   0.4433         0.056154172  
   4434000   249.81578     -5519.4184     -6281.1988     -537.65303      0.054787741    0.4434         0.54787741   
   4435000   235.95822     -5565.3796     -6284.9032     -31.762494      0.004144603    0.4435         0.04144603   
   4436000   235.48621     -5518.1307     -6236.215      -464.67361      0.036789879    0.4436         0.36789879   
   4437000   256.24451     -5507.3636     -6288.7476      514.57865     -0.04911644     0.4437        -0.4911644    
   4438000   239.5397      -5562.477      -6292.9219      536.46446     -0.057521234    0.4438        -0.57521234   
   4439000   244.40874     -5540.5036     -6285.7959      542.94728     -0.057951688    0.4439        -0.57951688   
   4440000   237.85278     -5557.1684     -6282.4692      982.3885      -0.10309048     0.444         -1.0309048    
   4441000   255.28532     -5542.4505     -6320.9096     -55.204105     -0.0011811932   0.4441        -0.011811932  
   4442000   251.85555     -5545.3348     -6313.3352      262.58404     -0.02166914     0.4442        -0.2166914    
   4443000   235.46529     -5578.0855     -6296.1059     -657.78093      0.0596548      0.4443         0.596548     
   4444000   248.78386     -5518.9353     -6277.569       63.63197      -0.0088378391   0.4444        -0.088378391  
   4445000   244.49929     -5524.8359     -6270.4044     -255.46806      0.030388349    0.4445         0.30388349   
   4446000   242.399       -5552.9542     -6292.1181     -577.38625      0.048479594    0.4446         0.48479594   
   4447000   242.31362     -5528.0177     -6266.9213      641.88093     -0.061764929    0.4447        -0.61764929   
   4448000   245.14037     -5503.7769     -6251.3002     -318.84023      0.034114762    0.4448         0.34114762   
   4449000   244.71143     -5522.5556     -6268.7709      246.76034     -0.028090756    0.4449        -0.28090756   
   4450000   245.87569     -5542.8414     -6292.6071     -10.486262      0.00015270093  0.445          0.0015270093 
   4451000   250.77992     -5496.9762     -6261.6966      460.05461     -0.050362639    0.4451        -0.50362639   
   4452000   241.97313     -5554.4264     -6292.2917      150.38675     -0.010884878    0.4452        -0.10884878   
   4453000   252.24176     -5482.3005     -6251.4786      637.74529     -0.064981193    0.4453        -0.64981193   
   4454000   237.13193     -5530.9249     -6254.0275     -594.69384      0.053516761    0.4454         0.53516761   
   4455000   242.42483     -5531.9992     -6271.2419      28.173259     -0.0024735551   0.4455        -0.024735551  
   4456000   246.55164     -5511.0508     -6262.8776      1543.2215     -0.15629873     0.4456        -1.5629873    
   4457000   245.24506     -5470.1042     -6217.9468      567.94706     -0.067923669    0.4457        -0.67923669   
   4458000   246.5014      -5517.0735     -6268.7471     -632.82173      0.066904113    0.4458         0.66904113   
   4459000   239.44889     -5589.9997     -6320.1677      942.7095      -0.083345283    0.4459        -0.83345283   
   4460000   252.44633     -5461.5713     -6231.3732     -88.010766      0.016082571    0.446          0.16082571   
   4461000   232.86761     -5558.8995     -6268.9986      105.81956      0.001705446    0.4461         0.01705446   
   4462000   247.35171     -5491.5699     -6245.8365     -575.35652      0.050653437    0.4462         0.50653437   
   4463000   247.46696     -5536.2551     -6290.8731     -595.73924      0.053525272    0.4463         0.53525272   
   4464000   258.04282     -5482.6247     -6269.4924      341.62948     -0.037267935    0.4464        -0.37267935   
   4465000   244.70162     -5499.6769     -6245.8624     -28.012492     -0.00074173952  0.4465        -0.0074173952 
   4466000   242.23424     -5494.5947     -6233.2562     -71.911196      0.0070185185   0.4466         0.070185185  
   4467000   253.35994     -5487.8463     -6260.4342      542.58008     -0.055891162    0.4467        -0.55891162   
   4468000   242.58956     -5567.1759     -6306.9209     -354.44149      0.025815572    0.4468         0.25815572   
   4469000   247.8711      -5528.4864     -6284.3368     -176.8295       0.017048674    0.4469         0.17048674   
   4470000   252.82849     -5502.7596     -6273.7269      399.38205     -0.037749213    0.447         -0.37749213   
   4471000   252.57628     -5514.3992     -6284.5974      1335.6499     -0.13417748     0.4471        -1.3417748    
   4472000   247.11464     -5530.047      -6283.5906     -644.9668       0.06054311     0.4472         0.6054311    
   4473000   247.76096     -5547.2349     -6302.7494     -379.23298      0.03866192     0.4473         0.3866192    
   4474000   246.4246      -5509.2034     -6260.6428     -1244.3311      0.12587118     0.4474         1.2587118    
   4475000   254.11597     -5470.9756     -6245.8689      177.35787     -0.023575519    0.4475        -0.23575519   
   4476000   247.79938     -5512.321      -6267.9527     -766.44119      0.07287277     0.4476         0.7287277    
   4477000   246.97145     -5488.1288     -6241.2358     -363.09936      0.035543319    0.4477         0.35543319   
   4478000   239.16134     -5512.2703     -6241.5614      49.839041     -0.0041494869   0.4478        -0.041494869  
   4479000   243.82257     -5486.07       -6229.5749     -212.63564      0.022768738    0.4479         0.22768738   
   4480000   251.69324     -5490.0854     -6257.5909     -305.06985      0.032435962    0.448          0.32435962   
   4481000   244.7369      -5497.7154     -6244.0085     -341.70739      0.030448566    0.4481         0.30448566   
   4482000   244.69559     -5482.0321     -6228.1991     -756.01626      0.078590713    0.4482         0.78590713   
   4483000   253.62068     -5483.3845     -6256.7675     -962.84039      0.085090693    0.4483         0.85090693   
   4484000   237.76557     -5556.3089     -6281.3438     -546.30177      0.054867725    0.4484         0.54867725   
   4485000   247.17339     -5488.3937     -6242.1165     -890.28526      0.094391694    0.4485         0.94391694   
   4486000   252.86142     -5532.0101     -6303.0778     -320.70073      0.034103265    0.4486         0.34103265   
   4487000   248.19222     -5553.3648     -6310.1944     -161.16145      0.019236252    0.4487         0.19236252   
   4488000   240.48618     -5560.8923     -6294.2233      31.496321     -0.0071398566   0.4488        -0.071398566  
   4489000   243.07105     -5536.7989     -6278.0121      327.05994     -0.036721352    0.4489        -0.36721352   
   4490000   245.43911     -5529.1635     -6277.5979     -178.69682      0.0071559443   0.449          0.071559443  
   4491000   245.41822     -5573.5446     -6321.9152      147.91025     -0.013345721    0.4491        -0.13345721   
   4492000   250.12717     -5580.768      -6343.4979     -190.81462      0.024452947    0.4492         0.24452947   
   4493000   256.9308      -5477.7185     -6261.1952      835.11009     -0.07818313     0.4493        -0.7818313    
   4494000   244.77774     -5558.9131     -6305.3307     -17.204772     -0.0032229632   0.4494        -0.032229632  
   4495000   249.73941     -5514.562      -6276.1096      333.98811     -0.032390822    0.4495        -0.32390822   
   4496000   237.1651      -5541.8137     -6265.0175     -193.36148      0.016949646    0.4496         0.16949646   
   4497000   245.03043     -5525.5773     -6272.7655      242.34478     -0.022785814    0.4497        -0.22785814   
   4498000   246.74123     -5534.6357     -6287.0407      166.01401     -0.015485927    0.4498        -0.15485927   
   4499000   255.47475     -5539.4776     -6318.5143      1.6102062     -0.0056976215   0.4499        -0.056976215  
   4500000   244.83603     -5552.3549     -6298.9502     -78.643972      0.015239851    0.45           0.15239851   
Loop time of 97.2798 on 56 procs for 100000 steps with 1536 atoms

Performance: 88.816 ns/day, 0.270 hours/ns, 1027.963 timesteps/s, 1.579 Matom-step/s
99.8% CPU use with 56 MPI tasks x no OpenMP threads

MPI task timing breakdown:
Section |  min time  |  avg time  |  max time  |%varavg| %total
---------------------------------------------------------------
Pair    | 22.322     | 24.511     | 27.21      |  23.7 | 25.20
Bond    | 0.011463   | 0.014525   | 0.023978   |   1.9 |  0.01
Kspace  | 39.746     | 42.196     | 44.408     |  17.3 | 43.38
Neigh   | 1.7589     | 1.7611     | 1.7628     |   0.1 |  1.81
Comm    | 10.492     | 10.782     | 11.128     |   5.0 | 11.08
Output  | 0.078034   | 0.11996    | 0.15533    |   6.1 |  0.12
Modify  | 12.403     | 15.288     | 16.913     |  32.7 | 15.72
Other   |            | 2.607      |            |       |  2.68

Nlocal:        27.4286 ave          34 max          21 min
Histogram: 5 0 7 10 6 4 13 8 1 2
Nghost:        4310.25 ave        4374 max        4243 min
Histogram: 2 2 1 14 7 11 9 3 5 2
Neighs:        12004.9 ave       15032 max        9124 min
Histogram: 5 0 8 9 6 8 9 8 2 1

Total # of neighbors = 672274
Ave neighs/atom = 437.67839
Ave special neighs/atom = 2
Neighbor list builds = 1102
Dangerous builds = 0
kspace_style pppm/tip4p 1.0e-5
next nloop
jump SELF loop_start
run 100000 # 100ps
PPPM initialization ...
  extracting TIP4P info from pair style
  using 12-bit tables for long-range coulomb
  G vector (1/distance) = 0.33459455
  grid = 27 40 27
  stencil order = 5
  estimated absolute RMS force accuracy = 0.0024364028
  estimated relative force accuracy = 7.3371546e-06
  using double precision KISS FFT
  3d grid and FFT values/proc = 6006 560
Generated 0 of 1 mixed pair_coeff terms from geometric mixing rule
Per MPI rank memory allocation (min/avg/max) = 9.821 | 9.847 | 9.859 Mbytes
   Step          Temp          TotEng         PotEng          Pxy           v_sxy         v_strain     v_viscosity  
   4500000   244.83588     -5552.3604     -6298.9553     -78.547315      0.015229567    0.45           0.15229567   
   4501000   242.40263     -5506.3709     -6245.5459      102.99006     -0.00040838678  0.4501        -0.0040838678 
   4502000   256.52129     -5521.8728     -6304.1008     -67.613452      0.013852015    0.4502         0.13852015   
   4503000   244.60845     -5555.2226     -6301.1239      978.68511     -0.10628843     0.4503        -1.0628843    
   4504000   244.7872      -5537.4713     -6283.9177      612.85419     -0.049237571    0.4504        -0.49237571   
   4505000   243.57909     -5537.054      -6279.8165      587.51837     -0.045479204    0.4505        -0.45479204   
   4506000   238.8933      -5554.6629     -6283.1367     -1161.2257      0.11512935     0.4506         1.1512935    
   4507000   235.05118     -5580.4623     -6297.22       -100.48473      0.0088988229   0.4507         0.088988229  
   4508000   240.87456     -5507.4206     -6241.9359      1127.5443     -0.11351416     0.4508        -1.1351416    
   4509000   251.85484     -5493.3403     -6261.3385     -194.7219       0.016410102    0.4509         0.16410102   
   4510000   241.15163     -5562.4163     -6297.7765      296.6023      -0.025445846    0.451         -0.25445846   
   4511000   232.13647     -5612.2195     -6320.0892     -206.8152       0.023766316    0.4511         0.23766316   
   4512000   244.27035     -5538.3615     -6283.2319      306.64797     -0.021616001    0.4512        -0.21616001   
   4513000   247.11676     -5551.5726     -6305.1227     -1048.5587      0.096460015    0.4513         0.96460015   
   4514000   248.40801     -5564.6697     -6322.1573     -440.21048      0.043785847    0.4514         0.43785847   
   4515000   244.53711     -5558.978      -6304.6618      28.779764     -0.0070897459   0.4515        -0.070897459  
   4516000   251.19853     -5536.3912     -6302.3882     -29.35448       0.014533939    0.4516         0.14533939   
   4517000   243.76989     -5571.3059     -6314.6502     -61.028378      0.0090025173   0.4517         0.090025173  
   4518000   240.28502     -5591.1419     -6323.8595      375.52787     -0.031900486    0.4518        -0.31900486   
   4519000   253.01287     -5537.0265     -6308.556      -248.45649      0.030982105    0.4519         0.30982105   
   4520000   245.93437     -5561.4057     -6311.3503      138.75172     -0.010176082    0.452         -0.10176082   
   4521000   241.88318     -5560.6987     -6298.2897      346.7625      -0.036437059    0.4521        -0.36437059   
   4522000   243.70078     -5543.9534     -6287.0869      436.92353     -0.051542332    0.4522        -0.51542332   
   4523000   255.08777     -5520.1063     -6297.9629     -21.154582     -0.010251822    0.4523        -0.10251822   
   4524000   246.51136     -5541.5838     -6293.2878      286.39563     -0.037896666    0.4524        -0.37896666   
   4525000   238.69314     -5532.5202     -6260.3836     -528.77378      0.047788442    0.4525         0.47788442   
   4526000   241.7256      -5508.5517     -6245.6622     -398.15343      0.048654356    0.4526         0.48654356   
   4527000   235.88007     -5606.0104     -6325.2958      111.69766     -0.010394524    0.4527        -0.10394524   
   4528000   238.84017     -5505.3333     -6233.645       479.9774      -0.05087255     0.4528        -0.5087255    
   4529000   236.38908     -5489.0491     -6209.8865      513.65243     -0.042774596    0.4529        -0.42774596   
   4530000   242.68991     -5475.8019     -6215.8529      232.2441      -0.026882746    0.453         -0.26882746   
   4531000   249.62628     -5486.5177     -6247.7203      67.839707     -0.0097677596   0.4531        -0.097677596  
   4532000   246.74918     -5504.1841     -6256.6133     -420.15991      0.047580688    0.4532         0.47580688   
   4533000   238.10481     -5550.9778     -6277.0471      178.93617     -0.024799813    0.4533        -0.24799813   
   4534000   252.41917     -5512.9372     -6282.6563      764.16558     -0.092479535    0.4534        -0.92479535   
   4535000   252.88331     -5510.2962     -6281.4306      39.952363     -0.010345431    0.4535        -0.10345431   
   4536000   245.88549     -5516.1847     -6265.9802     -156.78646      0.027098883    0.4536         0.27098883   
   4537000   244.47637     -5517.8602     -6263.3588     -238.73864      0.02890879     0.4537         0.2890879    
   4538000   236.91769     -5527.7793     -6250.2286     -660.75395      0.063394863    0.4538         0.63394863   
   4539000   241.647       -5511.4281     -6248.2989      717.74437     -0.06828067     0.4539        -0.6828067    
   4540000   256.66908     -5475.0182     -6257.6968     -27.981366      0.0093140647   0.454          0.093140647  
   4541000   231.01274     -5562.7782     -6267.2212     -45.480291     -0.0062454303   0.4541        -0.062454303  
   4542000   249.51259     -5499.9805     -6260.8363     -107.77575      0.01009281     0.4542         0.1009281    
   4543000   236.13683     -5523.5037     -6243.572      -569.56287      0.061647283    0.4543         0.61647283   
   4544000   240.15393     -5540.8492     -6273.1671     -395.08816      0.038838586    0.4544         0.38838586   
   4545000   237.82935     -5591.6672     -6316.8966     -565.40573      0.05790894     0.4545         0.5790894    
   4546000   240.93863     -5556.6216     -6291.3324     -4.4630396      0.0017816651   0.4546         0.017816651  
   4547000   247.31054     -5523.63       -6277.771      -751.58859      0.076763005    0.4547         0.76763005   
   4548000   250.62742     -5529.1403     -6293.3957     -312.57071      0.025271112    0.4548         0.25271112   
   4549000   248.33771     -5482.4258     -6239.6991     -38.647577      0.0046414662   0.4549         0.046414662  
   4550000   237.27945     -5537.6512     -6261.2037     -211.02857      0.015012113    0.455          0.15012113   
   4551000   255.28876     -5510.004      -6288.4736      493.40505     -0.04884972     0.4551        -0.4884972    
   4552000   255.6131      -5459.4335     -6238.8921      102.93752     -0.019826374    0.4552        -0.19826374   
   4553000   244.49038     -5504.7148     -6250.2561      162.2869      -0.01740557     0.4553        -0.1740557    
   4554000   245.22634     -5505.9473     -6253.7329      502.30721     -0.05482431     0.4554        -0.5482431    
   4555000   254.49923     -5490.521      -6266.5829      200.25326     -0.031118467    0.4555        -0.31118467   
   4556000   241.99394     -5545.8526     -6283.7813     -47.110724      0.0010980795   0.4556         0.010980795  
   4557000   247.20293     -5527.7337     -6281.5465      428.48041     -0.047991392    0.4557        -0.47991392   
   4558000   245.78067     -5514.0929     -6263.5688     -749.89814      0.07898122     0.4558         0.7898122    
   4559000   235.80172     -5540.9689     -6260.0152      675.01709     -0.070823903    0.4559        -0.70823903   
   4560000   236.64277     -5488.0556     -6209.6666     -151.46813      0.0050012264   0.456          0.050012264  
   4561000   244.19385     -5499.2103     -6243.8474     -32.451922      0.00099027112  0.4561         0.0099027112 
   4562000   249.19026     -5502.737      -6262.6099      9.9444343     -0.00054888448  0.4562        -0.0054888448 
   4563000   243.13839     -5542.9121     -6284.3307     -1311.6698      0.12741509     0.4563         1.2741509    
   4564000   242.56012     -5511.6886     -6251.3438     -148.68668      0.012730789    0.4564         0.12730789   
   4565000   252.42589     -5490.4225     -6260.1621     -451.5883       0.043994743    0.4565         0.43994743   
   4566000   240.86085     -5520.0161     -6254.4897      376.16384     -0.033516908    0.4566        -0.33516908   
   4567000   251.6608      -5499.8597     -6267.2663      1218.564      -0.12123092     0.4567        -1.2123092    
   4568000   243.33551     -5551.0429     -6293.0625     -722.44632      0.072256295    0.4568         0.72256295   
   4569000   255.59802     -5494.2295     -6273.6421      16.334407      0.0031300471   0.4569         0.031300471  
   4570000   239.98426     -5544.973      -6276.7735      207.32165     -0.015223602    0.457         -0.15223602   
   4571000   238.84366     -5512.109      -6240.4314      158.37913     -0.0090926716   0.4571        -0.090926716  
   4572000   242.41627     -5499.9754     -6239.192      -43.81033      -0.0006144611   0.4572        -0.006144611  
   4573000   234.77471     -5575.5481     -6291.4627      238.96669     -0.011520397    0.4573        -0.11520397   
   4574000   258.61949     -5485.4532     -6274.0794      68.982264     -0.0079458571   0.4574        -0.079458571  
   4575000   239.57661     -5513.8931     -6244.4505      667.80755     -0.057588994    0.4575        -0.57588994   
   4576000   239.05685     -5514.1454     -6243.1179      576.70727     -0.054079745    0.4576        -0.54079745   
   4577000   252.30322     -5494.0837     -6263.4493      514.81582     -0.049432618    0.4577        -0.49432618   
   4578000   241.73023     -5481.3989     -6218.5235     -486.55777      0.053627496    0.4578         0.53627496   
   4579000   234.5401      -5532.2514     -6247.4507     -1321.0559      0.13112344     0.4579         1.3112344    
   4580000   246.81922     -5474.8069     -6227.4497     -242.89544      0.029039389    0.458          0.29039389   
   4581000   243.63703     -5526.0577     -6268.9969      637.4044      -0.065650106    0.4581        -0.65650106   
   4582000   243.56163     -5503.0906     -6245.7999     -112.59765      0.0078274752   0.4582         0.078274752  
   4583000   244.05683     -5541.7895     -6286.0088      265.74303     -0.021619996    0.4583        -0.21619996   
   4584000   249.31996     -5509.001      -6269.2694     -50.635159      0.0015448076   0.4584         0.015448076  
   4585000   248.8138      -5546.4326     -6305.1576      183.67372     -0.02369878     0.4585        -0.2369878    
   4586000   232.88207     -5562.1448     -6272.2881     -211.32787      0.022528771    0.4586         0.22528771   
   4587000   249.69609     -5480.2632     -6241.6787     -495.15075      0.041819914    0.4587         0.41819914   
   4588000   240.41389     -5558.5602     -6291.6708     -448.76309      0.038991064    0.4588         0.38991064   
   4589000   242.86276     -5506.695      -6247.2731     -207.42284      0.019581076    0.4589         0.19581076   
   4590000   255.78438     -5444.7385     -6224.7194     -23.612836     -0.0021867634   0.459         -0.021867634  
   4591000   242.18537     -5526.0826     -6264.5951     -1069.8981      0.10922811     0.4591         1.0922811    
   4592000   245.64591     -5501.2991     -6250.3641     -631.38306      0.064396312    0.4592         0.64396312   
   4593000   235.71684     -5538.4754     -6257.263      -710.63206      0.06660687     0.4593         0.6660687    
   4594000   258.42122     -5451.2462     -6239.2678     -252.72511      0.026096816    0.4594         0.26096816   
   4595000   249.3329      -5455.9894     -6216.2973      595.47571     -0.057134378    0.4595        -0.57134378   
   4596000   246.97059     -5474.6907     -6227.7951     -486.2494       0.042972215    0.4596         0.42972215   
   4597000   241.26786     -5487.0501     -6222.7648      469.27504     -0.051004396    0.4597        -0.51004396   
   4598000   241.1279      -5539.2199     -6274.5078      321.3581      -0.024052553    0.4598        -0.24052553   
   4599000   260.31654     -5489.5238     -6283.3249      387.4908      -0.03495978     0.4599        -0.3495978    
   4600000   240.76898     -5534.1257     -6268.3191     -115.68092      0.0061248773   0.46           0.061248773  
Loop time of 99.6111 on 56 procs for 100000 steps with 1536 atoms

Performance: 86.737 ns/day, 0.277 hours/ns, 1003.904 timesteps/s, 1.542 Matom-step/s
99.8% CPU use with 56 MPI tasks x no OpenMP threads

MPI task timing breakdown:
Section |  min time  |  avg time  |  max time  |%varavg| %total
---------------------------------------------------------------
Pair    | 22.439     | 24.557     | 27.023     |  23.8 | 24.65
Bond    | 0.011017   | 0.014669   | 0.02424    |   2.0 |  0.01
Kspace  | 41.793     | 44.247     | 46.177     |  17.4 | 44.42
Neigh   | 1.7904     | 1.7923     | 1.7937     |   0.1 |  1.80
Comm    | 10.675     | 10.813     | 10.999     |   2.7 | 10.85
Output  | 0.078369   | 0.1204     | 0.15563    |   6.1 |  0.12
Modify  | 13.784     | 16.36      | 17.155     |  24.7 | 16.42
Other   |            | 1.707      |            |       |  1.71

Nlocal:        27.4286 ave          34 max          20 min
Histogram: 2 2 3 8 9 12 6 8 2 4
Nghost:        4332.11 ave        4392 max        4278 min
Histogram: 2 3 6 8 11 12 9 2 1 2
Neighs:        12002.7 ave       14934 max        8790 min
Histogram: 2 3 2 8 16 5 7 7 2 4

Total # of neighbors = 672149
Ave neighs/atom = 437.59701
Ave special neighs/atom = 2
Neighbor list builds = 1119
Dangerous builds = 0
kspace_style pppm/tip4p 1.0e-5
next nloop
jump SELF loop_start
run 100000 # 100ps
PPPM initialization ...
  extracting TIP4P info from pair style
  using 12-bit tables for long-range coulomb
  G vector (1/distance) = 0.33440157
  grid = 27 40 27
  stencil order = 5
  estimated absolute RMS force accuracy = 0.0024649532
  estimated relative force accuracy = 7.4231333e-06
  using double precision KISS FFT
  3d grid and FFT values/proc = 6006 560
Generated 0 of 1 mixed pair_coeff terms from geometric mixing rule
Per MPI rank memory allocation (min/avg/max) = 9.822 | 9.847 | 9.859 Mbytes
   Step          Temp          TotEng         PotEng          Pxy           v_sxy         v_strain     v_viscosity  
   4600000   240.76883     -5534.1262     -6268.3191     -115.44493      0.0061007747   0.46           0.061007747  
   4601000   251.28487     -5529.6206     -6295.8808     -169.27653      0.033555734    0.4601         0.33555734   
   4602000   250.26426     -5511.1272     -6274.2752     -80.677128      0.018147156    0.4602         0.18147156   
   4603000   238.61346     -5533.7826     -6261.403      -463.80606      0.054512394    0.4603         0.54512394   
   4604000   237.88474     -5563.8331     -6289.2314      826.86477     -0.082618334    0.4604        -0.82618334   
   4605000   255.49247     -5511.2798     -6290.3705     -347.47381      0.03131413     0.4605         0.3131413    
   4606000   248.81058     -5573.6835     -6332.3987      88.978452     -0.0072222726   0.4606        -0.072222726  
   4607000   239.34525     -5547.8197     -6277.6716     -46.830857      0.0024064163   0.4607         0.024064163  
   4608000   239.65691     -5589.8525     -6320.6547      254.9839      -0.021571503    0.4608        -0.21571503   
   4609000   248.3277      -5488.5235     -6245.7662     -716.32386      0.069012762    0.4609         0.69012762   
   4610000   247.58621     -5519.421      -6274.4027      278.9907      -0.022795105    0.461         -0.22795105   
   4611000   245.03159     -5548.9268     -6296.1185     -1094.5331      0.10704165     0.4611         1.0704165    
   4612000   256.70363     -5500.7311     -6283.5151     -579.9407       0.058995083    0.4612         0.58995083   
   4613000   250.82752     -5473.0086     -6237.8742      725.81505     -0.076460112    0.4613        -0.76460112   
   4614000   243.19105     -5478.0299     -6219.609      -164.67153      0.021661582    0.4614         0.21661582   
   4615000   243.88371     -5548.8897     -6292.5811      226.07667     -0.014330422    0.4615        -0.14330422   
   4616000   250.38558     -5512.985      -6276.503      -521.24651      0.051435676    0.4616         0.51435676   
   4617000   250.38783     -5487.5301     -6251.0549     -829.30245      0.077547642    0.4617         0.77547642   
   4618000   230.97788     -5587.8746     -6292.2113     -363.35315      0.030038736    0.4618         0.30038736   
   4619000   242.68745     -5516.7083     -6256.7518      622.80271     -0.062835312    0.4619        -0.62835312   
   4620000   247.52321     -5496.9104     -6251.6999     -550.31912      0.046694078    0.462          0.46694078   
   4621000   243.46258     -5504.1599     -6246.5671      74.467607     -0.0087790851   0.4621        -0.087790851  
   4622000   239.54374     -5519.6601     -6250.1172     -139.30172      0.015443138    0.4622         0.15443138   
   4623000   242.09517     -5515.7915     -6254.029       133.87076     -0.011825342    0.4623        -0.11825342   
   4624000   242.208       -5498.369      -6236.9505      809.74417     -0.087500731    0.4624        -0.87500731   
   4625000   249.98166     -5456.9738     -6219.2601      96.133396     -0.0091090466   0.4625        -0.091090466  
   4626000   245.00934     -5516.786      -6263.9098     -1078.1239      0.091609213    0.4626         0.91609213   
   4627000   253.51227     -5496.1075     -6269.1598     -162.13819      0.022756979    0.4627         0.22756979   
   4628000   239.9455      -5558.4903     -6290.1726      431.2565      -0.041048326    0.4628        -0.41048326   
   4629000   246.80198     -5467.549      -6220.1392      169.50558     -0.0016206629   0.4629        -0.016206629  
   4630000   240.25309     -5545.2853     -6277.9056      30.729276      0.0044176764   0.463          0.044176764  
   4631000   251.67701     -5501.1916     -6268.6476     -302.59054      0.03587069     0.4631         0.3587069    
   4632000   241.06434     -5587.9009     -6322.9949     -156.56254      0.022286047    0.4632         0.22286047   
   4633000   254.09751     -5522.1804     -6297.0174      383.51586     -0.044892564    0.4633        -0.44892564   
   4634000   241.51521     -5574.012      -6310.4809     -109.25473      0.011338884    0.4634         0.11338884   
   4635000   254.291       -5486.4364     -6261.8634      469.65143     -0.051071477    0.4635        -0.51071477   
   4636000   253.01338     -5498.5532     -6270.0842     -211.42779      0.032797409    0.4636         0.32797409   
   4637000   257.37471     -5504.1924     -6289.0228      548.35197     -0.050143584    0.4637        -0.50143584   
   4638000   256.64496     -5508.7915     -6291.3966      1100.8349     -0.10971867     0.4638        -1.0971867    
   4639000   266.19946     -5485.6926     -6297.4329     -13.667249      0.0011302418   0.4639         0.011302418  
   4640000   238.03063     -5570.3719     -6296.2151     -162.48347      0.010291195    0.464          0.10291195   
   4641000   243.71082     -5556.4094     -6299.5736      525.02665     -0.064902714    0.4641        -0.64902714   
   4642000   248.03379     -5535.3067     -6291.6532     -415.26382      0.04023967     0.4642         0.4023967    
   4643000   258.98623     -5488.6048     -6278.3493     -446.75009      0.054091612    0.4643         0.54091612   
   4644000   247.22824     -5572.179      -6326.0691      557.82532     -0.06400199     0.4644        -0.6400199    
   4645000   243.31257     -5559.1428     -6301.0925      468.55479     -0.04903276     0.4645        -0.4903276    
   4646000   248.47037     -5520.644      -6278.3218     -904.85533      0.10250951     0.4646         1.0250951    
   4647000   253.098       -5477.0778     -6248.8669      50.690617      0.0016081674   0.4647         0.016081674  
   4648000   244.97972     -5576.82       -6323.8535      615.06816     -0.073185006    0.4648        -0.73185006   
   4649000   263.01439     -5445.0547     -6247.0825     -204.55791      0.01661954     0.4649         0.1661954    
   4650000   233.03622     -5550.8873     -6261.5006      109.60952     -0.012379679    0.465         -0.12379679   
   4651000   252.99837     -5445.9128     -6217.3981     -129.95362      0.014873564    0.4651         0.14873564   
   4652000   243.50456     -5509.2734     -6251.8086     -575.81018      0.060275337    0.4652         0.60275337   
   4653000   243.87908     -5543.5312     -6287.2084     -325.83593      0.027852323    0.4653         0.27852323   
   4654000   254.2795      -5480.7747     -6256.1667      56.898903     -0.016619354    0.4654        -0.16619354   
   4655000   238.62998     -5542.1053     -6269.7761      341.8464      -0.039074005    0.4655        -0.39074005   
   4656000   238.40133     -5488.9944     -6215.968      -206.85921      0.02255923     0.4656         0.2255923    
   4657000   241.03017     -5515.6973     -6250.6872     -497.83678      0.057252068    0.4657         0.57252068   
   4658000   242.76005     -5522.5348     -6262.7997     -288.5501       0.021542725    0.4658         0.21542725   
   4659000   239.44383     -5537.5077     -6267.6602      329.32628     -0.036458536    0.4659        -0.36458536   
   4660000   238.86154     -5561.2625     -6289.6394      363.23222     -0.035112696    0.466         -0.35112696   
   4661000   262.43283     -5448.2799     -6248.5344      436.86573     -0.035036637    0.4661        -0.35036637   
   4662000   249.03325     -5539.2422     -6298.6364      155.13535     -0.011256004    0.4662        -0.11256004   
   4663000   241.33751     -5517.2496     -6253.1766      411.40229     -0.056527924    0.4663        -0.56527924   
   4664000   245.76683     -5533.5171     -6282.9508     -239.8442       0.020480186    0.4664         0.20480186   
   4665000   256.80087     -5487.8068     -6270.8873      451.29749     -0.048274357    0.4665        -0.48274357   
   4666000   237.18554     -5506.6962     -6229.9623     -279.30133      0.019537216    0.4666         0.19537216   
   4667000   245.28339     -5505.0532     -6253.0127      215.05224     -0.019307584    0.4667        -0.19307584   
   4668000   242.13179     -5508.5763     -6246.9254      290.57783     -0.015952813    0.4668        -0.15952813   
   4669000   239.03184     -5494.4682     -6223.3644      214.59922     -0.028022597    0.4669        -0.28022597   
   4670000   240.38362     -5483.8552     -6216.8735     -341.83764      0.030935403    0.467          0.30935403   
   4671000   254.0067      -5473.1089     -6247.6689     -137.31262      0.014851654    0.4671         0.14851654   
   4672000   231.77345     -5572.7741     -6279.5368      418.89909     -0.051023796    0.4672        -0.51023796   
   4673000   244.41881     -5468.8046     -6214.1276     -72.994649      0.0054515778   0.4673         0.054515778  
   4674000   239.37364     -5527.7813     -6257.7198     -997.59867      0.10086823     0.4674         1.0086823    
   4675000   231.20052     -5563.2413     -6268.257      -62.641106     -0.0027403747   0.4675        -0.027403747  
   4676000   250.15674     -5474.6042     -6237.4243      1095.7469     -0.10740987     0.4676        -1.0740987    
   4677000   244.04765     -5536.8022     -6280.9934     -685.4127       0.067587976    0.4677         0.67587976   
   4678000   243.50641     -5545.7898     -6288.3306     -52.389453     -0.0032812094   0.4678        -0.032812094  
   4679000   242.95704     -5539.721      -6280.5866      1125.0653     -0.11081964     0.4679        -1.1081964    
   4680000   247.60379     -5514.3648     -6269.4        -488.08544      0.050691622    0.468          0.50691622   
   4681000   257.79475     -5503.7735     -6289.8848      285.44101     -0.037673617    0.4681        -0.37673617   
   4682000   257.47645     -5470.2606     -6255.4012     -224.76231      0.022069842    0.4682         0.22069842   
   4683000   243.54432     -5560.8663     -6303.5227      100.96157     -0.0049834931   0.4683        -0.049834931  
   4684000   250.3711      -5469.593      -6233.0668      794.20701     -0.087301739    0.4684        -0.87301739   
   4685000   246.82306     -5573.8697     -6326.5242     -23.749716      0.0093490764   0.4685         0.093490764  
   4686000   241.51096     -5537.082      -6273.5379     -850.46158      0.080517065    0.4686         0.80517065   
   4687000   247.83697     -5482.572      -6238.3183     -21.683528      0.0025699589   0.4687         0.025699589  
   4688000   242.18835     -5556.4821     -6295.0037      99.643609     -0.010083366    0.4688        -0.10083366   
   4689000   239.36871     -5581.5152     -6311.4387     -469.35843      0.037441749    0.4689         0.37441749   
   4690000   237.87488     -5557.1382     -6282.5064      11.239133      0.003091328    0.469          0.03091328   
   4691000   241.89602     -5522.3156     -6259.9457     -129.04318      0.016458621    0.4691         0.16458621   
   4692000   241.86872     -5573.7142     -6311.2611     -550.53992      0.06617868     0.4692         0.6617868    
   4693000   239.45        -5541.656      -6271.8273     -807.35659      0.079328497    0.4693         0.79328497   
   4694000   255.44049     -5498.2717     -6277.2039      161.29281     -0.012268635    0.4694        -0.12268635   
   4695000   243.43778     -5565.4425     -6307.7741      568.60455     -0.056497021    0.4695        -0.56497021   
   4696000   242.82174     -5607.5789     -6348.0319     -275.64901      0.022810444    0.4696         0.22810444   
   4697000   244.02596     -5570.3363     -6314.4614      265.27595     -0.024415814    0.4697        -0.24415814   
   4698000   256.00857     -5511.9607     -6292.6252      183.66755     -0.010180192    0.4698        -0.10180192   
   4699000   244.4303      -5497.7359     -6243.094      -814.67843      0.07865697     0.4699         0.7865697    
   4700000   247.93857     -5493.5604     -6249.6165      104.39104     -0.018489795    0.47          -0.18489795   
Loop time of 99.6925 on 56 procs for 100000 steps with 1536 atoms

Performance: 86.667 ns/day, 0.277 hours/ns, 1003.085 timesteps/s, 1.541 Matom-step/s
99.8% CPU use with 56 MPI tasks x no OpenMP threads

MPI task timing breakdown:
Section |  min time  |  avg time  |  max time  |%varavg| %total
---------------------------------------------------------------
Pair    | 21.409     | 24.492     | 26.606     |  22.1 | 24.57
Bond    | 0.010644   | 0.014669   | 0.0248     |   2.1 |  0.01
Kspace  | 42.17      | 44.209     | 47.231     |  16.0 | 44.35
Neigh   | 1.7733     | 1.7809     | 1.7885     |   0.5 |  1.79
Comm    | 10.8       | 10.972     | 11.192     |   2.5 | 11.01
Output  | 0.078429   | 0.12052    | 0.15595    |   6.1 |  0.12
Modify  | 13.827     | 16.398     | 17.168     |  24.5 | 16.45
Other   |            | 1.705      |            |       |  1.71

Nlocal:        27.4286 ave          35 max          19 min
Histogram: 1 2 2 6 4 22 15 3 0 1
Nghost:        4321.82 ave        4392 max        4253 min
Histogram: 2 3 8 6 11 9 6 3 5 3
Neighs:        11999.7 ave       15229 max        8306 min
Histogram: 1 2 2 6 6 20 14 4 0 1

Total # of neighbors = 671985
Ave neighs/atom = 437.49023
Ave special neighs/atom = 2
Neighbor list builds = 1104
Dangerous builds = 0
kspace_style pppm/tip4p 1.0e-5
next nloop
jump SELF loop_start
run 100000 # 100ps
PPPM initialization ...
  extracting TIP4P info from pair style
  using 12-bit tables for long-range coulomb
  G vector (1/distance) = 0.33418943
  grid = 27 40 27
  stencil order = 5
  estimated absolute RMS force accuracy = 0.0024967051
  estimated relative force accuracy = 7.5187533e-06
  using double precision KISS FFT
  3d grid and FFT values/proc = 6006 560
Generated 0 of 1 mixed pair_coeff terms from geometric mixing rule
Per MPI rank memory allocation (min/avg/max) = 9.822 | 9.847 | 9.859 Mbytes
   Step          Temp          TotEng         PotEng          Pxy           v_sxy         v_strain     v_viscosity  
   4700000   247.93865     -5493.5596     -6249.616       104.60144     -0.018511297    0.47          -0.18511297   
   4701000   250.4463      -5547.7402     -6311.4433      114.34584     -0.013865414    0.4701        -0.13865414   
   4702000   241.49164     -5552.6425     -6289.0396     -455.88341      0.044273158    0.4702         0.44273158   
   4703000   248.6318      -5574.9012     -6333.0712     -189.76729      0.025207152    0.4703         0.25207152   
   4704000   251.77561     -5524.2701     -6292.0267      448.99392     -0.044450936    0.4704        -0.44450936   
   4705000   244.00321     -5585.4627     -6329.5184      130.1335      -0.008621822    0.4705        -0.08621822   
   4706000   244.7699      -5537.8123     -6284.206      -96.206878     -0.0025751456   0.4706        -0.025751456  
   4707000   246.99251     -5537.8407     -6291.0119     -729.63454      0.063149001    0.4707         0.63149001   
   4708000   248.06805     -5553.3746     -6309.8255     -610.8956       0.055640755    0.4708         0.55640755   
   4709000   239.9831      -5555.7251     -6287.522       453.97135     -0.049454948    0.4709        -0.49454948   
   4710000   250.91726     -5575.4966     -6340.6358     -80.886059      0.015393965    0.471          0.15393965   
   4711000   234.4844      -5530.3146     -6245.344       65.495572     -0.0057747087   0.4711        -0.057747087  
   4712000   245.86884     -5563.6647     -6313.4094      295.18537     -0.037218908    0.4712        -0.37218908   
   4713000   239.40261     -5584.1042     -6314.131       631.58243     -0.061103984    0.4713        -0.61103984   
   4714000   248.39908     -5571.6681     -6329.1285     -346.92127      0.027206082    0.4714         0.27206082   
   4715000   239.2793      -5593.5033     -6323.1541     -511.75386      0.039016143    0.4715         0.39016143   
   4716000   248.5048      -5511.9441     -6269.7268      564.03598     -0.055143991    0.4716        -0.55143991   
   4717000   249.71886     -5549.5259     -6311.0108     -294.92978      0.027215908    0.4717         0.27215908   
   4718000   248.47792     -5558.5054     -6316.2063      370.37563     -0.032171252    0.4718        -0.32171252   
   4719000   240.88178     -5553.0892     -6287.6265     -742.57343      0.078943154    0.4719         0.78943154   
   4720000   242.77268     -5569.57       -6309.8734     -313.97073      0.034047351    0.472          0.34047351   
   4721000   239.67991     -5555.7712     -6286.6436     -12.232074      0.0059083581   0.4721         0.059083581  
   4722000   246.2543      -5531.7224     -6282.6425     -830.53519      0.075634595    0.4722         0.75634595   
   4723000   238.75612     -5545.0635     -6273.1189      171.03518     -0.018210306    0.4723        -0.18210306   
   4724000   245.38666     -5524.1102     -6272.3846     -797.15         0.075045554    0.4724         0.75045554   
   4725000   252.03415     -5538.6437     -6307.1888      488.06057     -0.056498683    0.4725        -0.56498683   
   4726000   242.25504     -5550.8637     -6289.5887     -201.15119      0.012371009    0.4726         0.12371009   
   4727000   245.18525     -5584.177      -6331.8372      462.76929     -0.0480323      0.4727        -0.480323     
   4728000   253.73783     -5474.8503     -6248.5905      1207.916      -0.11666693     0.4728        -1.1666693    
   4729000   237.5182      -5548.6679     -6272.9484      573.09984     -0.046776821    0.4729        -0.46776821   
   4730000   244.48749     -5504.8812     -6250.4137     -292.58746      0.036829975    0.473          0.36829975   
   4731000   244.57358     -5526.4458     -6272.2408      204.95519     -0.016182401    0.4731        -0.16182401   
   4732000   246.65425     -5561.0482     -6313.188       26.448364      0.011874023    0.4732         0.11874023   
   4733000   256.46439     -5543.9773     -6326.0317     -390.2911       0.038652309    0.4733         0.38652309   
   4734000   243.58521     -5559.7597     -6302.5408      107.34918     -0.00035397122  0.4734        -0.0035397122 
   4735000   256.54358     -5558.7216     -6341.0175      729.72375     -0.077507933    0.4735        -0.77507933   
   4736000   240.57641     -5519.3493     -6252.9555     -129.29939      0.0072327741   0.4736         0.072327741  
   4737000   250.84105     -5526.4512     -6291.3581     -215.09593      0.020931335    0.4737         0.20931335   
   4738000   255.48311     -5533.0324     -6312.0946     -352.73381      0.031809155    0.4738         0.31809155   
   4739000   251.73725     -5505.6719     -6273.3116     -1094.6169      0.10832407     0.4739         1.0832407    
   4740000   240.40009     -5552.2389     -6285.3074      105.0585      -0.0036611589   0.474         -0.036611589  
   4741000   246.91943     -5481.4148     -6234.3632      142.98865     -0.012471933    0.4741        -0.12471933   
   4742000   251.26224     -5504.3999     -6270.5911     -866.56918      0.079234501    0.4742         0.79234501   
   4743000   235.41544     -5500.9487     -6218.8172      64.030977     -0.0045327662   0.4743        -0.045327662  
   4744000   236.26686     -5571.1392     -6291.6039      223.83734     -0.02834687     0.4744        -0.2834687    
   4745000   249.31591     -5474.2081     -6234.4643     -12.27878       0.00054685762  0.4745         0.0054685762 
   4746000   243.34144     -5487.2557     -6229.2935     -188.76742      0.028186129    0.4746         0.28186129   
   4747000   239.16596     -5518.9373     -6248.2425      27.644516      0.0028073122   0.4747         0.028073122  
   4748000   257.94819     -5457.6355     -6244.2146      44.616999     -0.019823902    0.4748        -0.19823902   
   4749000   242.26344     -5546.605      -6285.3555     -54.458196     -0.0017210326   0.4749        -0.017210326  
   4750000   250.55781     -5463.8234     -6227.8666      894.9162      -0.087574337    0.475         -0.87574337   
   4751000   234.96992     -5518.3247     -6234.8346      309.76661     -0.028126713    0.4751        -0.28126713   
   4752000   236.02599     -5543.153      -6262.8832      438.29099     -0.045801545    0.4752        -0.45801545   
   4753000   248.7198      -5532.4955     -6290.9339     -234.05979      0.031635139    0.4753         0.31635139   
   4754000   243.51912     -5485.8464     -6228.426      -231.67895      0.028304376    0.4754         0.28304376   
   4755000   233.08807     -5553.2594     -6264.0309      453.17558     -0.045331964    0.4755        -0.45331964   
   4756000   240.69081     -5519.0331     -6252.9881      327.73952     -0.022513365    0.4756        -0.22513365   
   4757000   245.03621     -5497.5745     -6244.7802     -20.15477      -0.00010350334  0.4757        -0.0010350334 
   4758000   247.08562     -5510.5085     -6263.9636     -341.36612      0.031758346    0.4758         0.31758346   
   4759000   241.73052     -5522.1081     -6259.2335     -667.06464      0.064262288    0.4759         0.64262288   
   4760000   243.89344     -5537.7421     -6281.4631     -504.04415      0.05212242     0.476          0.5212242    
   4761000   240.53534     -5564.3942     -6297.8752      265.64474     -0.015469373    0.4761        -0.15469373   
   4762000   245.5036      -5544.9075     -6293.5385      149.30426     -0.026880859    0.4762        -0.26880859   
   4763000   243.43695     -5534.8218     -6277.1508      243.98812     -0.017185646    0.4763        -0.17185646   
   4764000   255.0995      -5484.5016     -6262.3941      192.52344     -0.015748629    0.4764        -0.15748629   
   4765000   238.90511     -5566.7196     -6295.2294      1125.4348     -0.10285218     0.4765        -1.0285218    
   4766000   244.47511     -5550.2831     -6295.7778      194.10167     -0.0080117415   0.4766        -0.080117415  
   4767000   243.19536     -5530.6331     -6272.2254     -199.81474      0.018980827    0.4767         0.18980827   
   4768000   248.58604     -5535.0754     -6293.1059     -487.2667       0.050807489    0.4768         0.50807489   
   4769000   251.00637     -5555.3449     -6320.7559     -23.308617      0.0068929656   0.4769         0.068929656  
   4770000   244.99963     -5529.4032     -6276.4974      407.31432     -0.03626266     0.477         -0.3626266    
   4771000   250.5988      -5524.5285     -6288.6967      189.86269     -0.025236469    0.4771        -0.25236469   
   4772000   240.57374     -5573.5407     -6307.1387      212.18301     -0.027109873    0.4772        -0.27109873   
   4773000   236.26303     -5527.7602     -6248.2133      330.04171     -0.038024843    0.4773        -0.38024843   
   4774000   246.74487     -5552.8186     -6305.2347      359.63791     -0.037020515    0.4774        -0.37020515   
   4775000   255.44593     -5476.7639     -6255.7127     -548.7178       0.05340144     0.4775         0.5340144    
   4776000   240.38064     -5582.7594     -6315.7686      379.00074     -0.040773141    0.4776        -0.40773141   
   4777000   244.6173      -5525.9983     -6271.9266     -70.869365      0.017506238    0.4777         0.17506238   
   4778000   243.25757     -5523.143      -6264.925       152.13892     -0.007333473    0.4778        -0.07333473   
   4779000   243.11009     -5520.0927     -6261.425       278.76551     -0.015185004    0.4779        -0.15185004   
   4780000   234.47033     -5507.6495     -6222.636       58.160089      0.00033885569  0.478          0.0033885569 
   4781000   231.26921     -5555.7256     -6260.9507     -174.95387      0.022043815    0.4781         0.22043815   
   4782000   249.0425      -5482.4357     -6241.8581     -821.13806      0.091529971    0.4782         0.91529971   
   4783000   251.81544     -5549.0698     -6316.9479     -220.78124      0.017732863    0.4783         0.17732863   
   4784000   252.8427      -5478.4011     -6249.4117      216.27587     -0.021862734    0.4784        -0.21862734   
   4785000   244.46048     -5529.8275     -6275.2776     -777.01446      0.076106011    0.4785         0.76106011   
   4786000   245.35179     -5500.0805     -6248.2485      399.47685     -0.051121699    0.4786        -0.51121699   
   4787000   244.72254     -5515.7629     -6262.0122     -209.41077      0.032456577    0.4787         0.32456577   
   4788000   244.76219     -5510.6957     -6257.0659     -619.40318      0.060711347    0.4788         0.60711347   
   4789000   235.40845     -5533.0781     -6250.9253      151.80098     -0.010081876    0.4789        -0.10081876   
   4790000   251.21756     -5532.7266     -6298.7815      904.79906     -0.092646939    0.479         -0.92646939   
   4791000   246.16719     -5482.2271     -6232.8816      545.37006     -0.059366334    0.4791        -0.59366334   
   4792000   247.27929     -5480.5349     -6234.5806     -265.11065      0.025115704    0.4792         0.25115704   
   4793000   246.22593     -5517.3998     -6268.2335     -813.41307      0.085516885    0.4793         0.85516885   
   4794000   237.33996     -5553.7142     -6277.4512      441.56397     -0.03383667     0.4794        -0.3383667    
   4795000   248.46388     -5486.1154     -6243.7734     -906.7037       0.096506736    0.4795         0.96506736   
   4796000   252.02486     -5514.1068     -6282.6235      146.2804      -0.011806117    0.4796        -0.11806117   
   4797000   244.03327     -5479.1182     -6223.2657     -177.72567      0.026186814    0.4797         0.26186814   
   4798000   246.85952     -5506.1459     -6258.9116     -289.40816      0.035133608    0.4798         0.35133608   
   4799000   237.62862     -5607.9194     -6332.5366     -449.50121      0.045867198    0.4799         0.45867198   
   4800000   251.42658     -5529.0371     -6295.7295     -268.35541      0.040423205    0.48           0.40423205   
Loop time of 100.195 on 56 procs for 100000 steps with 1536 atoms

Performance: 86.232 ns/day, 0.278 hours/ns, 998.055 timesteps/s, 1.533 Matom-step/s
99.8% CPU use with 56 MPI tasks x no OpenMP threads

MPI task timing breakdown:
Section |  min time  |  avg time  |  max time  |%varavg| %total
---------------------------------------------------------------
Pair    | 21.601     | 24.523     | 27.526     |  24.2 | 24.47
Bond    | 0.011281   | 0.014759   | 0.026101   |   2.1 |  0.01
Kspace  | 41.763     | 44.659     | 47.513     |  17.5 | 44.57
Neigh   | 1.7872     | 1.7891     | 1.7909     |   0.1 |  1.79
Comm    | 10.755     | 10.947     | 11.181     |   3.1 | 10.93
Output  | 0.078505   | 0.12071    | 0.15598    |   6.1 |  0.12
Modify  | 13.828     | 16.397     | 17.164     |  24.5 | 16.37
Other   |            | 1.745      |            |       |  1.74

Nlocal:        27.4286 ave          35 max          22 min
Histogram: 8 2 8 11 6 8 7 1 3 2
Nghost:        4346.39 ave        4424 max        4289 min
Histogram: 4 3 6 15 13 4 3 3 2 3
Neighs:          12007 ave       15227 max        9543 min
Histogram: 5 5 8 7 9 9 5 3 3 2

Total # of neighbors = 672394
Ave neighs/atom = 437.75651
Ave special neighs/atom = 2
Neighbor list builds = 1097
Dangerous builds = 0
kspace_style pppm/tip4p 1.0e-5
next nloop
jump SELF loop_start
run 100000 # 100ps
PPPM initialization ...
  extracting TIP4P info from pair style
  using 12-bit tables for long-range coulomb
  G vector (1/distance) = 0.33395661
  grid = 27 40 27
  stencil order = 5
  estimated absolute RMS force accuracy = 0.0025319993
  estimated relative force accuracy = 7.6250408e-06
  using double precision KISS FFT
  3d grid and FFT values/proc = 6006 560
Generated 0 of 1 mixed pair_coeff terms from geometric mixing rule
Per MPI rank memory allocation (min/avg/max) = 9.822 | 9.847 | 9.859 Mbytes
   Step          Temp          TotEng         PotEng          Pxy           v_sxy         v_strain     v_viscosity  
   4800000   251.42658     -5529.0371     -6295.7295     -268.12219      0.040399337    0.48           0.40399337   
   4801000   257.96204     -5536.304      -6322.9254      627.15832     -0.057286835    0.4801        -0.57286835   
   4802000   251.03979     -5504.9879     -6270.5008     -27.103171     -0.0034846012   0.4802        -0.034846012  
   4803000   237.91916     -5560.5023     -6286.0055      209.59913     -0.022892901    0.4803        -0.22892901   
   4804000   249.912       -5562.2315     -6324.3053      168.78443     -0.01276978     0.4804        -0.1276978    
   4805000   241.56287     -5539.0448     -6275.659       458.11439     -0.046833765    0.4805        -0.46833765   
   4806000   259.98227     -5515.7499     -6308.5317     -259.36483      0.020260909    0.4806         0.20260909   
   4807000   242.62713     -5524.7288     -6264.5884     -15.973314      0.0016750993   0.4807         0.016750993  
   4808000   247.87924     -5501.0641     -6256.9393     -110.29075      0.018135817    0.4808         0.18135817   
   4809000   247.06908     -5548.5813     -6301.986      -304.70816      0.026954554    0.4809         0.26954554   
   4810000   247.81961     -5548.1446     -6303.838      -250.2476       0.014413093    0.481          0.14413093   
   4811000   246.07693     -5481.6349     -6232.0142     -700.21276      0.073083914    0.4811         0.73083914   
   4812000   246.30118     -5555.4218     -6306.4849      481.94586     -0.04946446     0.4812        -0.4946446    
   4813000   249.97193     -5533.3083     -6295.5649      501.61667     -0.053219569    0.4813        -0.53219569   
   4814000   253.91323     -5549.4532     -6323.7283      194.72222     -0.032122584    0.4814        -0.32122584   
   4815000   248.90036     -5529.8126     -6288.8016      1148.5858     -0.11738787     0.4815        -1.1738787    
   4816000   243.75486     -5564.2681     -6307.5666      188.42919     -0.024904833    0.4816        -0.24904833   
   4817000   255.22584     -5533.1959     -6311.4736     -238.84189      0.022573531    0.4817         0.22573531   
   4818000   246.03629     -5537.8079     -6288.0632     -93.249776      0.0032941798   0.4818         0.032941798  
   4819000   248.73778     -5517.0473     -6275.5405     -716.49647      0.082138797    0.4819         0.82138797   
   4820000   251.14566     -5526.587      -6292.4227     -705.26953      0.060588853    0.482          0.60588853   
   4821000   243.41053     -5511.2225     -6253.4709     -401.75669      0.03718308     0.4821         0.3718308    
   4822000   242.98919     -5499.5574     -6240.521      -94.484354      0.010252005    0.4822         0.10252005   
   4823000   240.84991     -5534.5363     -6268.9765      203.15984     -0.010857301    0.4823        -0.10857301   
   4824000   249.56574     -5521.903      -6282.921       711.04702     -0.068861608    0.4824        -0.68861608   
   4825000   248.83681     -5586.7464     -6345.5416      553.57133     -0.056905535    0.4825        -0.56905535   
   4826000   247.25953     -5545.0572     -6299.0427      345.18338     -0.01765183     0.4826        -0.1765183    
   4827000   241.9873      -5539.5802     -6277.4887      833.48568     -0.084213271    0.4827        -0.84213271   
   4828000   243.18887     -5572.203      -6313.7755      264.61463     -0.028760292    0.4828        -0.28760292   
   4829000   241.21072     -5581.9436     -6317.484       743.89504     -0.072432196    0.4829        -0.72432196   
   4830000   243.30929     -5539.4308     -6281.3705      881.52282     -0.077990633    0.483         -0.77990633   
   4831000   237.68813     -5586.7399     -6311.5386     -376.05749      0.040813301    0.4831         0.40813301   
   4832000   246.96988     -5564.9609     -6318.0631      241.42342     -0.02634824     0.4832        -0.2634824    
   4833000   257.39956     -5531.9088     -6316.815      -320.27419      0.03865233     0.4833         0.3865233    
   4834000   232.90884     -5605.8663     -6316.0912      173.44752     -0.017059976    0.4834        -0.17059976   
   4835000   239.62039     -5592.1573     -6322.8482     -557.33072      0.068815899    0.4835         0.68815899   
   4836000   252.48541     -5568.7441     -6338.6652     -198.71992      0.022141175    0.4836         0.22141175   
   4837000   254.53729     -5542.485      -6318.663      -275.38312      0.041702922    0.4837         0.41702922   
   4838000   248.85977     -5534.8101     -6293.6753     -250.98003      0.025199643    0.4838         0.25199643   
   4839000   252.83465     -5565.6867     -6336.6727      123.00875     -0.007787091    0.4839        -0.07787091   
   4840000   255.28283     -5550.9328     -6329.3842      603.71605     -0.066787165    0.484         -0.66787165   
   4841000   242.21074     -5563.9055     -6302.4953     -138.75299      0.0069657077   0.4841         0.069657077  
   4842000   234.60582     -5572.8612     -6288.2608     -398.80372      0.029405099    0.4842         0.29405099   
   4843000   244.99451     -5578.0386     -6325.1171      53.159755      0.0065983651   0.4843         0.065983651  
   4844000   252.24155     -5559.963      -6329.1405     -1020.7343      0.10285793     0.4844         1.0285793    
   4845000   252.77142     -5533.528      -6304.3213     -117.92808      0.0026519188   0.4845         0.026519188  
   4846000   260.1975      -5518.6179     -6312.056      -89.709166      0.01922866     0.4846         0.1922866    
   4847000   244.58703     -5552.8999     -6298.7359      310.48842     -0.029762957    0.4847        -0.29762957   
   4848000   248.89609     -5585.4583     -6344.4343      299.05369     -0.030278364    0.4848        -0.30278364   
   4849000   243.53188     -5596.2066     -6338.8251      799.60974     -0.081517142    0.4849        -0.81517142   
   4850000   259.37175     -5481.1036     -6272.0237      4.1848431      0.0041514406   0.485          0.041514406  
   4851000   251.60896     -5543.4101     -6310.6586     -240.31655      0.026816521    0.4851         0.26816521   
   4852000   234.59841     -5599.8014     -6315.1784      537.58907     -0.050122516    0.4852        -0.50122516   
   4853000   254.31386     -5491.4061     -6266.9028      539.47918     -0.045530548    0.4853        -0.45530548   
   4854000   240.22671     -5559.4776     -6292.0174     -630.87324      0.061403495    0.4854         0.61403495   
   4855000   251.37112     -5460.5917     -6227.1149      154.11458     -0.013724234    0.4855        -0.13724234   
   4856000   240.00715     -5563.4673     -6295.3376     -363.9081       0.037670691    0.4856         0.37670691   
   4857000   250.27008     -5569.1843     -6332.35        347.57772     -0.036915959    0.4857        -0.36915959   
   4858000   236.98463     -5570.111      -6292.7646      668.01299     -0.054518694    0.4858        -0.54518694   
   4859000   255.07875     -5512.1996     -6290.0287     -109.11989      0.0067762609   0.4859         0.067762609  
   4860000   233.8759      -5579.2267     -6292.4006     -16.730416      0.0070767586   0.486          0.070767586  
   4861000   250.97085     -5516.3023     -6281.605       205.50596     -0.022247813    0.4861        -0.22247813   
   4862000   243.72113     -5527.1348     -6270.3304      76.509228     -0.0051716151   0.4862        -0.051716151  
   4863000   244.41639     -5569.3924     -6314.7081     -940.63698      0.092216366    0.4863         0.92216366   
   4864000   257.14054     -5529.4298     -6313.5461      223.65675     -0.026966208    0.4864        -0.26966208   
   4865000   256.02068     -5489.3394     -6270.0408     -315.53524      0.027213629    0.4865         0.27213629   
   4866000   241.97707     -5565.3968     -6303.2741      557.85349     -0.054958964    0.4866        -0.54958964   
   4867000   245.59265     -5546.9393     -6295.8418      231.40238     -0.019545624    0.4867        -0.19545624   
   4868000   239.45316     -5607.419      -6337.6         308.20797     -0.025388596    0.4868        -0.25388596   
   4869000   252.8798      -5529.4249     -6300.5486      287.55752     -0.019076751    0.4869        -0.19076751   
   4870000   250.18756     -5560.8421     -6323.7562     -691.37164      0.064778953    0.487          0.64778953   
   4871000   257.21358     -5506.5651     -6290.9041      44.490308     -0.00019814439  0.4871        -0.0019814439 
   4872000   245.22821     -5581.8229     -6329.6142      1464.4238     -0.14241491     0.4872        -1.4241491    
   4873000   247.0692      -5528.8041     -6282.2092      651.13988     -0.058844229    0.4873        -0.58844229   
   4874000   239.22721     -5577.1312     -6306.6231      348.12121     -0.018901396    0.4874        -0.18901396   
   4875000   243.06283     -5536.6757     -6277.8638     -738.0351       0.070746624    0.4875         0.70746624   
   4876000   249.09016     -5518.9297     -6278.4974      60.879945     -0.0027275991   0.4876        -0.027275991  
   4877000   242.87332     -5536.7772     -6277.3875     -142.52561      0.016631197    0.4877         0.16631197   
   4878000   249.25104     -5566.9669     -6327.0252      790.07686     -0.070437174    0.4878        -0.70437174   
   4879000   247.64552     -5514.9787     -6270.1412      48.555607      0.0022645039   0.4879         0.022645039  
   4880000   243.15777     -5539.7645     -6281.2421      343.42104     -0.027097914    0.488         -0.27097914   
   4881000   234.57585     -5522.5952     -6237.9034      455.2846      -0.043082883    0.4881        -0.43082883   
   4882000   243.92304     -5589.98       -6333.7913      191.3777      -0.0148691      0.4882        -0.148691     
   4883000   254.86778     -5514.9019     -6292.0878     -166.4176       0.018364026    0.4883         0.18364026   
   4884000   247.84944     -5530.2356     -6286.0199      155.94898     -0.0073898033   0.4884        -0.073898033  
   4885000   251.0775      -5528.5834     -6294.2112     -603.6957       0.058135112    0.4885         0.58135112   
   4886000   241.17617     -5553.8934     -6289.3285     -355.71783      0.027260989    0.4886         0.27260989   
   4887000   244.99266     -5535.3745     -6282.4474     -624.32395      0.0596152      0.4887         0.596152     
   4888000   247.80348     -5523.4498     -6279.0939      461.64647     -0.048946997    0.4888        -0.48946997   
   4889000   236.31966     -5540.7329     -6261.3587     -57.940758      0.0052612227   0.4889         0.052612227  
   4890000   244.82008     -5494.3287     -6240.8753      632.58654     -0.057448327    0.489         -0.57448327   
   4891000   257.25438     -5528.363      -6312.8265     -171.55381      0.021883319    0.4891         0.21883319   
   4892000   244.18306     -5579.1446     -6323.7487      259.81189     -0.02365111     0.4892        -0.2365111    
   4893000   252.20784     -5515.8161     -6284.8908      326.22491     -0.028635055    0.4893        -0.28635055   
   4894000   250.2867      -5522.8424     -6286.0588      153.70044     -0.01187629     0.4894        -0.1187629    
   4895000   244.84159     -5522.9145     -6269.5268     -123.15908      0.0069182913   0.4895         0.069182913  
   4896000   241.31135     -5535.3787     -6271.226      -475.09302      0.04035242     0.4896         0.4035242    
   4897000   249.30525     -5513.8301     -6274.0537     -295.86414      0.021291289    0.4897         0.21291289   
   4898000   240.32363     -5542.0983     -6274.9337     -911.41192      0.089857913    0.4898         0.89857913   
   4899000   248.29874     -5492.4144     -6249.5688     -133.68238      0.006449827    0.4899         0.06449827   
   4900000   244.80962     -5510.4408     -6256.9556      643.00721     -0.067330097    0.49          -0.67330097   
Loop time of 100.436 on 56 procs for 100000 steps with 1536 atoms

Performance: 86.025 ns/day, 0.279 hours/ns, 995.662 timesteps/s, 1.529 Matom-step/s
99.8% CPU use with 56 MPI tasks x no OpenMP threads

MPI task timing breakdown:
Section |  min time  |  avg time  |  max time  |%varavg| %total
---------------------------------------------------------------
Pair    | 22.519     | 24.623     | 27.704     |  21.3 | 24.52
Bond    | 0.011117   | 0.014768   | 0.02597    |   2.1 |  0.01
Kspace  | 41.721     | 44.646     | 46.584     |  15.3 | 44.45
Neigh   | 1.762      | 1.7638     | 1.7654     |   0.1 |  1.76
Comm    | 10.716     | 10.96      | 11.191     |   3.5 | 10.91
Output  | 0.079065   | 0.12077    | 0.15597    |   6.0 |  0.12
Modify  | 13.895     | 16.462     | 17.242     |  24.5 | 16.39
Other   |            | 1.845      |            |       |  1.84

Nlocal:        27.4286 ave          34 max          19 min
Histogram: 1 1 9 2 7 3 17 5 7 4
Nghost:        4350.73 ave        4416 max        4276 min
Histogram: 2 2 5 8 8 10 7 4 4 6
Neighs:        12004.7 ave       14786 max        8228 min
Histogram: 1 2 8 3 6 4 16 8 3 5

Total # of neighbors = 672263
Ave neighs/atom = 437.67122
Ave special neighs/atom = 2
Neighbor list builds = 1079
Dangerous builds = 0
kspace_style pppm/tip4p 1.0e-5
next nloop
jump SELF loop_start
run 100000 # 100ps
PPPM initialization ...
  extracting TIP4P info from pair style
  using 12-bit tables for long-range coulomb
  G vector (1/distance) = 0.33370156
  grid = 27 40 27
  stencil order = 5
  estimated absolute RMS force accuracy = 0.0025712059
  estimated relative force accuracy = 7.7431101e-06
  using double precision KISS FFT
  3d grid and FFT values/proc = 6006 560
Generated 0 of 1 mixed pair_coeff terms from geometric mixing rule
Per MPI rank memory allocation (min/avg/max) = 9.822 | 9.847 | 9.859 Mbytes
   Step          Temp          TotEng         PotEng          Pxy           v_sxy         v_strain     v_viscosity  
   4900000   244.80956     -5510.4408     -6256.9554      643.23262     -0.067353226    0.49          -0.67353226   
   4901000   245.44265     -5572.9079     -6321.353      -671.25003      0.077092449    0.4901         0.77092449   
   4902000   252.10786     -5502.3369     -6271.1068      256.20866     -0.022367954    0.4902        -0.22367954   
   4903000   246.44961     -5538.4853     -6290.001       157.99441     -0.024798565    0.4903        -0.24798565   
   4904000   242.4221      -5537.9494     -6277.1838     -787.00224      0.063924523    0.4904         0.63924523   
   4905000   246.29596     -5514.7991     -6265.8462     -7.883151       0.013467611    0.4905         0.13467611   
   4906000   242.07496     -5531.0962     -6269.272      -257.94677      0.036476565    0.4906         0.36476565   
   4907000   247.65986     -5524.3983     -6279.6045     -874.46979      0.087077499    0.4907         0.87077499   
   4908000   247.49211     -5494.761      -6249.4557      199.50903     -0.0077035519   0.4908        -0.077035519  
   4909000   256.56771     -5471.4299     -6253.7995      636.85906     -0.074749061    0.4909        -0.74749061   
   4910000   249.9567      -5555.6452     -6317.8553     -910.11483      0.089976698    0.491          0.89976698   
   4911000   239.93602     -5567.1267     -6298.7801      4.273503       0.0027899682   0.4911         0.027899682  
   4912000   235.53155     -5553.0922     -6271.3147      479.52175     -0.040611851    0.4912        -0.40611851   
   4913000   249.09685     -5555.1562     -6314.7444     -552.0218       0.057581524    0.4913         0.57581524   
   4914000   243.29395     -5530.1495     -6272.0424      110.6927      -0.010748619    0.4914        -0.10748619   
   4915000   243.42456     -5527.3373     -6269.6285      375.37349     -0.049209494    0.4915        -0.49209494   
   4916000   245.1498      -5559.6018     -6307.1539     -625.82679      0.063456588    0.4916         0.63456588   
   4917000   236.67368     -5578.3936     -6300.0989      446.80419     -0.049838287    0.4917        -0.49838287   
   4918000   243.93721     -5511.6973     -6255.5517     -374.60931      0.034571833    0.4918         0.34571833   
   4919000   250.95717     -5541.1567     -6306.4176     -48.685125     -0.0019994226   0.4919        -0.019994226  
   4920000   251.61873     -5531.9539     -6299.2322      477.49642     -0.042362543    0.492         -0.42362543   
   4921000   244.57058     -5536.041      -6281.8269     -413.21834      0.033104864    0.4921         0.33104864   
   4922000   250.29291     -5502.6286     -6265.864       226.48784     -0.014847149    0.4922        -0.14847149   
   4923000   253.12674     -5494.1035     -6265.9802     -399.87083      0.034540756    0.4923         0.34540756   
   4924000   238.02927     -5534.9376     -6260.7766     -216.45153      0.023900996    0.4924         0.23900996   
   4925000   253.2917      -5491.1602     -6263.54       -850.90101      0.079231925    0.4925         0.79231925   
   4926000   247.13879     -5487.8678     -6241.485      -943.27041      0.095660535    0.4926         0.95660535   
   4927000   251.8076      -5483.9991     -6251.8533     -425.22351      0.040339042    0.4927         0.40339042   
   4928000   238.73377     -5522.1463     -6250.1336      1398.3662     -0.14671874     0.4928        -1.4671874    
   4929000   241.84806     -5547.1523     -6284.6362      117.26516     -0.01252696     0.4929        -0.1252696    
   4930000   250.91598     -5521.4973     -6286.6326     -144.78962      0.011986274    0.493          0.11986274   
   4931000   266.04055     -5467.2975     -6278.5533     -677.73998      0.069366618    0.4931         0.69366618   
   4932000   234.51962     -5613.8215     -6328.9582     -598.90462      0.052301353    0.4932         0.52301353   
   4933000   255.19605     -5513.2921     -6291.4789     -165.67553      0.0071013867   0.4933         0.071013867  
   4934000   253.97771     -5583.5498     -6358.0215     -886.42126      0.08718165     0.4934         0.8718165    
   4935000   240.57477     -5590.0992     -6323.7004     -411.77486      0.041999371    0.4935         0.41999371   
   4936000   241.1203      -5577.3927     -6312.6574     -309.62272      0.025683791    0.4936         0.25683791   
   4937000   262.46179     -5456.8646     -6257.2074     -345.02573      0.034521784    0.4937         0.34521784   
   4938000   243.64569     -5567.5601     -6310.5256     -148.98068      0.017467864    0.4938         0.17467864   
   4939000   238.34104     -5576.6832     -6303.4729      77.317935     -0.01064927     0.4939        -0.1064927    
   4940000   253.37726     -5538.3376     -6310.9783     -1309.4212      0.13270099     0.494          1.3270099    
   4941000   245.87253     -5518.6183     -6268.3743     -283.4575       0.039193479    0.4941         0.39193479   
   4942000   249.15834     -5528.6445     -6288.4202     -433.17258      0.035597564    0.4942         0.35597564   
   4943000   246.64361     -5573.2387     -6325.346      -426.67449      0.052995992    0.4943         0.52995992   
   4944000   253.1619      -5525.9289     -6297.9129      93.498824     -0.01246531     0.4944        -0.1246531    
   4945000   246.44137     -5524.6695     -6276.1601     -97.664743      0.00055314471  0.4945         0.0055314471 
   4946000   239.96948     -5528.9126     -6260.6681     -701.27415      0.064839459    0.4946         0.64839459   
   4947000   243.34136     -5588.4266     -6330.4641      134.89858     -0.017206574    0.4947        -0.17206574   
   4948000   252.68219     -5508.5415     -6279.0626     -165.44171      0.0070952224   0.4948         0.070952224  
   4949000   242.24571     -5508.4843     -6247.1808     -673.01497      0.067395848    0.4949         0.67395848   
   4950000   238.62606     -5540.2847     -6267.9435     -546.13308      0.055270569    0.495          0.55270569   
   4951000   252.27708     -5516.0778     -6285.3636     -292.76269      0.033677549    0.4951         0.33677549   
   4952000   233.65868     -5547.0189     -6259.5304     -698.60456      0.07165827     0.4952         0.7165827    
   4953000   251.02605     -5510.377      -6275.848       168.59751     -0.010567807    0.4953        -0.10567807   
   4954000   251.1405      -5506.4899     -6272.3099      226.86094     -0.024237251    0.4954        -0.24237251   
   4955000   244.59537     -5497.2491     -6243.1106     -36.032527      0.011310877    0.4955         0.11310877   
   4956000   244.09671     -5563.2975     -6307.6384      406.50832     -0.050040343    0.4956        -0.50040343   
   4957000   252.02104     -5443.1785     -6211.6835     -137.84647      0.01513187     0.4957         0.1513187    
   4958000   243.56295     -5533.4594     -6276.1727     -57.531619      0.01598236     0.4958         0.1598236    
   4959000   247.21693     -5521.3524     -6275.2079     -391.50855      0.043973999    0.4959         0.43973999   
   4960000   246.37149     -5473.5323     -6224.8099      275.21407     -0.022240305    0.496         -0.22240305   
   4961000   244.44034     -5487.9836     -6233.3724     -62.877529     -0.00072012935  0.4961        -0.0072012935 
   4962000   246.74195     -5542.5583     -6294.9655     -805.6886       0.082012123    0.4962         0.82012123   
   4963000   244.74551     -5530.2697     -6276.589      -200.67177      0.01687202     0.4963         0.1687202    
   4964000   237.18846     -5523.1769     -6246.452       138.245       -0.015335188    0.4964        -0.15335188   
   4965000   254.9438      -5516.8527     -6294.2703     -72.545107      0.013681617    0.4965         0.13681617   
   4966000   246.02674     -5529.9805     -6280.2068     -212.999        0.016490897    0.4966         0.16490897   
   4967000   242.9739      -5544.084      -6285.001      -95.676106      0.0075399167   0.4967         0.075399167  
   4968000   244.97333     -5562.1552     -6309.1692      331.32075     -0.039969872    0.4968        -0.39969872   
   4969000   257.49708     -5493.4294     -6278.6329     -533.61885      0.055790368    0.4969         0.55790368   
   4970000   240.41403     -5575.4676     -6308.5786     -314.46219      0.034640298    0.497          0.34640298   
   4971000   245.44152     -5529.388      -6277.8297      165.33789     -0.0065122959   0.4971        -0.065122959  
   4972000   254.08562     -5482.3273     -6257.1281      658.51701     -0.071447288    0.4972        -0.71447288   
   4973000   242.93239     -5526.888      -6267.6784     -290.14389      0.028165669    0.4973         0.28165669   
   4974000   241.11406     -5565.9437     -6301.1894      37.148519     -0.010418849    0.4974        -0.10418849   
   4975000   237.62832     -5536.1484     -6260.7648     -396.72933      0.040544144    0.4975         0.40544144   
   4976000   247.20804     -5544.0063     -6297.8348     -612.53606      0.050265037    0.4976         0.50265037   
   4977000   242.09675     -5528.2356     -6266.4779     -136.58567      0.025825679    0.4977         0.25825679   
   4978000   253.17313     -5523.9296     -6295.9478      94.921341     -0.0083975016   0.4978        -0.083975016  
   4979000   241.68417     -5528.3826     -6265.3668      459.38097     -0.043551315    0.4979        -0.43551315   
   4980000   241.2795      -5555.1388     -6290.8889      755.13843     -0.0809145      0.498         -0.809145     
   4981000   250.74069     -5547.4263     -6312.0271     -263.37211      0.023741156    0.4981         0.23741156   
   4982000   251.56988     -5514.3147     -6281.4441     -123.55371      0.0088940822   0.4982         0.088940822  
   4983000   245.17662     -5606.0391     -6353.673      -487.05033      0.051616265    0.4983         0.51616265   
   4984000   244.20378     -5519.5004     -6264.1677      667.35561     -0.074505056    0.4984        -0.74505056   
   4985000   247.25479     -5558.051      -6312.022       135.63911     -0.01752028     0.4985        -0.1752028    
   4986000   256.43273     -5546.9728     -6328.9307     -83.909084      0.0035372111   0.4986         0.035372111  
   4987000   246.14358     -5554.355      -6304.9375     -53.679583      0.0041750774   0.4987         0.041750774  
   4988000   252.74891     -5574.7119     -6345.4366     -194.67891      0.017193269    0.4988         0.17193269   
   4989000   248.78045     -5531.2553     -6289.8786     -667.48897      0.06733116     0.4989         0.6733116    
   4990000   243.74977     -5546.9531     -6290.236       28.517597      0.0062597224   0.499          0.062597224  
   4991000   247.04516     -5547.1107     -6300.4425     -429.48797      0.045015218    0.4991         0.45015218   
   4992000   249.19954     -5563.885      -6323.7863      439.34134     -0.040608733    0.4992        -0.40608733   
   4993000   243.67776     -5587.1289     -6330.1922      931.74282     -0.084202717    0.4993        -0.84202717   
   4994000   248.54405     -5532.029      -6289.9314     -755.16997      0.065466976    0.4994         0.65466976   
   4995000   250.70845     -5521.7551     -6286.2576      1088.0305     -0.11491241     0.4995        -1.1491241    
   4996000   244.24717     -5590.3424     -6335.142      -282.6434       0.024516796    0.4996         0.24516796   
   4997000   240.40396     -5550.6344     -6283.7147      7.9210516     -0.0028081806   0.4997        -0.028081806  
   4998000   243.83879     -5572.6868     -6316.2412     -674.22742      0.069801071    0.4998         0.69801071   
   4999000   252.56559     -5554.1904     -6324.356       70.7446       -0.0041309299   0.4999        -0.041309299  
   5000000   237.39824     -5552.6746     -6276.5894     -460.72313      0.040156175    0.5            0.40156175   
Loop time of 99.8838 on 56 procs for 100000 steps with 1536 atoms

Performance: 86.500 ns/day, 0.277 hours/ns, 1001.163 timesteps/s, 1.538 Matom-step/s
99.8% CPU use with 56 MPI tasks x no OpenMP threads

MPI task timing breakdown:
Section |  min time  |  avg time  |  max time  |%varavg| %total
---------------------------------------------------------------
Pair    | 21.82      | 24.584     | 27.051     |  22.7 | 24.61
Bond    | 0.01132    | 0.014675   | 0.025625   |   2.1 |  0.01
Kspace  | 41.807     | 44.285     | 47.011     |  16.3 | 44.34
Neigh   | 1.804      | 1.8055     | 1.8067     |   0.1 |  1.81
Comm    | 10.712     | 10.911     | 11.144     |   2.6 | 10.92
Output  | 0.077959   | 0.11999    | 0.15527    |   6.1 |  0.12
Modify  | 13.868     | 16.438     | 17.216     |  24.6 | 16.46
Other   |            | 1.726      |            |       |  1.73

Nlocal:        27.4286 ave          34 max          21 min
Histogram: 4 1 3 15 8 5 9 7 1 3
Nghost:         4346.3 ave        4414 max        4279 min
Histogram: 1 0 8 8 12 12 4 7 3 1
Neighs:        12019.8 ave       15092 max        9198 min
Histogram: 4 1 7 11 8 8 6 7 2 2

Total # of neighbors = 673106
Ave neighs/atom = 438.22005
Ave special neighs/atom = 2
Neighbor list builds = 1101
Dangerous builds = 0
kspace_style pppm/tip4p 1.0e-5
next nloop
jump SELF loop_start
# run ${Ttotal}
# variable nloop loop ${nloops}
# label loop_start
# run ${stepsPerReset}
# kspace_style pppm/tip4p 1.0e-5
# next nloop
# jump SELF loop_start
Total wall time: 1:18:04
