LAMMPS (22 Jul 2025 - Development - patch_22Jul2025-72-g8b7fdf9ad3-modified)
OMP_NUM_THREADS environment is not set. Defaulting to 1 thread.
  using 1 OpenMP thread(s) per MPI task
units real
atom_style full
boundary p p p

pair_style lj/cut/tip4p/long 1 2 1 1 0.1546 12
kspace_style pppm/tip4p 1.0e-6

bond_style harmonic
angle_style harmonic

read_data 150MPa.data
Reading data file ...
  orthogonal box = (3.5496343 3.5496343 3.5496343) to (27.810365 27.810365 27.810365)
  2 by 2 by 2 MPI processor grid
  reading atoms ...
  1536 atoms
  reading velocities ...
  1536 velocities
  scanning bonds ...
  2 = max bonds/atom
  scanning angles ...
  1 = max angles/atom
  orthogonal box = (3.5496343 3.5496343 3.5496343) to (27.810365 27.810365 27.810365)
  2 by 2 by 2 MPI processor grid
  reading bonds ...
  1024 bonds
  reading angles ...
  512 angles
Finding 1-2 1-3 1-4 neighbors ...
  special bond factors lj:    0        0        0       
  special bond factors coul:  0        0        0       
     2 = max # of 1-2 neighbors
     1 = max # of 1-3 neighbors
     1 = max # of 1-4 neighbors
     2 = max # of special neighbors
  special bonds CPU = 0.001 seconds
  read_data CPU = 0.041 seconds

pair_coeff 1 1 0.18521 3.1589 #O-O
pair_coeff 1 2 0.0 0.0 #O-H
pair_coeff 2 2 0.0 1.0 #H-H
pair_modify tail yes

bond_coeff 1 1000.0 0.9572 #O-H
angle_coeff 1 100.0 104.52 #H-O-H

group gH2O type 1 2
1536 atoms in group gH2O
group gO type 1
512 atoms in group gO

neighbor 3.0 bin
neigh_modify delay 0 every 1 check yes

reset_timestep 0
fix 1 gH2O shake 1.0e-4 100 0 b 1 a 1
Finding SHAKE clusters ...
       0 = # of size 2 clusters
       0 = # of size 3 clusters
       0 = # of size 4 clusters
     512 = # of frozen angles
  find clusters CPU = 0.001 seconds
timestep 1.0 # 1fs

compute rdf1 gH2O rdf 100 1 1 1 2 2 2
variable massAll equal mass(all)/6.022e23
variable volCm3 equal vol*1.0e-24
variable density_sys equal v_massAll/v_volCm3


thermo_style custom step temp vol etotal pe ke epair ecoul lx ly lz v_density_sys
thermo 1000
fix fnpt all npt temp 225.0 225.0 1000.0 iso 1480.3849 1480.3849 5000.0


dump dO gO custom 100 dump_O.lammpstrj id xu yu zu # 0.1ps
dump_modify dO sort id

run 250000 # 250ps
PPPM initialization ...
  extracting TIP4P info from pair style
  using 12-bit tables for long-range coulomb
  G vector (1/distance) = 0.28789612
  grid = 32 32 32
  stencil order = 5
  estimated absolute RMS force accuracy = 0.00035580512
  estimated relative force accuracy = 1.0714965e-06
  using double precision FFTW3
  3d grid and FFT values/proc = 15625 4096
WARNING: Communication cutoff 0 is shorter than a bond length based estimate of 4.4358. This may lead to errors. (src/comm.cpp:743)
WARNING: Increasing communication cutoff to 16.1118 for TIP4P pair style (src/KSPACE/pair_lj_cut_tip4p_long.cpp:497)
Generated 0 of 1 mixed pair_coeff terms from geometric mixing rule
Neighbor list info ...
  update: every = 1 steps, delay = 0 steps, check = yes
  max neighbors/atom: 2000, page size: 100000
  master list distance cutoff = 15.3092
  ghost atom cutoff = 16.1118
  binsize = 7.6546, bins = 4 4 4
  2 neighbor lists, perpetual/occasional/extra = 1 1 0
  (1) pair lj/cut/tip4p/long, perpetual
      attributes: half, newton on
      pair build: half/bin/newton
      stencil: half/bin/3d
      bin: standard
  (2) compute rdf, occasional, copy from (1)
      attributes: half, newton on
      pair build: copy
      stencil: none
      bin: none
Per MPI rank memory allocation (min/avg/max) = 9.942 | 9.945 | 9.948 Mbytes
   Step          Temp          Volume         TotEng         PotEng         KinEng         E_pair         E_coul           Lx             Ly             Lz       v_density_sys 
         0   228.31163      14279.455     -5759.7948     -6456.0012      696.20633     -6456.0012      43571.911      24.260731      24.260731      24.260731      1.0726466    
      1000   229.74361      14280.447     -5749.8826     -6450.4555      700.57296     -6450.4555      43594.369      24.261292      24.261292      24.261292      1.0725721    
      2000   227.59908      14302.571     -5712.0941     -6406.1276      694.03352     -6406.1276      43599.956      24.273815      24.273815      24.273815      1.070913     
      3000   223.57169      14388.93      -5687.2058     -6368.9583      681.75251     -6368.9583      43658.406      24.322572      24.322572      24.322572      1.0644856    
      4000   229.09009      14395.501     -5693.0605     -6391.6406      698.58013     -6391.6406      43546.242      24.326274      24.326274      24.326274      1.0639997    
      5000   233.1903       14252.279     -5706.2695     -6417.3527      711.0832      -6417.3527      43599.739      24.24533       24.24533       24.24533       1.0746919    
      6000   230.78548      14159.374     -5724.8968     -6428.6468      703.75003     -6428.6468      43548.175      24.192534      24.192534      24.192534      1.0817434    
      7000   222.2664       14456.89      -5756.936      -6434.7082      677.7722      -6434.7082      43587.949      24.360804      24.360804      24.360804      1.0594816    
      8000   222.15228      14483.423     -5762.5957     -6440.0199      677.42422     -6440.0199      43626.597      24.375699      24.375699      24.375699      1.0575407    
      9000   225.40569      14260.037     -5751.6524     -6438.9975      687.34506     -6438.9975      43524.329      24.249729      24.249729      24.249729      1.0741072    
     10000   228.0336       14234.018     -5721.8717     -6417.2302      695.35851     -6417.2302      43573.5        24.234971      24.234971      24.234971      1.0760706    
     11000   236.57788      14360.876     -5690.8318     -6412.245       721.41317     -6412.245       43585.352      24.306754      24.306754      24.306754      1.0665651    
     12000   225.12162      14384.74      -5704.8314     -6391.3102      686.47881     -6391.3102      43621.623      24.320211      24.320211      24.320211      1.0647957    
     13000   226.52674      14213.071     -5732.0978     -6422.8613      690.76356     -6422.8613      43590.544      24.223077      24.223077      24.223077      1.0776566    
     14000   223.97953      14111.369     -5746.1174     -6429.1135      682.99616     -6429.1135      43564.81       24.165162      24.165162      24.165162      1.0854233    
     15000   228.24285      14205.711     -5748.8525     -6444.8491      695.9966      -6444.8491      43569.94       24.218895      24.218895      24.218895      1.0782149    
     16000   234.18305      14340.891     -5735.6726     -6449.783       714.11045     -6449.783       43565.468      24.295474      24.295474      24.295474      1.0680514    
     17000   227.91257      14262.451     -5710.4212     -6405.4106      694.98946     -6405.4106      43523.809      24.251097      24.251097      24.251097      1.0739254    
     18000   227.0885       14245.356     -5724.435      -6416.9116      692.47656     -6416.9116      43537.917      24.241404      24.241404      24.241404      1.0752142    
     19000   219.68574      14306.883     -5774.4112     -6444.314       669.9028      -6444.314       43576.642      24.276254      24.276254      24.276254      1.0705902    
     20000   227.93439      14201.596     -5777.1273     -6472.1833      695.056       -6472.1833      43438.295      24.216556      24.216556      24.216556      1.0785273    
     21000   231.87238      14253.843     -5771.1131     -6478.1775      707.06438     -6478.1775      43508.855      24.246217      24.246217      24.246217      1.074574     
     22000   222.71456      14361.1       -5746.5608     -6425.6996      679.13879     -6425.6996      43580.524      24.306881      24.306881      24.306881      1.0665484    
     23000   230.97491      14320.062     -5710.8094     -6415.1371      704.32766     -6415.1371      43566.33       24.283706      24.283706      24.283706      1.0696049    
     24000   221.51472      14196.804     -5715.2437     -6390.7237      675.48004     -6390.7237      43594.009      24.213832      24.213832      24.213832      1.0788914    
     25000   227.46558      14107.637     -5735.6198     -6429.2462      693.62642     -6429.2462      43581.162      24.163032      24.163032      24.163032      1.0857104    
     26000   222.47673      14205.387     -5743.6263     -6422.0399      678.41358     -6422.0399      43562.214      24.218711      24.218711      24.218711      1.0782395    
     27000   225.1634       14221.462     -5738.2262     -6424.8325      686.60623     -6424.8325      43592.636      24.227843      24.227843      24.227843      1.0770207    
     28000   230.88038      14241.68      -5727.4597     -6431.4991      704.0394      -6431.4991      43565.447      24.239318      24.239318      24.239318      1.0754918    
     29000   231.95552      14382.591     -5713.18       -6420.4979      707.31789     -6420.4979      43560.187      24.319         24.319         24.319         1.0649548    
     30000   227.49256      14358.012     -5682.6003     -6376.309       693.70869     -6376.309       43669.191      24.305139      24.305139      24.305139      1.0667778    
     31000   230.51819      14110.485     -5679.791      -6382.726       702.93494     -6382.726       43557.541      24.164658      24.164658      24.164658      1.0854913    
     32000   223.42258      14117.29      -5724.7924     -6406.0903      681.29782     -6406.0903      43619.232      24.168542      24.168542      24.168542      1.0849681    
     33000   218.90591      14292.335     -5743.5745     -6411.0993      667.52483     -6411.0993      43571.906      24.268023      24.268023      24.268023      1.07168      
     34000   218.16058      14207.955     -5737.921      -6403.173       665.25203     -6403.173       43620.429      24.22017       24.22017       24.22017       1.0780446    
     35000   232.56812      14112.887     -5711.7884     -6420.9744      709.18595     -6420.9744      43531.318      24.166029      24.166029      24.166029      1.0853066    
     36000   231.60571      14301.611     -5678.3841     -6384.6353      706.25119     -6384.6353      43605.767      24.273272      24.273272      24.273272      1.0709849    
     37000   233.82671      14349.171     -5673.1951     -6386.219       713.02385     -6386.219       43673.65       24.300149      24.300149      24.300149      1.0674351    
     38000   223.40577      14053.043     -5705.3929     -6386.6395      681.24655     -6386.6395      43607.579      24.131823      24.131823      24.131823      1.0899283    
     39000   224.39193      14011.07      -5746.992      -6431.2458      684.25371     -6431.2458      43542.593      24.107773      24.107773      24.107773      1.0931934    
     40000   219.25862      14277.317     -5758.8549     -6427.4553      668.60036     -6427.4553      43570.198      24.25952       24.25952       24.25952       1.0728072    
     41000   221.33236      14241.712     -5745.4054     -6420.3293      674.92396     -6420.3293      43602.726      24.239337      24.239337      24.239337      1.0754893    
     42000   233.27245      13986.638     -5710.4148     -6421.7485      711.3337      -6421.7485      43557.425      24.093753      24.093753      24.093753      1.095103     
     43000   235.35896      14046.817     -5706.6109     -6424.3071      717.69625     -6424.3071      43585.891      24.128259      24.128259      24.128259      1.0904113    
     44000   217.85951      14226.702     -5738.9787     -6403.3127      664.33397     -6403.3127      43641.355      24.230818      24.230818      24.230818      1.076624     
     45000   210.36691      14122.465     -5764.3033     -6405.7895      641.48626     -6405.7895      43596.103      24.171495      24.171495      24.171495      1.0845705    
     46000   216.60563      14029.532     -5756.3413     -6416.8517      660.51042     -6416.8517      43598.937      24.118358      24.118358      24.118358      1.0917548    
     47000   227.57093      14139.847     -5699.4833     -6393.431       693.94765     -6393.431       43642.475      24.181407      24.181407      24.181407      1.0832373    
     48000   234.78679      14218.937     -5695.2846     -6411.2361      715.95148     -6411.2361      43636.741      24.226409      24.226409      24.226409      1.0772119    
     49000   223.70872      14166.745     -5713.126      -6395.2963      682.17035     -6395.2963      43553.075      24.196731      24.196731      24.196731      1.0811805    
     50000   214.10643      14238.959     -5740.4299     -6393.3193      652.88943     -6393.3193      43655.132      24.237775      24.237775      24.237775      1.0756973    
     51000   218.49818      14078.373     -5746.0372     -6412.3187      666.28152     -6412.3187      43527.71       24.146313      24.146313      24.146313      1.0879672    
     52000   220.54642      14027.446     -5739.476      -6412.0034      672.52734     -6412.0034      43559.347      24.117162      24.117162      24.117162      1.0919172    
     53000   230.87352      14230.903     -5722.2006     -6426.2191      704.01849     -6426.2191      43629.874      24.233203      24.233203      24.233203      1.0763062    
     54000   228.54437      14275.286     -5701.6956     -6398.6117      696.91604     -6398.6117      43683.033      24.258369      24.258369      24.258369      1.0729599    
     55000   232.78777      14127.701     -5696.161      -6406.0167      709.85574     -6406.0167      43620.296      24.174481      24.174481      24.174481      1.0841685    
     56000   227.9236       14141.217     -5742.2114     -6437.2345      695.02307     -6437.2345      43552.314      24.182188      24.182188      24.182188      1.0831323    
     57000   219.02854      14261.499     -5762.3099     -6430.2087      667.89876     -6430.2087      43590.303      24.250557      24.250557      24.250557      1.0739971    
     58000   228.52303      14217.755     -5754.8975     -6451.7485      696.85097     -6451.7485      43538.604      24.225738      24.225738      24.225738      1.0773015    
     59000   229.29157      14098.764     -5726.4387     -6425.6332      699.19453     -6425.6332      43563.225      24.157965      24.157965      24.157965      1.0863938    
     60000   228.68288      14162.744     -5696.2734     -6393.6118      697.33841     -6393.6118      43624.043      24.194453      24.194453      24.194453      1.081486     
     61000   236.12921      14229.476     -5681.7755     -6401.8205      720.04501     -6401.8205      43576.669      24.232393      24.232393      24.232393      1.0764141    
     62000   225.97928      14127.702     -5706.1448     -6395.239       689.09414     -6395.239       43611.083      24.174482      24.174482      24.174482      1.0841685    
     63000   229.22292      14060.204     -5747.0141     -6445.9993      698.9852      -6445.9993      43504.092      24.135921      24.135921      24.135921      1.0893732    
     64000   215.99011      14186.495     -5768.5462     -6427.1796      658.63347     -6427.1796      43594.809      24.20797       24.20797       24.20797       1.0796754    
     65000   225.23911      14291.709     -5774.8972     -6461.7343      686.8371      -6461.7343      43522.248      24.267669      24.267669      24.267669      1.0717269    
     66000   228.62192      14308.775     -5757.5923     -6454.7449      697.15253     -6454.7449      43555.25       24.277324      24.277324      24.277324      1.0704487    
     67000   234.54477      14163.069     -5721.8502     -6437.0637      715.21349     -6437.0637      43499.645      24.194638      24.194638      24.194638      1.0814612    
     68000   233.04242      14212.628     -5722.0438     -6432.6761      710.63227     -6432.6761      43545.077      24.222825      24.222825      24.222825      1.0776901    
     69000   222.13745      14190.477     -5761.8924     -6439.2714      677.37899     -6439.2714      43583.723      24.210235      24.210235      24.210235      1.0793724    
     70000   217.99391      14065.336     -5787.647      -6452.3908      664.74381     -6452.3908      43520.116      24.138857      24.138857      24.138857      1.0889757    
     71000   222.66469      14125.181     -5785.8634     -6464.8502      678.98674     -6464.8502      43532.107      24.173044      24.173044      24.173044      1.084362     
     72000   229.46047      14240.052     -5758.3576     -6458.0671      699.70957     -6458.0671      43599.942      24.238395      24.238395      24.238395      1.0756147    
     73000   225.04638      14184.59      -5727.1764     -6413.4258      686.24938     -6413.4258      43521.086      24.206886      24.206886      24.206886      1.0798204    
     74000   231.22899      14271.011     -5735.2492     -6440.3516      705.10244     -6440.3516      43530.386      24.255948      24.255948      24.255948      1.0732813    
     75000   228.69888      14298.334     -5747.7401     -6445.1273      697.38719     -6445.1273      43504.96       24.271418      24.271418      24.271418      1.0712303    
     76000   224.28235      14189.26      -5760.6278     -6444.5473      683.91958     -6444.5473      43540.733      24.209542      24.209542      24.209542      1.079465     
     77000   224.75138      14130.508     -5795.5322     -6480.882       685.34983     -6480.882       43496.248      24.176082      24.176082      24.176082      1.0839532    
     78000   216.87115      14186.723     -5822.227      -6483.547       661.32008     -6483.547       43453.319      24.2081        24.2081        24.2081        1.079658     
     79000   214.76326      14192.819     -5795.7481     -6450.6405      654.89235     -6450.6405      43548.353      24.211567      24.211567      24.211567      1.0791943    
     80000   225.3217       14184.286     -5775.8909     -6462.9799      687.08894     -6462.9799      43558.592      24.206713      24.206713      24.206713      1.0798435    
     81000   224.17522      14110.007     -5763.7706     -6447.3635      683.5929      -6447.3635      43498.272      24.164385      24.164385      24.164385      1.0855281    
     82000   218.95339      14299.151     -5762.5576     -6430.2272      667.6696      -6430.2272      43570.707      24.27188       24.27188       24.27188       1.0711691    
     83000   223.07762      14395.225     -5733.2771     -6413.523       680.24592     -6413.523       43626.402      24.326118      24.326118      24.326118      1.0640201    
     84000   233.69124      14311.076     -5703.3328     -6415.9436      712.61076     -6415.9436      43583.45       24.278626      24.278626      24.278626      1.0702765    
     85000   229.72925      14204.618     -5707.4958     -6408.025       700.52919     -6408.025       43525.118      24.218274      24.218274      24.218274      1.0782979    
     86000   217.42537      14264.894     -5745.3136     -6408.3237      663.0101      -6408.3237      43541.268      24.252482      24.252482      24.252482      1.0737415    
     87000   217.01617      14293.588     -5761.9512     -6423.7135      661.76231     -6423.7135      43603.771      24.268732      24.268732      24.268732      1.071586     
     88000   220.02764      14386.331     -5759.5428     -6430.4882      670.94539     -6430.4882      43533.507      24.321107      24.321107      24.321107      1.064678     
     89000   223.2456       14547.199     -5745.3485     -6426.1066      680.75814     -6426.1066      43525.621      24.411425      24.411425      24.411425      1.0529044    
     90000   227.20588      14437.755     -5722.4969     -6415.3314      692.83449     -6415.3314      43521.066      24.350052      24.350052      24.350052      1.0608858    
     91000   232.46035      14362.382     -5713.8306     -6422.6879      708.85731     -6422.6879      43542.356      24.307605      24.307605      24.307605      1.0664532    
     92000   219.28999      14303.585     -5736.7541     -6405.4501      668.69603     -6405.4501      43555.799      24.274389      24.274389      24.274389      1.070837     
     93000   221.4404       14370.263     -5775.9239     -6451.1773      675.25342     -6451.1773      43535.172      24.31205       24.31205       24.31205       1.0658684    
     94000   223.48402      14432.879     -5782.9841     -6464.4693      681.48517     -6464.4693      43487.854      24.34731       24.34731       24.34731       1.0612442    
     95000   215.3743       14504.747     -5772.2351     -6428.9908      656.75565     -6428.9908      43541.623      24.387656      24.387656      24.387656      1.055986     
     96000   225.52461      14440.572     -5721.6734     -6409.3811      687.70769     -6409.3811      43532.791      24.351635      24.351635      24.351635      1.0606788    
     97000   232.58585      14460.727     -5715.8492     -6425.0892      709.24002     -6425.0892      43544.321      24.362959      24.362959      24.362959      1.0592005    
     98000   231.30518      14458.081     -5739.0311     -6444.3659      705.33478     -6444.3659      43512.914      24.361473      24.361473      24.361473      1.0593944    
     99000   234.27878      14464.687     -5766.5221     -6480.9245      714.40238     -6480.9245      43428.708      24.365183      24.365183      24.365183      1.0589105    
    100000   218.16262      14529.035     -5781.1431     -6446.4014      665.25827     -6446.4014      43550.63       24.40126       24.40126       24.40126       1.0542207    
    101000   222.73192      14429.673     -5775.6019     -6454.7936      679.19175     -6454.7936      43496.359      24.345507      24.345507      24.345507      1.06148      
    102000   221.46587      14375.253     -5772.7737     -6448.1047      675.33108     -6448.1047      43443.403      24.314863      24.314863      24.314863      1.0654984    
    103000   218.56024      14417.89      -5770.1569     -6436.6276      666.47074     -6436.6276      43531.34       24.338879      24.338879      24.338879      1.0623475    
    104000   224.84247      14502.683     -5743.4371     -6429.0647      685.62759     -6429.0647      43573.318      24.386499      24.386499      24.386499      1.0561362    
    105000   230.73591      14429.086     -5692.1452     -6395.7441      703.59887     -6395.7441      43579.97       24.345177      24.345177      24.345177      1.0615232    
    106000   231.40107      14479.762     -5717.3624     -6422.9896      705.62718     -6422.9896      43544.049      24.373644      24.373644      24.373644      1.0578081    
    107000   221.34152      14407.147     -5750.9133     -6425.8652      674.9519      -6425.8652      43507.658      24.332833      24.332833      24.332833      1.0631396    
    108000   235.994        14243.423     -5771.9972     -6491.6299      719.63271     -6491.6299      43438.734      24.240307      24.240307      24.240307      1.0753601    
    109000   225.16012      14375.466     -5795.0842     -6481.6804      686.59622     -6481.6804      43453.356      24.314983      24.314983      24.314983      1.0654826    
    110000   214.88503      14485.539     -5786.5842     -6441.8478      655.26367     -6441.8478      43540.624      24.376885      24.376885      24.376885      1.0573862    
    111000   227.35107      14323.957     -5737.0977     -6430.375       693.27724     -6430.375       43510.993      24.285907      24.285907      24.285907      1.0693141    
    112000   226.91414      14226.133     -5732.1809     -6424.1257      691.94487     -6424.1257      43566.719      24.230495      24.230495      24.230495      1.0766671    
    113000   230.65621      14226.776     -5741.3459     -6444.7017      703.35583     -6444.7017      43534.663      24.23086       24.23086       24.23086       1.0766184    
    114000   218.55594      14232.629     -5741.4592     -6407.9168      666.45765     -6407.9168      43611.545      24.234183      24.234183      24.234183      1.0761757    
    115000   226.54892      14185.772     -5709.7168     -6400.548       690.83119     -6400.548       43552.191      24.207559      24.207559      24.207559      1.0797304    
    116000   224.68533      14341.112     -5685.6633     -6370.8117      685.14841     -6370.8117      43646.31       24.295599      24.295599      24.295599      1.068035     
    117000   227.02563      14252.784     -5690.6523     -6382.9372      692.28485     -6382.9372      43644.493      24.245617      24.245617      24.245617      1.0746538    
    118000   217.18551      13989.919     -5739.9264     -6402.2051      662.27869     -6402.2051      43650.42       24.095636      24.095636      24.095636      1.0948462    
    119000   220.1362       13978.035     -5749.4901     -6420.7665      671.27645     -6420.7665      43570.848      24.088811      24.088811      24.088811      1.095777     
    120000   220.93569      14141.446     -5736.5266     -6410.2409      673.71436     -6410.2409      43650.766      24.182318      24.182318      24.182318      1.0831148    
    121000   231.53559      14124.99      -5702.9825     -6409.0199      706.03738     -6409.0199      43592.192      24.172935      24.172935      24.172935      1.0843767    
    122000   234.98414      14162.541     -5697.5672     -6414.1204      716.55327     -6414.1204      43569.223      24.194337      24.194337      24.194337      1.0815015    
    123000   218.75402      14257.308     -5711.4564     -6378.518       667.06166     -6378.518       43601.056      24.248181      24.248181      24.248181      1.0743129    
    124000   229.46182      14246.801     -5722.9605     -6422.6741      699.71368     -6422.6741      43576.389      24.242224      24.242224      24.242224      1.0751051    
    125000   219.23543      14149.026     -5726.6628     -6395.1925      668.52967     -6395.1925      43555.888      24.186638      24.186638      24.186638      1.0825345    
    126000   217.20613      14101.387     -5717.6034     -6379.9449      662.34156     -6379.9449      43626.453      24.159463      24.159463      24.159463      1.0861917    
    127000   223.63443      14203.451     -5694.4189     -6376.3627      681.94382     -6376.3627      43634.052      24.21761       24.21761       24.21761       1.0783865    
    128000   232.20273      14240.69      -5671.7703     -6379.842       708.07173     -6379.842       43694.824      24.238757      24.238757      24.238757      1.0755665    
    129000   236.00362      14065.817     -5654.9875     -6374.6496      719.66205     -6374.6496      43621.792      24.139132      24.139132      24.139132      1.0889384    
    130000   235.67926      14151.073     -5686.0157     -6404.6887      718.67295     -6404.6887      43627.978      24.187805      24.187805      24.187805      1.0823779    
    131000   227.01466      14233.834     -5724.0685     -6416.3199      692.25141     -6416.3199      43614.384      24.234867      24.234867      24.234867      1.0760845    
    132000   218.69638      14251.846     -5724.9187     -6391.8046      666.88588     -6391.8046      43633.946      24.245085      24.245085      24.245085      1.0747245    
    133000   229.53423      14197.757     -5708.2516     -6408.1861      699.9345      -6408.1861      43638.905      24.214374      24.214374      24.214374      1.0788189    
    134000   224.46281      14156.381     -5686.3329     -6370.8027      684.46985     -6370.8027      43599.681      24.190829      24.190829      24.190829      1.0819721    
    135000   235.32658      14268.258     -5659.746      -6377.3435      717.59749     -6377.3435      43647.475      24.254388      24.254388      24.254388      1.0734884    
    136000   231.48614      14200.515     -5648.2034     -6354.09        705.88657     -6354.09        43664.345      24.215942      24.215942      24.215942      1.0786094    
    137000   224.95028      13982.952     -5687.1979     -6373.1543      685.95634     -6373.1543      43631.454      24.091636      24.091636      24.091636      1.0953916    
    138000   225.64588      14179.572     -5721.5462     -6409.6237      688.07748     -6409.6237      43592.357      24.204031      24.204031      24.204031      1.0802025    
    139000   223.74353      14244.813     -5733.9369     -6416.2134      682.27651     -6416.2134      43583.284      24.241096      24.241096      24.241096      1.0752552    
    140000   223.96053      14139.51      -5729.9998     -6412.938       682.93824     -6412.938       43587.869      24.181215      24.181215      24.181215      1.0832631    
    141000   227.17023      14097.912     -5703.8027     -6396.5285      692.72577     -6396.5285      43611.943      24.157478      24.157478      24.157478      1.0864594    
    142000   231.19442      14142.369     -5672.7833     -6377.7804      704.99702     -6377.7804      43616.899      24.182845      24.182845      24.182845      1.0830441    
    143000   225.33403      14335.693     -5687.4917     -6374.6182      687.12654     -6374.6182      43651.919      24.292538      24.292538      24.292538      1.0684387    
    144000   220.43998      14406.36      -5718.1452     -6390.348       672.20276     -6390.348       43632.268      24.332389      24.332389      24.332389      1.0631977    
    145000   216.76202      14338.933     -5720.4389     -6381.4262      660.98733     -6381.4262      43584.116      24.294368      24.294368      24.294368      1.0681972    
    146000   221.6765       14425.883     -5718.5566     -6394.53        675.97336     -6394.53        43660.559      24.343376      24.343376      24.343376      1.0617589    
    147000   224.76546      14513.55      -5712.5349     -6397.9277      685.39276     -6397.9277      43565.791      24.392588      24.392588      24.392588      1.0553455    
    148000   233.12976      14433.766     -5710.9854     -6421.884       710.8986      -6421.884       43603.066      24.347809      24.347809      24.347809      1.061179     
    149000   221.87695      14218.319     -5733.5082     -6410.0929      676.58463     -6410.0929      43570.329      24.226058      24.226058      24.226058      1.0772588    
    150000   209.13019      14353.964     -5768.3        -6406.0151      637.71505     -6406.0151      43524.192      24.302854      24.302854      24.302854      1.0670787    
    151000   223.5892       14522.485     -5761.6186     -6443.4245      681.8059      -6443.4245      43553.964      24.397593      24.397593      24.397593      1.0546961    
    152000   218.86416      14474.447     -5723.9405     -6391.338       667.39751     -6391.338       43576.466      24.370662      24.370662      24.370662      1.0581965    
    153000   222.45097      14402.566     -5713.3074     -6391.6424      678.33503     -6391.6424      43518.171      24.330253      24.330253      24.330253      1.0634778    
    154000   223.57512      14417.464     -5719.6745     -6401.4375      681.76298     -6401.4375      43559.302      24.338639      24.338639      24.338639      1.0623788    
    155000   224.48764      14562.745     -5735.8847     -6420.4303      684.54559     -6420.4303      43608.204      24.420118      24.420118      24.420118      1.0517803    
    156000   227.67804      14541.831     -5758.7347     -6453.009       694.27429     -6453.009       43448.508      24.408422      24.408422      24.408422      1.053293     
    157000   219.6406       14500.706     -5786.5824     -6456.3476      669.76517     -6456.3476      43462.19       24.385391      24.385391      24.385391      1.0562802    
    158000   216.5701       14395.439     -5767.8952     -6428.2973      660.40207     -6428.2973      43554.351      24.326239      24.326239      24.326239      1.0640043    
    159000   220.03657      14387.362     -5729.2678     -6400.2404      670.97263     -6400.2404      43581.205      24.321689      24.321689      24.321689      1.0646016    
    160000   225.62549      14406.689     -5721.064      -6409.0793      688.0153      -6409.0793      43523.248      24.332574      24.332574      24.332574      1.0631734    
    161000   220.8027       14332.262     -5718.4691     -6391.7779      673.30883     -6391.7779      43602.343      24.2906        24.2906        24.2906        1.0686945    
    162000   226.97595      14233.86      -5724.3101     -6416.4435      692.13336     -6416.4435      43554.815      24.234881      24.234881      24.234881      1.0760826    
    163000   220.40111      14349.824     -5756.8708     -6428.9551      672.08424     -6428.9551      43573.137      24.300517      24.300517      24.300517      1.0673866    
    164000   225.22708      14486.54      -5769.3862     -6456.1866      686.80041     -6456.1866      43496.394      24.377447      24.377447      24.377447      1.0573131    
    165000   227.8416       14426.569     -5739.2258     -6433.9989      694.77303     -6433.9989      43529.527      24.343762      24.343762      24.343762      1.0617084    
    166000   229.36103      14298.91      -5701.6965     -6401.1028      699.40634     -6401.1028      43560.542      24.271744      24.271744      24.271744      1.0711871    
    167000   229.86147      14247.791     -5701.1007     -6402.0331      700.93236     -6402.0331      43590.866      24.242785      24.242785      24.242785      1.0750304    
    168000   228.67569      14269.734     -5716.1666     -6413.4831      697.31649     -6413.4831      43591.627      24.255224      24.255224      24.255224      1.0733774    
    169000   229.84688      14346.987     -5745.1556     -6446.0435      700.88788     -6446.0435      43524.91       24.298916      24.298916      24.298916      1.0675976    
    170000   210.52217      14468.143     -5794.2745     -6436.2342      641.95972     -6436.2342      43502.905      24.367123      24.367123      24.367123      1.0586576    
    171000   216.09983      14432.947     -5806.4443     -6465.4124      658.96805     -6465.4124      43485.066      24.347349      24.347349      24.347349      1.0612392    
    172000   218.99302      14340.869     -5783.5975     -6451.388       667.79047     -6451.388       43473.577      24.295461      24.295461      24.295461      1.0680531    
    173000   221.76402      14480.896     -5760.1646     -6436.4048      676.24024     -6436.4048      43539.999      24.374281      24.374281      24.374281      1.0577252    
    174000   228.76622      14586.043     -5734.4743     -6432.0668      697.59255     -6432.0668      43555.412      24.433133      24.433133      24.433133      1.0501003    
    175000   227.10988      14447.408     -5717.3167     -6409.8585      692.54175     -6409.8585      43551.283      24.355477      24.355477      24.355477      1.060177     
    176000   228.14936      14437.428     -5722.276      -6417.9875      695.7115      -6417.9875      43574.951      24.349868      24.349868      24.349868      1.0609098    
    177000   215.13749      14550.227     -5768.6524     -6424.6859      656.03352     -6424.6859      43614.173      24.413118      24.413118      24.413118      1.0526853    
    178000   217.95185      14384.733     -5775.5071     -6440.1227      664.61555     -6440.1227      43513.089      24.320207      24.320207      24.320207      1.0647962    
    179000   220.76144      14299.01      -5748.9573     -6422.1403      673.18304     -6422.1403      43474.813      24.271801      24.271801      24.271801      1.0711797    
    180000   223.01091      14516.455     -5738.9954     -6419.0378      680.04248     -6419.0378      43562.848      24.394215      24.394215      24.394215      1.0551343    
    181000   224.80188      14516.149     -5723.4952     -6408.999       685.50381     -6408.999       43613.962      24.394044      24.394044      24.394044      1.0551565    
    182000   228.38202      14362.387     -5701.6607     -6398.0817      696.42099     -6398.0817      43480.065      24.307607      24.307607      24.307607      1.0664529    
    183000   219.63497      14386.738     -5686.093      -6355.841       669.748       -6355.841       43648.622      24.321337      24.321337      24.321337      1.0646478    
    184000   235.56262      14336.718     -5646.3471     -6364.6644      718.31728     -6364.6644      43615.596      24.293117      24.293117      24.293117      1.0683623    
    185000   236.65355      14336.408     -5634.5944     -6356.2383      721.64392     -6356.2383      43617.703      24.292942      24.292942      24.292942      1.0683854    
    186000   222.36352      14343.402     -5677.4931     -6355.5615      678.06837     -6355.5615      43647.534      24.296892      24.296892      24.296892      1.0678645    
    187000   215.49043      14316.217     -5694.596      -6351.7058      657.10976     -6351.7058      43653.371      24.281532      24.281532      24.281532      1.0698922    
    188000   222.51572      14242.485     -5694.7788     -6373.3113      678.53247     -6373.3113      43581.71       24.239776      24.239776      24.239776      1.0754309    
    189000   228.46472      14357.443     -5705.207      -6401.8801      696.67315     -6401.8801      43603.848      24.304818      24.304818      24.304818      1.0668201    
    190000   218.43756      14380.756     -5728.0473     -6394.144       666.09667     -6394.144       43615.055      24.317965      24.317965      24.317965      1.0650907    
    191000   217.66109      14200.875     -5753.626      -6417.3549      663.7289      -6417.3549      43568.635      24.216147      24.216147      24.216147      1.0785821    
    192000   218.19444      14231.463     -5761.0963     -6426.4516      665.35529     -6426.4516      43562.805      24.233521      24.233521      24.233521      1.0762638    
    193000   223.74754      14327.884     -5714.4697     -6396.7584      682.28873     -6396.7584      43583.682      24.288127      24.288127      24.288127      1.069021     
    194000   224.23502      14376.452     -5690.8018     -6374.5771      683.77525     -6374.5771      43752.93       24.31554       24.31554       24.31554       1.0654095    
    195000   224.41964      14220.655     -5674.5823     -6358.9205      684.33822     -6358.9205      43646.386      24.227385      24.227385      24.227385      1.0770818    
    196000   222.10307      14157.982     -5670.187      -6347.4611      677.27415     -6347.4611      43761.327      24.191741      24.191741      24.191741      1.0818497    
    197000   229.07549      14138.083     -5675.5366     -6374.0722      698.53563     -6374.0722      43637.341      24.180402      24.180402      24.180402      1.0833724    
    198000   222.3365       14116.053     -5709.8185     -6387.8044      677.98595     -6387.8044      43618.074      24.167835      24.167835      24.167835      1.0850632    
    199000   225.90789      14062.155     -5722.5421     -6411.4185      688.87645     -6411.4185      43580.334      24.137037      24.137037      24.137037      1.0892221    
    200000   230.49539      14035.226     -5697.2495     -6400.1149      702.86543     -6400.1149      43627.871      24.12162       24.12162       24.12162       1.0913119    
    201000   227.23291      14090.631     -5665.6898     -6358.6067      692.91692     -6358.6067      43679.305      24.153319      24.153319      24.153319      1.0870208    
    202000   231.23809      14130.821     -5668.0342     -6373.1643      705.13019     -6373.1643      43677.736      24.176261      24.176261      24.176261      1.0839292    
    203000   232.07236      14037.723     -5679.7332     -6387.4074      707.67417     -6387.4074      43670.542      24.12305       24.12305       24.12305       1.0911178    
    204000   227.50429      13994.292     -5700.1996     -6393.9441      693.74447     -6393.9441      43598.415      24.098146      24.098146      24.098146      1.0945041    
    205000   223.20105      14162.035     -5725.8462     -6406.4685      680.62229     -6406.4685      43636.613      24.194049      24.194049      24.194049      1.0815401    
    206000   223.87778      14207.489     -5731.6981     -6414.3841      682.6859      -6414.3841      43607.26       24.219906      24.219906      24.219906      1.0780799    
    207000   225.84458      14112.165     -5699.2077     -6387.8911      688.6834      -6387.8911      43602.167      24.165616      24.165616      24.165616      1.0853621    
    208000   235.29604      14108.813     -5660.0909     -6377.5953      717.50437     -6377.5953      43667.237      24.163703      24.163703      24.163703      1.0856199    
    209000   240.74314      14139.53      -5677.7329     -6411.8475      734.11458     -6411.8475      43577.046      24.181227      24.181227      24.181227      1.0832615    
    210000   228.64323      14215.597     -5720.5352     -6417.7527      697.21752     -6417.7527      43646.349      24.224512      24.224512      24.224512      1.0774651    
    211000   227.5146       14053.321     -5734.9125     -6428.6884      693.7759      -6428.6884      43560.917      24.131982      24.131982      24.131982      1.0899067    
    212000   228.37027      13880.716     -5744.7007     -6441.0858      696.38514     -6441.0858      43534.159      24.032777      24.032777      24.032777      1.1034596    
    213000   225.71402      14030.027     -5774.9445     -6463.2298      688.28527     -6463.2298      43543.491      24.118641      24.118641      24.118641      1.0917163    
    214000   216.10672      14178.091     -5803.2577     -6462.2468      658.98907     -6462.2468      43524.259      24.203189      24.203189      24.203189      1.0803153    
    215000   220.24231      14068.077     -5786.907      -6458.507       671.6         -6458.507       43513.134      24.140425      24.140425      24.140425      1.0887635    
    216000   224.51137      13959.437     -5735.6209     -6420.2389      684.61794     -6420.2389      43553.213      24.078123      24.078123      24.078123      1.0972369    
    217000   226.73635      14111.338     -5726.3175     -6417.7202      691.40274     -6417.7202      43533.828      24.165144      24.165144      24.165144      1.0854257    
    218000   225.40721      14239.383     -5724.6221     -6411.9718      687.34969     -6411.9718      43678.2        24.238016      24.238016      24.238016      1.0756652    
    219000   221.61327      14160.67      -5721.8587     -6397.6392      675.78056     -6397.6392      43543.621      24.193271      24.193271      24.193271      1.0816444    
    220000   228.08801      14118.166     -5736.0357     -6431.5601      695.52443     -6431.5601      43591.766      24.169041      24.169041      24.169041      1.0849008    
    221000   224.95334      14136.184     -5761.8581     -6447.8238      685.96566     -6447.8238      43577.71       24.179319      24.179319      24.179319      1.083518     
    222000   219.4749       14073.834     -5762.3394     -6431.5993      669.25989     -6431.5993      43566.824      24.143718      24.143718      24.143718      1.0883181    
    223000   232.39268      14016.866     -5720.8501     -6429.5011      708.65095     -6429.5011      43574.904      24.111097      24.111097      24.111097      1.0927413    
    224000   228.4655       14048.305     -5700.0062     -6396.6817      696.67554     -6396.6817      43669.813      24.12911       24.12911       24.12911       1.0902959    
    225000   230.73624      14116.154     -5705.8225     -6409.4224      703.59986     -6409.4224      43587.433      24.167893      24.167893      24.167893      1.0850554    
    226000   226.81906      14146.145     -5721.0903     -6412.7452      691.65493     -6412.7452      43608.128      24.184997      24.184997      24.184997      1.082755     
    227000   221.92201      14090.523     -5760.2843     -6437.0063      676.72202     -6437.0063      43532.062      24.153257      24.153257      24.153257      1.0870291    
    228000   216.93717      14104.717     -5783.85       -6445.3714      661.5214      -6445.3714      43552.655      24.161365      24.161365      24.161365      1.0859352    
    229000   219.38788      14113.92      -5755.9821     -6424.9766      668.99453     -6424.9766      43637.5        24.166618      24.166618      24.166618      1.0852272    
    230000   222.22992      14015.416     -5727.7873     -6405.4483      677.66097     -6405.4483      43601.992      24.110266      24.110266      24.110266      1.0928544    
    231000   231.00473      14037.558     -5715.8998     -6420.3184      704.41859     -6420.3184      43530.161      24.122956      24.122956      24.122956      1.0911306    
    232000   221.43965      14300.325     -5716.1134     -6391.3646      675.25115     -6391.3646      43595.191      24.272544      24.272544      24.272544      1.0710812    
    233000   225.11224      14429.704     -5725.4563     -6411.9065      686.4502      -6411.9065      43683.758      24.345525      24.345525      24.345525      1.0614777    
    234000   225.72048      14186.162     -5727.7391     -6416.0441      688.30498     -6416.0441      43568.27       24.207781      24.207781      24.207781      1.0797007    
    235000   225.03579      14005.246     -5714.7006     -6400.9177      686.21708     -6400.9177      43604.367      24.104433      24.104433      24.104433      1.093648     
    236000   231.6419       14135.262     -5696.487      -6402.8486      706.36156     -6402.8486      43565.207      24.178793      24.178793      24.178793      1.0835886    
    237000   231.65816      14408.269     -5679.1728     -6385.5839      706.41113     -6385.5839      43641.093      24.333464      24.333464      24.333464      1.0630568    
    238000   219.81475      14330.582     -5670.1152     -6340.4114      670.29623     -6340.4114      43680.679      24.289651      24.289651      24.289651      1.0688197    
    239000   222.89648      14218.454     -5700.7061     -6380.3997      679.69354     -6380.3997      43649.695      24.226134      24.226134      24.226134      1.0772486    
    240000   218.92196      14188.389     -5735.2789     -6402.8526      667.57377     -6402.8526      43644.188      24.209047      24.209047      24.209047      1.0795312    
    241000   216.09519      14073.429     -5732.1313     -6391.0851      658.95389     -6391.0851      43642.798      24.143486      24.143486      24.143486      1.0883495    
    242000   224.69584      14111.128     -5716.0199     -6401.2003      685.18044     -6401.2003      43674.263      24.165025      24.165025      24.165025      1.0854418    
    243000   234.94315      14170.032     -5681.3997     -6397.828       716.42828     -6397.828       43632.897      24.198602      24.198602      24.198602      1.0809297    
    244000   232.10697      14229.893     -5661.7721     -6369.5518      707.77974     -6369.5518      43689.909      24.232629      24.232629      24.232629      1.0763826    
    245000   234.41842      14137.669     -5692.05       -6406.8782      714.8282      -6406.8782      43628.725      24.180166      24.180166      24.180166      1.0834041    
    246000   216.92427      14074.222     -5729.8306     -6391.3127      661.48207     -6391.3127      43659.055      24.14394       24.14394       24.14394       1.0882881    
    247000   214.68794      14148.767     -5733.4123     -6388.075       654.66269     -6388.075       43678.822      24.186491      24.186491      24.186491      1.0825544    
    248000   224.15234      14080.587     -5711.2621     -6394.7852      683.52312     -6394.7852      43617.184      24.147579      24.147579      24.147579      1.0877962    
    249000   225.79604      14056.03      -5680.3777     -6368.913       688.53536     -6368.913       43622.315      24.133532      24.133532      24.133532      1.0896967    
    250000   236.13727      14214.452     -5680.5742     -6400.6438      720.06959     -6400.6438      43652.327      24.223861      24.223861      24.223861      1.0775519    
Loop time of 3493.44 on 8 procs for 250000 steps with 1536 atoms

Performance: 6.183 ns/day, 3.882 hours/ns, 71.563 timesteps/s, 109.920 katom-step/s
96.9% CPU use with 8 MPI tasks x 1 OpenMP threads

MPI task timing breakdown:
Section |  min time  |  avg time  |  max time  |%varavg| %total
---------------------------------------------------------------
Pair    | 1767.6     | 2001.2     | 2219.6     | 286.9 | 57.28
Bond    | 0.57782    | 0.62439    | 0.66792    |   3.8 |  0.02
Kspace  | 828.36     | 1046.9     | 1280.2     | 396.5 | 29.97
Neigh   | 18.05      | 18.064     | 18.081     |   0.2 |  0.52
Comm    | 104.29     | 104.78     | 105.07     |   2.8 |  3.00
Output  | 0.68369    | 0.94754    | 1.0951     |  15.9 |  0.03
Modify  | 263.54     | 267.89     | 271.07     |  14.7 |  7.67
Other   |            | 53.06      |            |       |  1.52

Nlocal:            192 ave         201 max         184 min
Histogram: 2 0 1 0 0 2 2 0 0 1
Nghost:           9207 ave        9289 max        9129 min
Histogram: 1 1 0 0 2 1 2 0 0 1
Neighs:         155867 ave      170176 max      149127 min
Histogram: 3 1 1 0 1 1 0 0 0 1

Total # of neighbors = 1246937
Ave neighs/atom = 811.80794
Ave special neighs/atom = 2
Neighbor list builds = 2253
Dangerous builds = 0
Total wall time: 0:58:13
