LAMMPS (22 Jul 2025 - Update 1)
units real
atom_style full
boundary p p p

# package intel 1 omp 2

pair_style lj/cut/tip4p/long 1 2 1 1 0.1546 9.5

bond_style zero
angle_style zero
pair_modify tail yes

read_data 4096_equilibrated_${T}.data
read_data 4096_equilibrated_246.data
Reading data file ...
  triclinic box = (0 0 0) to (49.79052 49.79052 49.79052) with tilt (0 0 0)
  2 by 4 by 7 MPI processor grid
  reading atoms ...
  12288 atoms
  reading velocities ...
  12288 velocities
  scanning bonds ...
  2 = max bonds/atom
  scanning angles ...
  1 = max angles/atom
  triclinic box = (0 0 0) to (49.79052 49.79052 49.79052) with tilt (0 0 0)
  2 by 4 by 7 MPI processor grid
  reading bonds ...
  8192 bonds
  reading angles ...
  4096 angles
Finding 1-2 1-3 1-4 neighbors ...
  special bond factors lj:    0        0        0       
  special bond factors coul:  0        0        0       
     2 = max # of 1-2 neighbors
     1 = max # of 1-3 neighbors
     1 = max # of 1-4 neighbors
     2 = max # of special neighbors
  special bonds CPU = 0.005 seconds
  read_data CPU = 0.167 seconds
# read_data equilibration_NVT_${T}.data
# replicate 2 2 2

print "Initial configuration loaded."
Initial configuration loaded.
reset_timestep 0
print "Applying shear rate: ${gamma}"
Applying shear rate: 2.5e-4
change_box all triclinic
Changing box ...
  triclinic box = (0 0 0) to (49.79052 49.79052 49.79052) with tilt (0 0 0)
kspace_style pppm/tip4p 1.0e-5

pair_coeff 1 1 0.18521 3.1589 #O-O
pair_coeff * 2 0.0 0.0

bond_coeff 1 0.9572 #O-H
angle_coeff 1 104.52 #H-O-H

group gH2O type 1 2
12288 atoms in group gH2O
group gO type 1
4096 atoms in group gO

neighbor 3.0 bin
neigh_modify delay 0 every 1 check yes

timestep 1.0
fix 1 gH2O shake 1.0e-4 100 0 b 1 a 1
Finding SHAKE clusters ...
       0 = # of size 2 clusters
       0 = # of size 3 clusters
       0 = # of size 4 clusters
    4096 = # of frozen angles
  find clusters CPU = 0.004 seconds

# # 系统弛豫到平衡态
# fix fnvt_equil all nvt temp ${T} ${T} 100.0
# thermo 1000
# thermo_style custom step temp etotal pe
# thermo_modify flush yes
# run 500000 # 500 ps
# unfix fnvt_equil
# write_data 4096_equilibrated_${T}.data

# 系统剪切变形

fix fdeform all deform 1 xy erate ${gamma} remap v
fix fdeform all deform 1 xy erate 2.5e-4 remap v
fix fnvt all nvt/sllod temp ${T} ${T} 100.0
fix fnvt all nvt/sllod temp 246 ${T} 100.0
fix fnvt all nvt/sllod temp 246 246 100.0

compute tilt all temp/deform

variable L0_x equal lx
variable L0_y equal ly
variable L0_z equal lz

compute p all pressure NULL virial
variable sxy equal -c_p[4] * 1.01325e-4  # convert to GPa


variable strainInc equal 0.01
variable dt equal 1.0e-15
variable gammaSI equal ${gamma}*1e15
variable gammaSI equal 2.5e-4*1e15
variable stepsPerReset equal ceil(${strainInc}/(${gammaSI}*${dt}))
variable stepsPerReset equal ceil(0.01/(${gammaSI}*${dt}))
variable stepsPerReset equal ceil(0.01/(250000000000*${dt}))
variable stepsPerReset equal ceil(0.01/(250000000000*1e-15))
print "Steps per reset: ${stepsPerReset}"
Steps per reset: 40

variable massAll equal mass(all)/6.022e23
variable volCm3 equal vol*1.0e-24
variable density_sys equal v_massAll/v_volCm3
variable tau_pa equal v_sxy * 1e9
variable gamma_s equal ${gamma} * 1e15
variable gamma_s equal 2.5e-4 * 1e15
variable viscosity equal v_tau_pa / v_gamma_s

variable strain equal step*${gammaSI}*${dt}
variable strain equal step*250000000000*${dt}
variable strain equal step*250000000000*1e-15

thermo 1000
thermo_style custom step temp etotal pe pxy v_sxy v_strain v_viscosity
thermo_modify flush yes

dump traj all custom 500 traj_${gamma}_${T}.lammpstrj id type xu yu zu vx vy vz # 0.5ps
dump traj all custom 500 traj_2.5e-4_${T}.lammpstrj id type xu yu zu vx vy vz 
dump traj all custom 500 traj_2.5e-4_246.lammpstrj id type xu yu zu vx vy vz 
dump_modify traj sort id
fix stress all ave/time 500 1 500 v_strain v_sxy file stress_${gamma}_${T}.data  # 每0.5ps输出一次应力和应变
fix stress all ave/time 500 1 500 v_strain v_sxy file stress_2.5e-4_${T}.data  
fix stress all ave/time 500 1 500 v_strain v_sxy file stress_2.5e-4_246.data  

# compute peratom all stress/atom NULL
# dump stress gO custom 5000 stress_${gamma}_${T}.lammpstrj id type c_peratom[1] c_peratom[2] c_peratom[3] c_peratom[4] c_peratom[5] c_peratom[6]
# dump_modify stress sort id

variable Ttotal equal 2000000 # 2.0 ns
variable nloops equal ceil(${Ttotal}/(10000))
variable nloops equal ceil(2000000/(10000))
print "Total loops: ${nloops}"
Total loops: 200

variable nloop loop ${nloops}
variable nloop loop 200
label loop_start
run 10000 # 10ps
PPPM initialization ...
  extracting TIP4P info from pair style
  using 12-bit tables for long-range coulomb
  G vector (1/distance) = 0.32815664
  grid = 50 50 50
  stencil order = 5
  estimated absolute RMS force accuracy = 0.0035802102
  estimated relative force accuracy = 1.0781697e-05
  using double precision KISS FFT
  3d grid and FFT values/proc = 11424 2800
WARNING: Communication cutoff 0 is shorter than a bond length based estimate of 4.4358. This may lead to errors. (../comm.cpp:743)
WARNING: Increasing communication cutoff to 13.6118 for TIP4P pair style (../pair_lj_cut_tip4p_long.cpp:497)
Generated 0 of 1 mixed pair_coeff terms from geometric mixing rule
Neighbor list info ...
  update: every = 1 steps, delay = 0 steps, check = yes
  max neighbors/atom: 2000, page size: 100000
  master list distance cutoff = 12.8092
  ghost atom cutoff = 13.6118
  binsize = 6.4046, bins = 8 8 8
  1 neighbor lists, perpetual/occasional/extra = 1 0 0
  (1) pair lj/cut/tip4p/long, perpetual
      attributes: half, newton on
      pair build: half/bin/newton/tri
      stencil: half/bin/3d/tri
      bin: standard
Per MPI rank memory allocation (min/avg/max) = 9.2 | 9.373 | 9.718 Mbytes
   Step          Temp          TotEng         PotEng          Pxy           v_sxy         v_strain     v_viscosity  
         0   245.46957     -44327.561     -50320.901      139.5099      -0.016153381    0             -6.4613526e-05
      1000   245.84668     -45932.653     -51935.2       -3147.7205      0.31695553     0.25           0.0012678221 
      2000   252.08492     -44060.452     -50215.311     -3166.1019      0.31546287     0.5            0.0012618515 
      3000   275.39654     -42746.083     -49470.114     -2939.7154      0.2945081      0.75           0.0011780324 
      4000   282.99902     -42621.183     -49530.834     -2592.8501      0.26134077     1              0.0010453631 
      5000   296.79501     -42002.973     -49249.466     -2434.7231      0.2404775      1.25           0.00096191   
      6000   301.86633     -41740.496     -49110.809     -2730.8898      0.26801063     1.5            0.0010720425 
      7000   316.15308     -41208.005     -48927.14      -2506.4633      0.24839053     1.75           0.00099356211
      8000   324.94577     -41067.557     -49001.372     -2551.369       0.25680813     2              0.0010272325 
      9000   334.26386     -40636.919     -48798.243     -2353.4918      0.23296923     2.25           0.00093187694
     10000   336.62683     -40490.613     -48709.631     -2158.4456      0.21499757     2.5            0.00085999029
Loop time of 44.7884 on 56 procs for 10000 steps with 12288 atoms

Performance: 19.291 ns/day, 1.244 hours/ns, 223.272 timesteps/s, 2.744 Matom-step/s
99.7% CPU use with 56 MPI tasks x no OpenMP threads

MPI task timing breakdown:
Section |  min time  |  avg time  |  max time  |%varavg| %total
---------------------------------------------------------------
Pair    | 19.097     | 20.055     | 20.74      |   9.4 | 44.78
Bond    | 0.0015454  | 0.0027245  | 0.0036312  |   0.8 |  0.01
Kspace  | 11.313     | 12.041     | 13.028     |  12.3 | 26.88
Neigh   | 4.0414     | 4.0586     | 4.0625     |   0.3 |  9.06
Comm    | 1.5549     | 1.6663     | 1.7827     |   4.1 |  3.72
Output  | 0.024811   | 0.042282   | 0.059356   |   5.0 |  0.09
Modify  | 5.1126     | 5.6372     | 6.6485     |  14.6 | 12.59
Other   |            | 1.286      |            |       |  2.87

Nlocal:        219.429 ave         241 max         203 min
Histogram: 4 7 6 9 6 11 4 7 0 2
Nghost:        7266.68 ave        7330 max        7199 min
Histogram: 5 1 4 10 6 6 11 7 5 1
Neighs:        96080.5 ave      105759 max       88261 min
Histogram: 4 6 7 7 9 6 7 7 1 2

Total # of neighbors = 5380507
Ave neighs/atom = 437.86678
Ave special neighs/atom = 2
Neighbor list builds = 342
Dangerous builds = 0
kspace_style pppm/tip4p 1.0e-5
next nloop
jump SELF loop_start
run 10000 # 10ps
PPPM initialization ...
  extracting TIP4P info from pair style
  using 12-bit tables for long-range coulomb
  G vector (1/distance) = 0.32815664
  grid = 50 75 50
  stencil order = 5
  estimated absolute RMS force accuracy = 0.0035802102
  estimated relative force accuracy = 1.0781697e-05
  using double precision KISS FFT
  3d grid and FFT values/proc = 15776 4000
Generated 0 of 1 mixed pair_coeff terms from geometric mixing rule
Per MPI rank memory allocation (min/avg/max) = 11.2 | 11.34 | 11.44 Mbytes
   Step          Temp          TotEng         PotEng          Pxy           v_sxy         v_strain     v_viscosity  
     10000   336.62683     -40488.432     -48707.451     -1731.216       0.17170853     2.5            0.00068683413
     11000   348.23426     -40188.191     -48690.614     -2381.0982      0.23986616     2.75           0.00095946464
     12000   351.86202     -40082.909     -48673.907     -2237.1829      0.22447675     3              0.00089790702
     13000   361.57797     -39760.464     -48588.684     -2158.1892      0.21069263     3.25           0.00084277051
     14000   366.11669     -39380.213     -48319.25      -2487.8546      0.24660936     3.5            0.00098643742
     15000   369.47469     -39353.825     -48374.85      -2077.0534      0.19821106     3.75           0.00079284426
     16000   377.45112     -39265.867     -48481.644     -2309.586       0.23028588     4              0.00092114351
     17000   379.44919     -39143.955     -48408.517     -2227.5965      0.21411325     4.25           0.00085645298
     18000   388.45451     -38695.894     -48180.327     -2172.1013      0.21279044     4.5            0.00085116175
     19000   390.56049     -38811.311     -48347.164     -2191.3743      0.21635338     4.75           0.00086541353
     20000   392.73409     -38599.579     -48188.502     -2282.9193      0.22207886     5              0.00088831544
Loop time of 52.2139 on 56 procs for 10000 steps with 12288 atoms

Performance: 16.547 ns/day, 1.450 hours/ns, 191.520 timesteps/s, 2.353 Matom-step/s
99.7% CPU use with 56 MPI tasks x no OpenMP threads

MPI task timing breakdown:
Section |  min time  |  avg time  |  max time  |%varavg| %total
---------------------------------------------------------------
Pair    | 19.573     | 20.346     | 21.469     |   9.1 | 38.97
Bond    | 0.0021921  | 0.0032526  | 0.0046119  |   0.9 |  0.01
Kspace  | 14.598     | 15.917     | 16.735     |  10.4 | 30.48
Neigh   | 4.3544     | 4.3578     | 4.3604     |   0.1 |  8.35
Comm    | 1.6717     | 1.827      | 2.0633     |   6.3 |  3.50
Output  | 0.023221   | 0.040378   | 0.056976   |   5.0 |  0.08
Modify  | 7.3469     | 8.0669     | 9.457      |  17.5 | 15.45
Other   |            | 1.655      |            |       |  3.17

Nlocal:        219.429 ave         236 max         198 min
Histogram: 1 2 1 8 11 7 11 8 4 3
Nghost:        6833.54 ave        6911 max        6761 min
Histogram: 3 3 5 9 8 9 10 4 3 2
Neighs:        96070.8 ave      103570 max       86107 min
Histogram: 1 3 1 6 12 7 11 6 5 4

Total # of neighbors = 5379963
Ave neighs/atom = 437.82251
Ave special neighs/atom = 2
Neighbor list builds = 371
Dangerous builds = 0
kspace_style pppm/tip4p 1.0e-5
next nloop
jump SELF loop_start
run 10000 # 10ps
PPPM initialization ...
  extracting TIP4P info from pair style
  using 12-bit tables for long-range coulomb
  G vector (1/distance) = 0.32815664
  grid = 50 50 50
  stencil order = 5
  estimated absolute RMS force accuracy = 0.0035802102
  estimated relative force accuracy = 1.0781697e-05
  using double precision KISS FFT
  3d grid and FFT values/proc = 11424 2800
Generated 0 of 1 mixed pair_coeff terms from geometric mixing rule
Per MPI rank memory allocation (min/avg/max) = 10.92 | 11.03 | 11.12 Mbytes
   Step          Temp          TotEng         PotEng          Pxy           v_sxy         v_strain     v_viscosity  
     20000   392.58415     -38603.997     -48189.259     -1849.444       0.17788866     5              0.00071155465
     21000   398.75241     -38494.964     -48230.829     -2146.3874      0.20832437     5.25           0.00083329749
     22000   399.80782     -38512.99      -48274.624     -2237.7475      0.22205464     5.5            0.00088821855
     23000   394.82924     -38674.27      -48314.348     -2273.5134      0.22765492     5.75           0.00091061967
     24000   406.5454      -38212.744     -48138.882     -2072.7572      0.20476731     6              0.00081906922
     25000   402.21164     -38628.263     -48448.589     -2246.3542      0.22598175     6.25           0.00090392701
     26000   409.39985     -38250.8       -48246.631     -2188.0662      0.21932163     6.5            0.00087728651
     27000   405.21672     -38269.569     -48163.266     -2110.0741      0.21047052     6.75           0.00084188209
     28000   412.40063     -38054.979     -48124.077     -2209.8717      0.21627745     7              0.0008651098 
     29000   412.52098     -38187.633     -48259.669     -2240.312       0.22473562     7.25           0.00089894248
     30000   411.86306     -38161.601     -48217.574     -2152.3653      0.21080843     7.5            0.00084323372
Loop time of 44.9551 on 56 procs for 10000 steps with 12288 atoms

Performance: 19.219 ns/day, 1.249 hours/ns, 222.444 timesteps/s, 2.733 Matom-step/s
99.8% CPU use with 56 MPI tasks x no OpenMP threads

MPI task timing breakdown:
Section |  min time  |  avg time  |  max time  |%varavg| %total
---------------------------------------------------------------
Pair    | 19.143     | 20.111     | 20.859     |   8.8 | 44.74
Bond    | 0.0013997  | 0.0027053  | 0.0036988  |   0.9 |  0.01
Kspace  | 10.932     | 11.768     | 12.688     |  11.8 | 26.18
Neigh   | 4.455      | 4.4574     | 4.4601     |   0.1 |  9.92
Comm    | 1.5333     | 1.6395     | 1.801      |   4.6 |  3.65
Output  | 0.022954   | 0.039959   | 0.056355   |   5.0 |  0.09
Modify  | 5.156      | 5.6647     | 6.6851     |  14.7 | 12.60
Other   |            | 1.272      |            |       |  2.83

Nlocal:        219.429 ave         241 max         200 min
Histogram: 3 2 9 10 5 9 11 4 0 3
Nghost:        7296.27 ave        7353 max        7255 min
Histogram: 4 12 3 10 7 7 5 3 3 2
Neighs:        96060.3 ave      107138 max       86147 min
Histogram: 2 2 9 12 5 9 11 3 1 2

Total # of neighbors = 5379379
Ave neighs/atom = 437.77498
Ave special neighs/atom = 2
Neighbor list builds = 377
Dangerous builds = 0
kspace_style pppm/tip4p 1.0e-5
next nloop
jump SELF loop_start
run 10000 # 10ps
PPPM initialization ...
  extracting TIP4P info from pair style
  using 12-bit tables for long-range coulomb
  G vector (1/distance) = 0.32815664
  grid = 50 75 50
  stencil order = 5
  estimated absolute RMS force accuracy = 0.0035802102
  estimated relative force accuracy = 1.0781697e-05
  using double precision KISS FFT
  3d grid and FFT values/proc = 15776 4000
Generated 0 of 1 mixed pair_coeff terms from geometric mixing rule
Per MPI rank memory allocation (min/avg/max) = 11.21 | 11.34 | 11.45 Mbytes
   Step          Temp          TotEng         PotEng          Pxy           v_sxy         v_strain     v_viscosity  
     30000   412.08065     -38157.265     -48218.55      -1662.9584      0.1602236      7.5            0.0006408944 
     31000   413.93582     -38196.761     -48303.342     -1891.2072      0.18566391     7.75           0.00074265562
     32000   417.41694     -38112.192     -48303.767     -2012.3816      0.19217957     8              0.00076871826
     33000   411.43973     -38182.387     -48228.024     -2075.3938      0.20590433     8.25           0.00082361733
     34000   418.46547     -38020.835     -48238.01      -2304.427       0.23254991     8.5            0.00093019964
     35000   411.83683     -38155.661     -48210.993     -2179.5044      0.21784307     8.75           0.00087137227
     36000   413.29958     -38054.77      -48145.816     -2623.655       0.25394767     9              0.0010157907 
     37000   413.90507     -38159.107     -48264.937     -2238.9453      0.22342442     9.25           0.00089369768
     38000   429.04387     -37836.161     -48311.617     -2416.222       0.2361177      9.5            0.00094447078
     39000   420.48986     -38005.285     -48271.888     -2215.2367      0.22056414     9.75           0.00088225658
     40000   422.71103     -38012.915     -48333.749     -2157.5953      0.21890363     10             0.00087561453
Loop time of 52.4909 on 56 procs for 10000 steps with 12288 atoms

Performance: 16.460 ns/day, 1.458 hours/ns, 190.509 timesteps/s, 2.341 Matom-step/s
99.8% CPU use with 56 MPI tasks x no OpenMP threads

MPI task timing breakdown:
Section |  min time  |  avg time  |  max time  |%varavg| %total
---------------------------------------------------------------
Pair    | 19.319     | 20.356     | 21.337     |   9.5 | 38.78
Bond    | 0.0018196  | 0.0032005  | 0.0048039  |   0.9 |  0.01
Kspace  | 15.153     | 16.083     | 17.074     |   9.7 | 30.64
Neigh   | 4.4804     | 4.4839     | 4.4872     |   0.1 |  8.54
Comm    | 1.6819     | 1.8164     | 2.0399     |   5.9 |  3.46
Output  | 0.022937   | 0.039962   | 0.05632    |   5.0 |  0.08
Modify  | 7.3323     | 8.0489     | 9.4403     |  17.9 | 15.33
Other   |            | 1.66       |            |       |  3.16

Nlocal:        219.429 ave         238 max         190 min
Histogram: 1 0 0 5 7 17 7 7 8 4
Nghost:        6858.46 ave        6922 max        6786 min
Histogram: 1 4 6 5 7 6 16 6 3 2
Neighs:        96053.8 ave      104432 max       81675 min
Histogram: 1 0 0 3 9 13 11 6 10 3

Total # of neighbors = 5379010
Ave neighs/atom = 437.74495
Ave special neighs/atom = 2
Neighbor list builds = 379
Dangerous builds = 0
kspace_style pppm/tip4p 1.0e-5
next nloop
jump SELF loop_start
run 10000 # 10ps
PPPM initialization ...
  extracting TIP4P info from pair style
  using 12-bit tables for long-range coulomb
  G vector (1/distance) = 0.32815664
  grid = 50 50 50
  stencil order = 5
  estimated absolute RMS force accuracy = 0.0035802102
  estimated relative force accuracy = 1.0781697e-05
  using double precision KISS FFT
  3d grid and FFT values/proc = 11424 2800
Generated 0 of 1 mixed pair_coeff terms from geometric mixing rule
Per MPI rank memory allocation (min/avg/max) = 10.92 | 11.03 | 11.12 Mbytes
   Step          Temp          TotEng         PotEng          Pxy           v_sxy         v_strain     v_viscosity  
     40000   422.8359      -38012.414     -48336.297     -1658.3912      0.16773228     10             0.0006709291 
     41000   422.62013     -38022.587     -48341.202     -2332.1853      0.23012422     10.25          0.00092049689
     42000   424.12151     -37869.625     -48224.897     -2188.0109      0.21065083     10.5           0.00084260331
     43000   426.94298     -37747.072     -48171.233     -2037.4225      0.20372527     10.75          0.00081490108
     44000   428.40132     -37757.424     -48217.192     -2088.5102      0.20120171     11             0.00080480684
     45000   423.09319     -37861.156     -48191.321     -2225.1976      0.21562234     11.25          0.00086248936
     46000   425.87596     -37950.363     -48348.472     -2277.4262      0.22410417     11.5           0.00089641669
     47000   433.10062     -37656.924     -48231.428     -1884.7761      0.18124338     11.75          0.00072497352
     48000   430.31535     -37651.807     -48158.307     -1992.0046      0.19613268     12             0.00078453071
     49000   433.01174     -37554.735     -48127.069     -2076.9647      0.20488501     12.25          0.00081954002
     50000   430.2784      -37742.02      -48247.618     -2322.9769      0.2230447      12.5           0.00089217881
Loop time of 45.1043 on 56 procs for 10000 steps with 12288 atoms

Performance: 19.156 ns/day, 1.253 hours/ns, 221.708 timesteps/s, 2.724 Matom-step/s
99.8% CPU use with 56 MPI tasks x no OpenMP threads

MPI task timing breakdown:
Section |  min time  |  avg time  |  max time  |%varavg| %total
---------------------------------------------------------------
Pair    | 19.013     | 20.092     | 21.064     |  10.7 | 44.54
Bond    | 0.0014448  | 0.0026695  | 0.0042042  |   1.0 |  0.01
Kspace  | 10.935     | 11.875     | 12.951     |  13.6 | 26.33
Neigh   | 4.4854     | 4.488      | 4.4906     |   0.1 |  9.95
Comm    | 1.5557     | 1.649      | 1.7974     |   4.4 |  3.66
Output  | 0.023207   | 0.040163   | 0.056515   |   4.9 |  0.09
Modify  | 5.155      | 5.6687     | 6.7148     |  14.7 | 12.57
Other   |            | 1.289      |            |       |  2.86

Nlocal:        219.429 ave         244 max         203 min
Histogram: 5 5 8 12 7 12 3 2 1 1
Nghost:        7266.23 ave        7346 max        7202 min
Histogram: 3 5 9 4 10 11 6 5 1 2
Neighs:        96045.5 ave      107165 max       88433 min
Histogram: 6 3 9 10 8 14 2 1 1 2

Total # of neighbors = 5378546
Ave neighs/atom = 437.70719
Ave special neighs/atom = 2
Neighbor list builds = 378
Dangerous builds = 0
kspace_style pppm/tip4p 1.0e-5
next nloop
jump SELF loop_start
run 10000 # 10ps
PPPM initialization ...
  extracting TIP4P info from pair style
  using 12-bit tables for long-range coulomb
  G vector (1/distance) = 0.32815664
  grid = 50 75 50
  stencil order = 5
  estimated absolute RMS force accuracy = 0.0035802102
  estimated relative force accuracy = 1.0781697e-05
  using double precision KISS FFT
  3d grid and FFT values/proc = 15776 4000
Generated 0 of 1 mixed pair_coeff terms from geometric mixing rule
Per MPI rank memory allocation (min/avg/max) = 11.21 | 11.34 | 11.45 Mbytes
   Step          Temp          TotEng         PotEng          Pxy           v_sxy         v_strain     v_viscosity  
     50000   430.07039     -37746.963     -48247.482     -1906.8852      0.18037916     12.5           0.00072151664
     51000   424.31211     -37698.931     -48058.857     -2471.5975      0.24747191     12.75          0.00098988764
     52000   427.07253     -37752.192     -48179.516     -2093.8256      0.19921218     13             0.00079684873
     53000   437.86261     -37343.245     -48034.018     -2067.5057      0.20042527     13.25          0.00080170107
     54000   431.86952     -37569.455     -48113.901     -2166.0471      0.2138336      13.5           0.00085533442
     55000   431.32482     -37608.764     -48139.911     -2192.8029      0.2205225      13.75          0.00088208998
     56000   430.42701     -37782.244     -48291.471     -2326.7682      0.23123143     14             0.0009249257 
     57000   431.99657     -37743.288     -48290.836     -2342.0895      0.22958543     14.25          0.00091834174
     58000   432.88654     -37656.397     -48225.675     -2153.8775      0.2142178      14.5           0.0008568712 
     59000   430.2896      -37508.179     -48014.051     -2155.658       0.21449049     14.75          0.00085796196
     60000   427.7374      -37656.207     -48099.764     -2025.1155      0.20435912     15             0.00081743649
Loop time of 52.5858 on 56 procs for 10000 steps with 12288 atoms

Performance: 16.430 ns/day, 1.461 hours/ns, 190.166 timesteps/s, 2.337 Matom-step/s
99.7% CPU use with 56 MPI tasks x no OpenMP threads

MPI task timing breakdown:
Section |  min time  |  avg time  |  max time  |%varavg| %total
---------------------------------------------------------------
Pair    | 19.41      | 20.388     | 21.443     |  10.2 | 38.77
Bond    | 0.0020121  | 0.0031828  | 0.004883   |   0.9 |  0.01
Kspace  | 15.13      | 16.075     | 17.157     |  11.7 | 30.57
Neigh   | 4.517      | 4.5199     | 4.5225     |   0.1 |  8.60
Comm    | 1.6793     | 1.8179     | 2.0615     |   6.1 |  3.46
Output  | 0.022362   | 0.039306   | 0.055648   |   5.0 |  0.07
Modify  | 7.3458     | 8.0701     | 9.4457     |  17.7 | 15.35
Other   |            | 1.673      |            |       |  3.18

Nlocal:        219.429 ave         244 max         205 min
Histogram: 5 9 5 14 9 5 5 2 1 1
Nghost:        6842.64 ave        6908 max        6789 min
Histogram: 3 6 4 10 10 11 4 3 3 2
Neighs:        96085.6 ave      107005 max       88800 min
Histogram: 6 6 11 6 10 6 5 4 0 2

Total # of neighbors = 5380793
Ave neighs/atom = 437.89006
Ave special neighs/atom = 2
Neighbor list builds = 382
Dangerous builds = 0
kspace_style pppm/tip4p 1.0e-5
next nloop
jump SELF loop_start
run 10000 # 10ps
PPPM initialization ...
  extracting TIP4P info from pair style
  using 12-bit tables for long-range coulomb
  G vector (1/distance) = 0.32815664
  grid = 50 50 50
  stencil order = 5
  estimated absolute RMS force accuracy = 0.0035802102
  estimated relative force accuracy = 1.0781697e-05
  using double precision KISS FFT
  3d grid and FFT values/proc = 11424 2800
Generated 0 of 1 mixed pair_coeff terms from geometric mixing rule
Per MPI rank memory allocation (min/avg/max) = 10.92 | 11.03 | 11.12 Mbytes
   Step          Temp          TotEng         PotEng          Pxy           v_sxy         v_strain     v_viscosity  
     60000   427.99509     -37649.466     -48099.315     -1529.6589      0.15371341     15             0.00061485365
     61000   428.81481     -37586.469     -48056.332     -2096.0711      0.1998945      15.25          0.000799578  
     62000   431.24892     -37581.436     -48110.73      -2110.7987      0.20970031     15.5           0.00083880122
     63000   429.62056     -37887.269     -48376.806     -2007.5861      0.1965541      15.75          0.00078621641
     64000   435.9725      -37472.851     -48117.475     -2680.7634      0.26312062     16             0.0010524825 
     65000   431.84376     -37680.228     -48224.045     -2212.1989      0.21867197     16.25          0.00087468789
     66000   435.85792     -37480.246     -48122.072     -2052.7355      0.20526996     16.5           0.00082107983
     67000   426.01935     -37819.198     -48220.808     -1863.4351      0.18414242     16.75          0.0007365697 
     68000   428.35915     -37787.595     -48246.333     -2289.0927      0.22932792     17             0.00091731167
     69000   440.12653     -37437.419     -48183.467     -2001.9338      0.19803875     17.25          0.00079215502
     70000   430.99571     -37710.434     -48233.546     -2228.7925      0.21756237     17.5           0.00087024948
Loop time of 45.1644 on 56 procs for 10000 steps with 12288 atoms

Performance: 19.130 ns/day, 1.255 hours/ns, 221.413 timesteps/s, 2.721 Matom-step/s
99.8% CPU use with 56 MPI tasks x no OpenMP threads

MPI task timing breakdown:
Section |  min time  |  avg time  |  max time  |%varavg| %total
---------------------------------------------------------------
Pair    | 19.178     | 20.082     | 21.24      |  10.2 | 44.46
Bond    | 0.0013586  | 0.0026743  | 0.0043178  |   1.0 |  0.01
Kspace  | 10.896     | 11.913     | 12.807     |  13.3 | 26.38
Neigh   | 4.5333     | 4.5358     | 4.5376     |   0.0 | 10.04
Comm    | 1.5325     | 1.6423     | 1.833      |   4.4 |  3.64
Output  | 0.022739   | 0.039736   | 0.056107   |   5.0 |  0.09
Modify  | 5.1537     | 5.6736     | 6.6942     |  14.6 | 12.56
Other   |            | 1.276      |            |       |  2.82

Nlocal:        219.429 ave         237 max         205 min
Histogram: 5 5 5 8 8 12 4 3 4 2
Nghost:        7293.05 ave        7365 max        7225 min
Histogram: 4 3 7 8 6 10 7 4 4 3
Neighs:        96061.2 ave      104886 max       88178 min
Histogram: 4 2 7 8 8 12 5 6 3 1

Total # of neighbors = 5379429
Ave neighs/atom = 437.77905
Ave special neighs/atom = 2
Neighbor list builds = 382
Dangerous builds = 0
kspace_style pppm/tip4p 1.0e-5
next nloop
jump SELF loop_start
run 10000 # 10ps
PPPM initialization ...
  extracting TIP4P info from pair style
  using 12-bit tables for long-range coulomb
  G vector (1/distance) = 0.32815664
  grid = 50 75 50
  stencil order = 5
  estimated absolute RMS force accuracy = 0.0035802102
  estimated relative force accuracy = 1.0781697e-05
  using double precision KISS FFT
  3d grid and FFT values/proc = 15776 4000
Generated 0 of 1 mixed pair_coeff terms from geometric mixing rule
Per MPI rank memory allocation (min/avg/max) = 11.21 | 11.35 | 11.45 Mbytes
   Step          Temp          TotEng         PotEng          Pxy           v_sxy         v_strain     v_viscosity  
     70000   431.00691     -37709.871     -48233.256     -1645.976       0.15805954     17.5           0.00063223816
     71000   435.37047     -37608.242     -48238.167     -1772.4641      0.17507592     17.75          0.0007003037 
     72000   435.48232     -37571.114     -48203.77      -2342.462       0.23058771     18             0.00092235082
     73000   428.48607     -37792.706     -48254.543     -2127.6057      0.2087237      18.25          0.00083489481
     74000   436.02763     -37630.627     -48276.597     -2159.5043      0.2063158      18.5           0.0008252632 
     75000   433.01425     -37691.549     -48263.945     -2249.2002      0.22077775     18.75          0.00088311099
     76000   432.78161     -37475.821     -48042.537     -1973.2902      0.19154224     19             0.00076616898
     77000   434.6246      -37633.647     -48245.361     -2321.6223      0.22482317     19.25          0.00089929266
     78000   433.81686     -37569.613     -48161.605     -2304.8808      0.22715351     19.5           0.00090861406
     79000   438.07422     -37539.88      -48235.819     -2351.0374      0.22901813     19.75          0.00091607252
     80000   433.83666     -37686.015     -48278.491     -2564.2488      0.25238639     20             0.0010095455 
Loop time of 52.6436 on 56 procs for 10000 steps with 12288 atoms

Performance: 16.412 ns/day, 1.462 hours/ns, 189.957 timesteps/s, 2.334 Matom-step/s
99.8% CPU use with 56 MPI tasks x no OpenMP threads

MPI task timing breakdown:
Section |  min time  |  avg time  |  max time  |%varavg| %total
---------------------------------------------------------------
Pair    | 19.189     | 20.363     | 21.786     |  11.2 | 38.68
Bond    | 0.0016745  | 0.0031812  | 0.0046964  |   0.9 |  0.01
Kspace  | 14.886     | 16.166     | 17.153     |  12.4 | 30.71
Neigh   | 4.5524     | 4.5557     | 4.5587     |   0.1 |  8.65
Comm    | 1.6812     | 1.8151     | 2.0097     |   6.0 |  3.45
Output  | 0.023061   | 0.040045   | 0.056365   |   4.9 |  0.08
Modify  | 7.3575     | 8.0631     | 9.4396     |  17.8 | 15.32
Other   |            | 1.638      |            |       |  3.11

Nlocal:        219.429 ave         239 max         203 min
Histogram: 4 4 7 8 10 6 7 6 2 2
Nghost:        6832.54 ave        6907 max        6788 min
Histogram: 7 7 11 11 4 5 2 4 3 2
Neighs:        96074.3 ave      106578 max       88242 min
Histogram: 5 3 10 7 11 5 10 3 0 2

Total # of neighbors = 5380160
Ave neighs/atom = 437.83854
Ave special neighs/atom = 2
Neighbor list builds = 382
Dangerous builds = 0
kspace_style pppm/tip4p 1.0e-5
next nloop
jump SELF loop_start
run 10000 # 10ps
PPPM initialization ...
  extracting TIP4P info from pair style
  using 12-bit tables for long-range coulomb
  G vector (1/distance) = 0.32815664
  grid = 50 50 50
  stencil order = 5
  estimated absolute RMS force accuracy = 0.0035802102
  estimated relative force accuracy = 1.0781697e-05
  using double precision KISS FFT
  3d grid and FFT values/proc = 11424 2800
Generated 0 of 1 mixed pair_coeff terms from geometric mixing rule
Per MPI rank memory allocation (min/avg/max) = 10.92 | 11.04 | 11.12 Mbytes
   Step          Temp          TotEng         PotEng          Pxy           v_sxy         v_strain     v_viscosity  
     80000   433.65163     -37686.5       -48274.458     -2020.1052      0.19680249     20             0.00078720995
     81000   431.33688     -37692.518     -48223.96      -2227.5304      0.21463834     20.25          0.00085855336
     82000   433.05463     -37488.949     -48062.33      -2255.8685      0.21894467     20.5           0.00087577869
     83000   435.22185     -37613.832     -48240.128     -2363.6617      0.2327739      20.75          0.00093109559
     84000   436.81541     -37487.312     -48152.516     -2191.0916      0.21491015     21             0.0008596406 
     85000   434.22051     -37703.055     -48304.903     -1926.0029      0.18871136     21.25          0.00075484545
     86000   433.03289     -37494.744     -48067.595     -2485.7587      0.24452765     21.5           0.00097811059
     87000   437.61305     -37428.608     -48113.287     -2293.6737      0.22562274     21.75          0.00090249096
     88000   431.41418     -37581.471     -48114.799     -2146.004       0.21035625     22             0.000841425  
     89000   435.83657     -37356.775     -47998.08      -2223.3774      0.21479099     22.25          0.00085916396
     90000   434.22854     -37585.963     -48188.006     -2297.2683      0.22027485     22.5           0.00088109939
Loop time of 45.0558 on 56 procs for 10000 steps with 12288 atoms

Performance: 19.176 ns/day, 1.252 hours/ns, 221.947 timesteps/s, 2.727 Matom-step/s
99.8% CPU use with 56 MPI tasks x no OpenMP threads

MPI task timing breakdown:
Section |  min time  |  avg time  |  max time  |%varavg| %total
---------------------------------------------------------------
Pair    | 18.96      | 20.096     | 21.282     |  11.8 | 44.60
Bond    | 0.0014759  | 0.0026913  | 0.0040145  |   1.0 |  0.01
Kspace  | 10.715     | 11.805     | 12.853     |  15.0 | 26.20
Neigh   | 4.5183     | 4.5212     | 4.524      |   0.1 | 10.03
Comm    | 1.5371     | 1.6458     | 1.7914     |   4.3 |  3.65
Output  | 0.022539   | 0.039604   | 0.055962   |   5.0 |  0.09
Modify  | 5.1476     | 5.667      | 6.6972     |  14.7 | 12.58
Other   |            | 1.279      |            |       |  2.84

Nlocal:        219.429 ave         234 max         204 min
Histogram: 2 3 3 8 9 10 11 2 3 5
Nghost:        7273.38 ave        7350 max        7193 min
Histogram: 2 2 4 5 13 12 10 5 2 1
Neighs:        96069.1 ave      103562 max       87449 min
Histogram: 2 1 7 5 8 9 13 4 2 5

Total # of neighbors = 5379867
Ave neighs/atom = 437.8147
Ave special neighs/atom = 2
Neighbor list builds = 384
Dangerous builds = 0
kspace_style pppm/tip4p 1.0e-5
next nloop
jump SELF loop_start
run 10000 # 10ps
PPPM initialization ...
  extracting TIP4P info from pair style
  using 12-bit tables for long-range coulomb
  G vector (1/distance) = 0.32815664
  grid = 50 75 50
  stencil order = 5
  estimated absolute RMS force accuracy = 0.0035802102
  estimated relative force accuracy = 1.0781697e-05
  using double precision KISS FFT
  3d grid and FFT values/proc = 15776 4000
Generated 0 of 1 mixed pair_coeff terms from geometric mixing rule
Per MPI rank memory allocation (min/avg/max) = 11.21 | 11.35 | 11.45 Mbytes
   Step          Temp          TotEng         PotEng          Pxy           v_sxy         v_strain     v_viscosity  
     90000   434.16991     -37589.42      -48190.032     -1713.7724      0.16085578     22.5           0.00064342312
     91000   433.4668      -37529.117     -48112.563     -2190.5583      0.21419495     22.75          0.00085677978
     92000   436.10744     -37458.8       -48106.719     -2433.8122      0.24214978     23             0.00096859912
     93000   428.07047     -37650.808     -48102.497     -2140.6021      0.21803329     23.25          0.00087213314
     94000   433.90221     -37647.93      -48242.007     -2094.9288      0.20750623     23.5           0.00083002493
     95000   430.08424     -37706.744     -48207.601     -2513.5531      0.24228021     23.75          0.00096912085
     96000   433.42426     -37569.289     -48151.696     -2115.3818      0.21370174     24             0.00085480695
     97000   432.58218     -37707.595     -48269.441     -2216.927       0.21893892     24.25          0.00087575569
     98000   433.54603     -37479.164     -48064.543     -1993.4589      0.19355447     24.5           0.0007742179 
     99000   436.27938     -37538.173     -48190.29      -2031.1762      0.20223733     24.75          0.00080894931
    100000   434.27207     -37436.82      -48039.926     -2185.4718      0.21399326     25             0.00085597302
Loop time of 52.4992 on 56 procs for 10000 steps with 12288 atoms

Performance: 16.457 ns/day, 1.458 hours/ns, 190.479 timesteps/s, 2.341 Matom-step/s
99.8% CPU use with 56 MPI tasks x no OpenMP threads

MPI task timing breakdown:
Section |  min time  |  avg time  |  max time  |%varavg| %total
---------------------------------------------------------------
Pair    | 19.626     | 20.347     | 21.059     |   9.1 | 38.76
Bond    | 0.0016796  | 0.0031797  | 0.0046912  |   0.9 |  0.01
Kspace  | 15.3       | 16.007     | 16.631     |  10.3 | 30.49
Neigh   | 4.5297     | 4.5331     | 4.5361     |   0.1 |  8.63
Comm    | 1.677      | 1.8173     | 2.028      |   5.9 |  3.46
Output  | 0.022715   | 0.039606   | 0.055845   |   4.9 |  0.08
Modify  | 7.3778     | 8.0967     | 9.4866     |  17.8 | 15.42
Other   |            | 1.655      |            |       |  3.15

Nlocal:        219.429 ave         241 max         197 min
Histogram: 1 1 7 11 9 5 10 10 1 1
Nghost:         6858.7 ave        6936 max        6785 min
Histogram: 4 2 3 10 13 10 6 2 3 3
Neighs:        96059.4 ave      107033 max       84896 min
Histogram: 2 0 6 9 11 5 14 7 1 1

Total # of neighbors = 5379327
Ave neighs/atom = 437.77075
Ave special neighs/atom = 2
Neighbor list builds = 382
Dangerous builds = 0
kspace_style pppm/tip4p 1.0e-5
next nloop
jump SELF loop_start
run 10000 # 10ps
PPPM initialization ...
  extracting TIP4P info from pair style
  using 12-bit tables for long-range coulomb
  G vector (1/distance) = 0.32815664
  grid = 50 50 50
  stencil order = 5
  estimated absolute RMS force accuracy = 0.0035802102
  estimated relative force accuracy = 1.0781697e-05
  using double precision KISS FFT
  3d grid and FFT values/proc = 11424 2800
Generated 0 of 1 mixed pair_coeff terms from geometric mixing rule
Per MPI rank memory allocation (min/avg/max) = 10.92 | 11.04 | 11.12 Mbytes
   Step          Temp          TotEng         PotEng          Pxy           v_sxy         v_strain     v_viscosity  
    100000   434.45054     -37431.158     -48038.622     -1603.4934      0.15428335     25             0.00061713341
    101000   432.5479      -37725.369     -48286.378     -1710.7843      0.17241214     25.25          0.00068964856
    102000   435.43508     -37403.97      -48035.472     -2147.1113      0.21522208     25.5           0.00086088833
    103000   432.89536     -37550.357     -48119.851     -2137.6559      0.21297628     25.75          0.00085190512
    104000   435.898       -37361.08      -48003.885     -2232.1439      0.21995216     26             0.00087980863
    105000   431.71131     -37685.758     -48226.342     -1951.4854      0.18409003     26.25          0.00073636013
    106000   433.59335     -37645.528     -48232.063     -2086.2934      0.20904196     26.5           0.00083616782
    107000   432.23427     -37657.1       -48210.452     -2069.869       0.19839569     26.75          0.00079358276
    108000   435.9887      -37611.524     -48256.544     -1904.4154      0.18424797     27             0.00073699188
    109000   426.1244      -37759.019     -48163.194     -2135.0608      0.21339301     27.25          0.00085357204
    110000   435.7572      -37527.633     -48167         -1900.4836      0.19127024     27.5           0.00076508097
Loop time of 45.2115 on 56 procs for 10000 steps with 12288 atoms

Performance: 19.110 ns/day, 1.256 hours/ns, 221.183 timesteps/s, 2.718 Matom-step/s
99.8% CPU use with 56 MPI tasks x no OpenMP threads

MPI task timing breakdown:
Section |  min time  |  avg time  |  max time  |%varavg| %total
---------------------------------------------------------------
Pair    | 18.814     | 20.068     | 21.397     |  12.4 | 44.39
Bond    | 0.0014821  | 0.0026538  | 0.0041274  |   1.0 |  0.01
Kspace  | 10.785     | 11.977     | 13.238     |  15.4 | 26.49
Neigh   | 4.5318     | 4.5346     | 4.5373     |   0.1 | 10.03
Comm    | 1.5321     | 1.6452     | 1.8118     |   4.5 |  3.64
Output  | 0.023004   | 0.040032   | 0.056675   |   5.0 |  0.09
Modify  | 5.1656     | 5.6609     | 6.699      |  14.8 | 12.52
Other   |            | 1.282      |            |       |  2.84

Nlocal:        219.429 ave         232 max         205 min
Histogram: 3 2 7 5 7 12 4 5 5 6
Nghost:        7276.34 ave        7344 max        7200 min
Histogram: 1 1 11 9 5 7 7 5 5 5
Neighs:        96034.2 ave      103229 max       88810 min
Histogram: 3 2 8 6 10 9 6 3 4 5

Total # of neighbors = 5377918
Ave neighs/atom = 437.65609
Ave special neighs/atom = 2
Neighbor list builds = 381
Dangerous builds = 0
kspace_style pppm/tip4p 1.0e-5
next nloop
jump SELF loop_start
run 10000 # 10ps
PPPM initialization ...
  extracting TIP4P info from pair style
  using 12-bit tables for long-range coulomb
  G vector (1/distance) = 0.32815664
  grid = 50 75 50
  stencil order = 5
  estimated absolute RMS force accuracy = 0.0035802102
  estimated relative force accuracy = 1.0781697e-05
  using double precision KISS FFT
  3d grid and FFT values/proc = 15776 4000
Generated 0 of 1 mixed pair_coeff terms from geometric mixing rule
Per MPI rank memory allocation (min/avg/max) = 11.21 | 11.35 | 11.45 Mbytes
   Step          Temp          TotEng         PotEng          Pxy           v_sxy         v_strain     v_viscosity  
    110000   435.71168     -37526.369     -48164.625     -1388.4302      0.13890428     27.5           0.00055561713
    111000   432.85195     -37622.402     -48190.835     -1863.6297      0.18277152     27.75          0.00073108609
    112000   431.02648     -37769.46      -48293.323     -2084.3932      0.20523939     28             0.00082095755
    113000   428.20369     -37514.118     -47969.06      -1963.5954      0.18911765     28.25          0.00075647059
    114000   431.71215     -37598.704     -48139.308     -1978.5291      0.19279442     28.5           0.00077117767
    115000   432.4842      -37617.49      -48176.944     -2057.554       0.19904799     28.75          0.00079619198
    116000   439.06723     -37337.175     -48057.36      -2318.9659      0.22381612     29             0.00089526446
    117000   430.47872     -37595.287     -48105.776     -2053.0475      0.19823868     29.25          0.00079295473
    118000   438.36403     -37405.251     -48108.266     -2067.3492      0.20546441     29.5           0.00082185764
    119000   427.78879     -37857.5       -48302.312     -2325.3489      0.22640268     29.75          0.00090561074
    120000   434.19817     -37661.206     -48262.509     -2741.179       0.26787449     30             0.001071498  
Loop time of 52.5405 on 56 procs for 10000 steps with 12288 atoms

Performance: 16.444 ns/day, 1.459 hours/ns, 190.329 timesteps/s, 2.339 Matom-step/s
99.8% CPU use with 56 MPI tasks x no OpenMP threads

MPI task timing breakdown:
Section |  min time  |  avg time  |  max time  |%varavg| %total
---------------------------------------------------------------
Pair    | 19.305     | 20.322     | 21.195     |   9.9 | 38.68
Bond    | 0.0016353  | 0.0031516  | 0.0049471  |   1.0 |  0.01
Kspace  | 15.167     | 16.055     | 17.087     |  10.9 | 30.56
Neigh   | 4.5507     | 4.5539     | 4.5568     |   0.1 |  8.67
Comm    | 1.6849     | 1.8421     | 2.0765     |   6.5 |  3.51
Output  | 0.022992   | 0.039953   | 0.056219   |   4.9 |  0.08
Modify  | 7.3772     | 8.0765     | 9.4553     |  17.8 | 15.37
Other   |            | 1.648      |            |       |  3.14

Nlocal:        219.429 ave         242 max         201 min
Histogram: 2 6 10 6 6 10 8 7 0 1
Nghost:        6850.86 ave        6933 max        6789 min
Histogram: 2 4 13 10 10 5 7 2 1 2
Neighs:        96065.5 ave      106586 max       86892 min
Histogram: 2 5 8 8 7 7 9 8 1 1

Total # of neighbors = 5379670
Ave neighs/atom = 437.79867
Ave special neighs/atom = 2
Neighbor list builds = 384
Dangerous builds = 0
kspace_style pppm/tip4p 1.0e-5
next nloop
jump SELF loop_start
run 10000 # 10ps
PPPM initialization ...
  extracting TIP4P info from pair style
  using 12-bit tables for long-range coulomb
  G vector (1/distance) = 0.32815664
  grid = 50 50 50
  stencil order = 5
  estimated absolute RMS force accuracy = 0.0035802102
  estimated relative force accuracy = 1.0781697e-05
  using double precision KISS FFT
  3d grid and FFT values/proc = 11424 2800
Generated 0 of 1 mixed pair_coeff terms from geometric mixing rule
Per MPI rank memory allocation (min/avg/max) = 10.92 | 11.04 | 11.12 Mbytes
   Step          Temp          TotEng         PotEng          Pxy           v_sxy         v_strain     v_viscosity  
    120000   433.61426     -37675.393     -48262.439     -2242.7389      0.21662719     30             0.00086650878
    121000   430.83878     -37773.383     -48292.663     -2485.2115      0.24195703     30.25          0.00096782811
    122000   433.66129     -37511.401     -48099.595     -2356.6489      0.23631026     30.5           0.00094524104
    123000   430.07355     -37669.961     -48170.558     -2061.965       0.20473516     30.75          0.00081894066
    124000   433.65282     -37503.062     -48091.049     -2015.0816      0.19795021     31             0.00079180083
    125000   437.04818     -37520.527     -48191.415     -2116.9381      0.21006943     31.25          0.00084027773
    126000   434.19357     -37674.883     -48276.073     -2443.3496      0.23570841     31.5           0.00094283364
    127000   430.0692      -37719.771     -48220.261     -2231.61        0.22000622     31.75          0.00088002487
    128000   435.84303     -37442.5       -48083.963     -2358.4583      0.2332544      32             0.00093301761
    129000   432.59289     -37528.828     -48090.936     -2087.5883      0.20462473     32.25          0.00081849893
    130000   432.56357     -37571.015     -48132.407     -1934.8658      0.19028207     32.5           0.0007611283 
Loop time of 45.1657 on 56 procs for 10000 steps with 12288 atoms

Performance: 19.130 ns/day, 1.255 hours/ns, 221.407 timesteps/s, 2.721 Matom-step/s
99.8% CPU use with 56 MPI tasks x no OpenMP threads

MPI task timing breakdown:
Section |  min time  |  avg time  |  max time  |%varavg| %total
---------------------------------------------------------------
Pair    | 18.463     | 20.06      | 20.96      |  11.5 | 44.41
Bond    | 0.0013041  | 0.0026352  | 0.0041558  |   1.0 |  0.01
Kspace  | 11.004     | 11.926     | 13.563     |  14.9 | 26.40
Neigh   | 4.5518     | 4.5547     | 4.5578     |   0.1 | 10.08
Comm    | 1.5342     | 1.6351     | 1.7751     |   4.5 |  3.62
Output  | 0.022884   | 0.039907   | 0.056197   |   5.0 |  0.09
Modify  | 5.1339     | 5.6698     | 6.7077     |  14.7 | 12.55
Other   |            | 1.278      |            |       |  2.83

Nlocal:        219.429 ave         240 max         193 min
Histogram: 1 0 2 7 14 10 8 8 4 2
Nghost:         7272.2 ave        7359 max        7171 min
Histogram: 2 2 8 2 10 8 8 8 6 2
Neighs:          96078 ave      106710 max       83680 min
Histogram: 1 0 4 11 12 6 12 4 4 2

Total # of neighbors = 5380368
Ave neighs/atom = 437.85547
Ave special neighs/atom = 2
Neighbor list builds = 383
Dangerous builds = 0
kspace_style pppm/tip4p 1.0e-5
next nloop
jump SELF loop_start
run 10000 # 10ps
PPPM initialization ...
  extracting TIP4P info from pair style
  using 12-bit tables for long-range coulomb
  G vector (1/distance) = 0.32815664
  grid = 50 75 50
  stencil order = 5
  estimated absolute RMS force accuracy = 0.0035802102
  estimated relative force accuracy = 1.0781697e-05
  using double precision KISS FFT
  3d grid and FFT values/proc = 15776 4000
Generated 0 of 1 mixed pair_coeff terms from geometric mixing rule
Per MPI rank memory allocation (min/avg/max) = 11.21 | 11.35 | 11.45 Mbytes
   Step          Temp          TotEng         PotEng          Pxy           v_sxy         v_strain     v_viscosity  
    130000   432.94831     -37560         -48130.786     -1523.0782      0.1481679      32.5           0.00059267159
    131000   434.35063     -37742.435     -48347.46      -2042.9697      0.19798211     32.75          0.00079192845
    132000   435.9296      -37362.295     -48005.871     -1940.0342      0.19183713     33             0.0007673485 
    133000   432.47947     -37624.993     -48184.332     -2238.7536      0.22195709     33.25          0.00088782834
    134000   436.39398     -37567.59      -48222.504     -2072.8933      0.20407976     33.5           0.00081631906
    135000   435.29202     -37394.383     -48022.392     -2268.9125      0.22177611     33.75          0.00088710443
    136000   433.43874     -37557.812     -48140.572     -2148.7935      0.21324846     34             0.00085299385
    137000   428.63713     -37685.399     -48150.923     -2174.8142      0.21363615     34.25          0.00085454462
    138000   428.27541     -37820.989     -48277.683     -2551.737       0.25652132     34.5           0.0010260853 
    139000   433.25831     -37589.31      -48167.665     -2420.456       0.23748113     34.75          0.0009499245 
    140000   429.72568     -37821.991     -48314.094     -2277.134       0.22273449     35             0.00089093797
Loop time of 52.5217 on 56 procs for 10000 steps with 12288 atoms

Performance: 16.450 ns/day, 1.459 hours/ns, 190.398 timesteps/s, 2.340 Matom-step/s
99.8% CPU use with 56 MPI tasks x no OpenMP threads

MPI task timing breakdown:
Section |  min time  |  avg time  |  max time  |%varavg| %total
---------------------------------------------------------------
Pair    | 18.791     | 20.324     | 21.78      |  12.2 | 38.70
Bond    | 0.0015349  | 0.003129   | 0.004612   |   1.0 |  0.01
Kspace  | 14.744     | 16.12      | 17.7       |  13.6 | 30.69
Neigh   | 4.491      | 4.4938     | 4.4963     |   0.1 |  8.56
Comm    | 1.683      | 1.8234     | 2.048      |   5.8 |  3.47
Output  | 0.022597   | 0.039462   | 0.055699   |   4.9 |  0.08
Modify  | 7.3252     | 8.0661     | 9.4563     |  17.8 | 15.36
Other   |            | 1.652      |            |       |  3.15

Nlocal:        219.429 ave         240 max         193 min
Histogram: 1 1 2 8 13 8 8 7 5 3
Nghost:        6887.55 ave        6962 max        6808 min
Histogram: 2 2 5 6 13 11 5 7 2 3
Neighs:        96067.9 ave      106231 max       82853 min
Histogram: 1 1 2 6 12 11 10 8 3 2

Total # of neighbors = 5379804
Ave neighs/atom = 437.80957
Ave special neighs/atom = 2
Neighbor list builds = 380
Dangerous builds = 0
kspace_style pppm/tip4p 1.0e-5
next nloop
jump SELF loop_start
run 10000 # 10ps
PPPM initialization ...
  extracting TIP4P info from pair style
  using 12-bit tables for long-range coulomb
  G vector (1/distance) = 0.32815664
  grid = 50 50 50
  stencil order = 5
  estimated absolute RMS force accuracy = 0.0035802102
  estimated relative force accuracy = 1.0781697e-05
  using double precision KISS FFT
  3d grid and FFT values/proc = 11424 2800
Generated 0 of 1 mixed pair_coeff terms from geometric mixing rule
Per MPI rank memory allocation (min/avg/max) = 10.92 | 11.04 | 11.12 Mbytes
   Step          Temp          TotEng         PotEng          Pxy           v_sxy         v_strain     v_viscosity  
    140000   429.71884     -37821.047     -48312.983     -1830.8406      0.17630527     35             0.0007052211 
    141000   442.06731     -37403.56      -48196.994     -2455.4775      0.24002972     35.25          0.00096011887
    142000   432.42373     -37797.831     -48355.809     -2161.7475      0.20770189     35.5           0.00083080757
    143000   436.1676      -37401.934     -48051.321     -2153.8003      0.21133545     35.75          0.0008453418 
    144000   432.10144     -37780.811     -48330.92      -2158.1547      0.21380695     36             0.00085522779
    145000   431.69822     -37601.547     -48141.811     -2308.2409      0.22297037     36.25          0.00089188147
    146000   431.95161     -37665.68      -48212.13      -2173.2557      0.21499729     36.5           0.00085998917
    147000   429.30982     -37717.595     -48199.544     -2253.9099      0.22432235     36.75          0.00089728938
    148000   428.12397     -37691.922     -48144.918     -2531.1647      0.24645313     37             0.00098581251
    149000   431.60769     -37601.05      -48139.104     -2404.4135      0.23751916     37.25          0.00095007663
    150000   430.27485     -37684.6       -48190.111     -2297.7463      0.22722581     37.5           0.00090890325
Loop time of 45.0225 on 56 procs for 10000 steps with 12288 atoms

Performance: 19.190 ns/day, 1.251 hours/ns, 222.111 timesteps/s, 2.729 Matom-step/s
99.8% CPU use with 56 MPI tasks x no OpenMP threads

MPI task timing breakdown:
Section |  min time  |  avg time  |  max time  |%varavg| %total
---------------------------------------------------------------
Pair    | 18.874     | 20.046     | 21.148     |  11.6 | 44.52
Bond    | 0.0013609  | 0.0026363  | 0.0038002  |   0.9 |  0.01
Kspace  | 10.85      | 11.92      | 13.117     |  14.9 | 26.48
Neigh   | 4.4485     | 4.4513     | 4.4539     |   0.1 |  9.89
Comm    | 1.5458     | 1.6418     | 1.7943     |   4.2 |  3.65
Output  | 0.022775   | 0.039783   | 0.056089   |   5.0 |  0.09
Modify  | 5.1475     | 5.6682     | 6.6667     |  14.8 | 12.59
Other   |            | 1.253      |            |       |  2.78

Nlocal:        219.429 ave         237 max         203 min
Histogram: 4 5 4 8 7 8 8 5 5 2
Nghost:        7265.88 ave        7340 max        7177 min
Histogram: 2 2 3 9 9 7 11 4 5 4
Neighs:        96070.7 ave      105548 max       88341 min
Histogram: 6 4 5 9 10 5 8 5 2 2

Total # of neighbors = 5379959
Ave neighs/atom = 437.82218
Ave special neighs/atom = 2
Neighbor list builds = 378
Dangerous builds = 0
kspace_style pppm/tip4p 1.0e-5
next nloop
jump SELF loop_start
run 10000 # 10ps
PPPM initialization ...
  extracting TIP4P info from pair style
  using 12-bit tables for long-range coulomb
  G vector (1/distance) = 0.32815664
  grid = 50 75 50
  stencil order = 5
  estimated absolute RMS force accuracy = 0.0035802102
  estimated relative force accuracy = 1.0781697e-05
  using double precision KISS FFT
  3d grid and FFT values/proc = 15776 4000
Generated 0 of 1 mixed pair_coeff terms from geometric mixing rule
Per MPI rank memory allocation (min/avg/max) = 11.21 | 11.35 | 11.45 Mbytes
   Step          Temp          TotEng         PotEng          Pxy           v_sxy         v_strain     v_viscosity  
    150000   430.42856     -37682.3       -48191.564     -1789.6776      0.17508482     37.5           0.00070033927
    151000   427.78907     -37783.277     -48228.096     -2309.6293      0.22710369     37.75          0.00090841477
    152000   434.11931     -37596.366     -48195.742     -2182.731       0.21145229     38             0.00084580917
    153000   427.9942      -37714.041     -48163.869     -2098.1269      0.20635847     38.25          0.00082543386
    154000   433.94788     -37466.967     -48062.158     -2507.268       0.24406161     38.5           0.00097624646
    155000   434.9515      -37626.001     -48245.696     -1905.5839      0.18219646     38.75          0.00072878584
    156000   431.70466     -37737.972     -48278.393     -2321.0151      0.23051008     39             0.00092204032
    157000   430.21159     -37632.275     -48136.242     -2002.1017      0.20072188     39.25          0.00080288753
    158000   430.17528     -37617.144     -48120.224     -2216.1514      0.21625641     39.5           0.00086502565
    159000   436.69651     -37561.137     -48223.438     -1908.8598      0.18468231     39.75          0.00073872925
    160000   435.16685     -37484.468     -48109.422     -2250.9983      0.22227248     40             0.00088908993
Loop time of 52.5654 on 56 procs for 10000 steps with 12288 atoms

Performance: 16.437 ns/day, 1.460 hours/ns, 190.239 timesteps/s, 2.338 Matom-step/s
99.8% CPU use with 56 MPI tasks x no OpenMP threads

MPI task timing breakdown:
Section |  min time  |  avg time  |  max time  |%varavg| %total
---------------------------------------------------------------
Pair    | 19.095     | 20.307     | 21.467     |  11.4 | 38.63
Bond    | 0.0015931  | 0.0031241  | 0.0042053  |   1.0 |  0.01
Kspace  | 15.078     | 16.122     | 17.432     |  13.4 | 30.67
Neigh   | 4.5511     | 4.5547     | 4.5572     |   0.1 |  8.66
Comm    | 1.6543     | 1.8135     | 2.0449     |   5.9 |  3.45
Output  | 0.023104   | 0.040042   | 0.056367   |   4.9 |  0.08
Modify  | 7.3553     | 8.073      | 9.4755     |  17.9 | 15.36
Other   |            | 1.652      |            |       |  3.14

Nlocal:        219.429 ave         240 max         198 min
Histogram: 2 1 3 9 16 8 8 4 3 2
Nghost:        6834.89 ave        6893 max        6773 min
Histogram: 2 4 6 10 5 6 8 8 5 2
Neighs:        96069.1 ave      106847 max       85270 min
Histogram: 2 1 4 8 16 11 3 5 4 2

Total # of neighbors = 5379867
Ave neighs/atom = 437.8147
Ave special neighs/atom = 2
Neighbor list builds = 385
Dangerous builds = 0
kspace_style pppm/tip4p 1.0e-5
next nloop
jump SELF loop_start
run 10000 # 10ps
PPPM initialization ...
  extracting TIP4P info from pair style
  using 12-bit tables for long-range coulomb
  G vector (1/distance) = 0.32815664
  grid = 50 50 50
  stencil order = 5
  estimated absolute RMS force accuracy = 0.0035802102
  estimated relative force accuracy = 1.0781697e-05
  using double precision KISS FFT
  3d grid and FFT values/proc = 11424 2800
Generated 0 of 1 mixed pair_coeff terms from geometric mixing rule
Per MPI rank memory allocation (min/avg/max) = 10.92 | 11.04 | 11.12 Mbytes
   Step          Temp          TotEng         PotEng          Pxy           v_sxy         v_strain     v_viscosity  
    160000   435.22839     -37478.943     -48105.399     -1770.4077      0.17307446     40             0.00069229785
    161000   434.476       -37594.865     -48202.95      -2262.7924      0.22340326     40.25          0.00089361304
    162000   434.15198     -37589.86      -48190.034     -2171.9845      0.21049888     40.5           0.00084199552
    163000   435.77232     -37572.952     -48212.689     -2053.165       0.20146849     40.75          0.00080587395
    164000   431.94244     -37473.914     -48020.141     -1737.1586      0.17068979     41             0.00068275915
    165000   433.34493     -37598.408     -48178.878     -2010.823       0.19788319     41.25          0.00079153277
    166000   428.88184     -37669.595     -48141.095     -2278.5246      0.22264964     41.5           0.00089059856
    167000   427.20724     -37811.434     -48242.047     -2062.6748      0.20735986     41.75          0.00082943945
    168000   429.28627     -37774.928     -48256.302     -1983.797       0.19646379     42             0.00078585516
    169000   427.16164     -37781.184     -48210.684     -2163.3169      0.21426134     42.25          0.00085704536
    170000   429.84445     -37752.707     -48247.709     -2069.8127      0.20676698     42.5           0.00082706794
Loop time of 44.9348 on 56 procs for 10000 steps with 12288 atoms

Performance: 19.228 ns/day, 1.248 hours/ns, 222.545 timesteps/s, 2.735 Matom-step/s
99.8% CPU use with 56 MPI tasks x no OpenMP threads

MPI task timing breakdown:
Section |  min time  |  avg time  |  max time  |%varavg| %total
---------------------------------------------------------------
Pair    | 18.743     | 20.005     | 21.09      |   9.0 | 44.52
Bond    | 0.0013092  | 0.0026444  | 0.0037799  |   0.9 |  0.01
Kspace  | 10.829     | 11.82      | 13.101     |  11.5 | 26.30
Neigh   | 4.4904     | 4.4931     | 4.4963     |   0.1 | 10.00
Comm    | 1.5355     | 1.639      | 1.7908     |   4.4 |  3.65
Output  | 0.022819   | 0.040013   | 0.056431   |   5.0 |  0.09
Modify  | 5.1396     | 5.6616     | 6.68       |  14.6 | 12.60
Other   |            | 1.274      |            |       |  2.83

Nlocal:        219.429 ave         237 max         200 min
Histogram: 1 6 3 5 6 15 7 9 1 3
Nghost:        7270.07 ave        7349 max        7179 min
Histogram: 1 3 5 6 11 11 3 5 9 2
Neighs:        96050.6 ave      104175 max       86684 min
Histogram: 1 5 4 7 6 10 7 10 3 3

Total # of neighbors = 5378833
Ave neighs/atom = 437.73055
Ave special neighs/atom = 2
Neighbor list builds = 382
Dangerous builds = 0
kspace_style pppm/tip4p 1.0e-5
next nloop
jump SELF loop_start
run 10000 # 10ps
PPPM initialization ...
  extracting TIP4P info from pair style
  using 12-bit tables for long-range coulomb
  G vector (1/distance) = 0.32815664
  grid = 50 75 50
  stencil order = 5
  estimated absolute RMS force accuracy = 0.0035802102
  estimated relative force accuracy = 1.0781697e-05
  using double precision KISS FFT
  3d grid and FFT values/proc = 15776 4000
Generated 0 of 1 mixed pair_coeff terms from geometric mixing rule
Per MPI rank memory allocation (min/avg/max) = 11.21 | 11.35 | 11.45 Mbytes
   Step          Temp          TotEng         PotEng          Pxy           v_sxy         v_strain     v_viscosity  
    170000   430.61673     -37733.718     -48247.576     -1530.126       0.15103058     42.5           0.0006041223 
    171000   428.73405     -37829.706     -48297.597     -1893.8662      0.19012954     42.75          0.00076051815
    172000   434.61578     -37515.978     -48127.477     -2264.7731      0.21965977     43             0.00087863906
    173000   432.84643     -37775.552     -48343.85      -2033.0915      0.19693367     43.25          0.00078773468
    174000   427.89564     -37691.577     -48138.998     -2238.598       0.2277355      43.5           0.00091094199
    175000   432.44916     -37654.637     -48213.236     -2396.8952      0.23306632     43.75          0.0009322653 
    176000   434.82196     -37612.907     -48229.44      -1920.6101      0.19064474     44             0.00076257897
    177000   430.23626     -37577.798     -48082.367     -2205.5001      0.21622804     44.25          0.00086491215
    178000   426.30893     -37840.345     -48249.025     -2098.6298      0.20769395     44.5           0.0008307758 
    179000   432.5502      -37598.784     -48159.85      -2004.9397      0.19643193     44.75          0.00078572772
    180000   432.81944     -37646.34      -48213.979     -2254.8762      0.22546846     45             0.00090187385
Loop time of 52.5456 on 56 procs for 10000 steps with 12288 atoms

Performance: 16.443 ns/day, 1.460 hours/ns, 190.311 timesteps/s, 2.339 Matom-step/s
99.8% CPU use with 56 MPI tasks x no OpenMP threads

MPI task timing breakdown:
Section |  min time  |  avg time  |  max time  |%varavg| %total
---------------------------------------------------------------
Pair    | 19.228     | 20.275     | 21.21      |  10.9 | 38.58
Bond    | 0.0016493  | 0.0031251  | 0.0046047  |   1.0 |  0.01
Kspace  | 14.992     | 16.135     | 17.263     |  12.1 | 30.71
Neigh   | 4.556      | 4.5593     | 4.5619     |   0.1 |  8.68
Comm    | 1.6924     | 1.8334     | 2.0543     |   6.0 |  3.49
Output  | 0.022513   | 0.039471   | 0.055763   |   5.0 |  0.08
Modify  | 7.3523     | 8.0619     | 9.4385     |  17.6 | 15.34
Other   |            | 1.638      |            |       |  3.12

Nlocal:        219.429 ave         240 max         205 min
Histogram: 6 6 5 8 11 9 3 3 4 1
Nghost:        6857.66 ave        6930 max        6807 min
Histogram: 2 7 9 10 8 10 5 4 0 1
Neighs:        96056.5 ave      104897 max       89344 min
Histogram: 3 9 4 8 15 6 3 1 4 3

Total # of neighbors = 5379162
Ave neighs/atom = 437.75732
Ave special neighs/atom = 2
Neighbor list builds = 382
Dangerous builds = 0
kspace_style pppm/tip4p 1.0e-5
next nloop
jump SELF loop_start
run 10000 # 10ps
PPPM initialization ...
  extracting TIP4P info from pair style
  using 12-bit tables for long-range coulomb
  G vector (1/distance) = 0.32815664
  grid = 50 50 50
  stencil order = 5
  estimated absolute RMS force accuracy = 0.0035802102
  estimated relative force accuracy = 1.0781697e-05
  using double precision KISS FFT
  3d grid and FFT values/proc = 11424 2800
Generated 0 of 1 mixed pair_coeff terms from geometric mixing rule
Per MPI rank memory allocation (min/avg/max) = 10.92 | 11.04 | 11.12 Mbytes
   Step          Temp          TotEng         PotEng          Pxy           v_sxy         v_strain     v_viscosity  
    180000   433.01072     -37638.859     -48211.169     -1702.9902      0.16943059     45             0.00067772237
    181000   428.74526     -37730.385     -48198.55      -2227.9777      0.21974141     45.25          0.00087896563
    182000   428.58692     -37861.709     -48326.008     -2253.1594      0.22438221     45.5           0.00089752886
    183000   431.06786     -37580.596     -48105.47      -2283.1414      0.22389296     45.75          0.00089557183
    184000   430.23372     -37637.214     -48141.72      -2452.4593      0.23735513     46             0.00094942053
    185000   429.81389     -37668.999     -48163.255     -2127.7889      0.20645333     46.25          0.00082581333
    186000   425.43954     -37753.79      -48141.243     -2401.4716      0.23974289     46.5           0.00095897156
    187000   428.11929     -37840.057     -48292.939     -2234.8435      0.21182839     46.75          0.00084731357
    188000   431.5382      -37466.249     -48002.606     -2184.4357      0.2147623      47             0.0008590492 
    189000   428.84383     -37670.434     -48141.005     -2031.177       0.20817601     47.25          0.00083270406
    190000   437.71164     -37460.576     -48147.663     -2047.1752      0.20470788     47.5           0.00081883153
Loop time of 44.9705 on 56 procs for 10000 steps with 12288 atoms

Performance: 19.213 ns/day, 1.249 hours/ns, 222.368 timesteps/s, 2.732 Matom-step/s
99.8% CPU use with 56 MPI tasks x no OpenMP threads

MPI task timing breakdown:
Section |  min time  |  avg time  |  max time  |%varavg| %total
---------------------------------------------------------------
Pair    | 18.692     | 20.007     | 21.061     |  10.9 | 44.49
Bond    | 0.0013702  | 0.0026251  | 0.0040625  |   1.0 |  0.01
Kspace  | 10.866     | 11.822     | 13.096     |  13.7 | 26.29
Neigh   | 4.5226     | 4.5251     | 4.528      |   0.1 | 10.06
Comm    | 1.5461     | 1.6381     | 1.7996     |   4.3 |  3.64
Output  | 0.022757   | 0.03987    | 0.056353   |   5.0 |  0.09
Modify  | 5.1382     | 5.6635     | 6.6942     |  14.7 | 12.59
Other   |            | 1.272      |            |       |  2.83

Nlocal:        219.429 ave         236 max         200 min
Histogram: 3 2 3 8 10 6 8 6 5 5
Nghost:        7287.77 ave        7367 max        7199 min
Histogram: 1 3 5 7 13 8 3 8 4 4
Neighs:        96054.1 ave      104675 max       86591 min
Histogram: 3 2 4 11 6 8 6 8 2 6

Total # of neighbors = 5379027
Ave neighs/atom = 437.74634
Ave special neighs/atom = 2
Neighbor list builds = 384
Dangerous builds = 0
kspace_style pppm/tip4p 1.0e-5
next nloop
jump SELF loop_start
run 10000 # 10ps
PPPM initialization ...
  extracting TIP4P info from pair style
  using 12-bit tables for long-range coulomb
  G vector (1/distance) = 0.32815664
  grid = 50 75 50
  stencil order = 5
  estimated absolute RMS force accuracy = 0.0035802102
  estimated relative force accuracy = 1.0781697e-05
  using double precision KISS FFT
  3d grid and FFT values/proc = 15776 4000
Generated 0 of 1 mixed pair_coeff terms from geometric mixing rule
Per MPI rank memory allocation (min/avg/max) = 11.21 | 11.35 | 11.45 Mbytes
   Step          Temp          TotEng         PotEng          Pxy           v_sxy         v_strain     v_viscosity  
    190000   438.4083      -37444.165     -48148.261     -1637.3862      0.1623476      47.5           0.0006493904 
    191000   429.17793     -37817.7       -48296.429     -2492.9549      0.24925491     47.75          0.00099701962
    192000   432.34213     -37741.909     -48297.895     -2295.2198      0.22887654     48             0.00091550615
    193000   432.4919      -37591.727     -48151.369     -2418.5535      0.23560612     48.25          0.00094242447
    194000   432.47721     -37463.486     -48022.77      -1951           0.19111181     48.5           0.00076444724
    195000   436.91816     -37614.37      -48282.083     -1765.1165      0.17002067     48.75          0.00068008266
    196000   430.52536     -37668.156     -48179.784     -2250.5202      0.22541286     49             0.00090165144
    197000   428.97158     -37719.898     -48193.588     -2172.5177      0.20688084     49.25          0.00082752335
    198000   429.70462     -37654.613     -48146.201     -2192.8623      0.21574739     49.5           0.00086298958
    199000   430.45891     -37724.569     -48234.575     -1910.8814      0.18824792     49.75          0.00075299167
    200000   433.21866     -37717.276     -48294.663     -2199.6032      0.21422294     50             0.00085689176
Loop time of 52.4413 on 56 procs for 10000 steps with 12288 atoms

Performance: 16.476 ns/day, 1.457 hours/ns, 190.689 timesteps/s, 2.343 Matom-step/s
99.8% CPU use with 56 MPI tasks x no OpenMP threads

MPI task timing breakdown:
Section |  min time  |  avg time  |  max time  |%varavg| %total
---------------------------------------------------------------
Pair    | 18.932     | 20.24      | 21.376     |  10.3 | 38.59
Bond    | 0.0015166  | 0.0031144  | 0.0048451  |   1.1 |  0.01
Kspace  | 14.938     | 16.102     | 17.187     |  11.2 | 30.71
Neigh   | 4.5514     | 4.5557     | 4.5585     |   0.1 |  8.69
Comm    | 1.6854     | 1.8105     | 2.0157     |   5.8 |  3.45
Output  | 0.023052   | 0.04015    | 0.056515   |   4.9 |  0.08
Modify  | 7.3429     | 8.0559     | 9.4264     |  17.6 | 15.36
Other   |            | 1.634      |            |       |  3.12

Nlocal:        219.429 ave         243 max         200 min
Histogram: 5 3 8 8 4 13 9 2 3 1
Nghost:        6834.88 ave        6924 max        6786 min
Histogram: 6 8 10 12 8 6 3 0 1 2
Neighs:        96076.4 ave      106400 max       86867 min
Histogram: 3 8 4 6 6 10 11 4 2 2

Total # of neighbors = 5380281
Ave neighs/atom = 437.84839
Ave special neighs/atom = 2
Neighbor list builds = 385
Dangerous builds = 0
kspace_style pppm/tip4p 1.0e-5
next nloop
jump SELF loop_start
run 10000 # 10ps
PPPM initialization ...
  extracting TIP4P info from pair style
  using 12-bit tables for long-range coulomb
  G vector (1/distance) = 0.32815664
  grid = 50 50 50
  stencil order = 5
  estimated absolute RMS force accuracy = 0.0035802102
  estimated relative force accuracy = 1.0781697e-05
  using double precision KISS FFT
  3d grid and FFT values/proc = 11424 2800
Generated 0 of 1 mixed pair_coeff terms from geometric mixing rule
Per MPI rank memory allocation (min/avg/max) = 10.92 | 11.04 | 11.12 Mbytes
   Step          Temp          TotEng         PotEng          Pxy           v_sxy         v_strain     v_viscosity  
    200000   433.31        -37716.151     -48295.768     -1729.8119      0.1659759      50             0.0006639036 
    201000   428.96748     -37804.787     -48278.377     -2361.7826      0.23733761     50.25          0.00094935044
    202000   427.3474      -37662.371     -48096.406     -2263.478       0.22037736     50.5           0.00088150944
    203000   424.93673     -37903.936     -48279.112     -2193.3933      0.21487625     50.75          0.000859505  
    204000   430.26471     -37642.413     -48147.676     -2271.0906      0.22414319     51             0.00089657278
    205000   431.33496     -37668.663     -48200.058     -2084.2348      0.20496473     51.25          0.00081985892
    206000   421.02449     -37937.709     -48217.365     -2349.3724      0.23120605     51.5           0.0009248242 
    207000   429.61258     -37609.258     -48098.599     -2158.8108      0.2141964      51.75          0.00085678561
    208000   427.56259     -37893.293     -48332.582     -2165.6164      0.20857295     52             0.00083429179
    209000   428.96315     -37549.23      -48022.716     -2313.5298      0.22808665     52.25          0.00091234661
    210000   428.33343     -37800.204     -48258.314     -1754.3916      0.17433181     52.5           0.00069732723
Loop time of 45.0673 on 56 procs for 10000 steps with 12288 atoms

Performance: 19.171 ns/day, 1.252 hours/ns, 221.890 timesteps/s, 2.727 Matom-step/s
99.8% CPU use with 56 MPI tasks x no OpenMP threads

MPI task timing breakdown:
Section |  min time  |  avg time  |  max time  |%varavg| %total
---------------------------------------------------------------
Pair    | 18.634     | 19.991     | 21.09      |  11.8 | 44.36
Bond    | 0.0014175  | 0.0026439  | 0.0037938  |   1.0 |  0.01
Kspace  | 10.829     | 11.951     | 13.304     |  15.3 | 26.52
Neigh   | 4.4964     | 4.4997     | 4.5018     |   0.1 |  9.98
Comm    | 1.5552     | 1.6424     | 1.8006     |   4.1 |  3.64
Output  | 0.022718   | 0.039834   | 0.056238   |   5.0 |  0.09
Modify  | 5.1725     | 5.67       | 6.6862     |  14.5 | 12.58
Other   |            | 1.271      |            |       |  2.82

Nlocal:        219.429 ave         239 max         197 min
Histogram: 1 1 2 7 9 20 8 3 3 2
Nghost:        7266.11 ave        7370 max        7187 min
Histogram: 4 8 3 9 13 3 8 4 2 2
Neighs:        96071.7 ave      107214 max       84221 min
Histogram: 1 1 4 5 15 13 12 2 2 1

Total # of neighbors = 5380015
Ave neighs/atom = 437.82674
Ave special neighs/atom = 2
Neighbor list builds = 381
Dangerous builds = 0
kspace_style pppm/tip4p 1.0e-5
next nloop
jump SELF loop_start
run 10000 # 10ps
PPPM initialization ...
  extracting TIP4P info from pair style
  using 12-bit tables for long-range coulomb
  G vector (1/distance) = 0.32815664
  grid = 50 75 50
  stencil order = 5
  estimated absolute RMS force accuracy = 0.0035802102
  estimated relative force accuracy = 1.0781697e-05
  using double precision KISS FFT
  3d grid and FFT values/proc = 15776 4000
Generated 0 of 1 mixed pair_coeff terms from geometric mixing rule
Per MPI rank memory allocation (min/avg/max) = 11.21 | 11.35 | 11.45 Mbytes
   Step          Temp          TotEng         PotEng          Pxy           v_sxy         v_strain     v_viscosity  
    210000   428.30418     -37802.47      -48259.866     -1307.9151      0.12886675     52.5           0.00051546701
    211000   426.61136     -37792.387     -48208.451     -2082.7414      0.21261582     52.75          0.00085046328
    212000   431.91085     -37632.327     -48177.783     -1944.2553      0.19276775     53             0.00077107102
    213000   433.78388     -37637.6       -48228.787     -2044.1833      0.20619274     53.25          0.00082477095
    214000   433.40138     -37618.765     -48200.612     -2242.6972      0.21800629     53.5           0.00087202517
    215000   433.10896     -37633.177     -48207.885     -2053.0901      0.20227853     53.75          0.00080911412
    216000   426.98155     -37840.958     -48266.061     -2136.8689      0.21100447     54             0.00084401787
    217000   431.18235     -37675.083     -48202.751     -2278.6915      0.22652839     54.25          0.00090611354
    218000   424.18796     -37742.865     -48099.759     -2063.941       0.19994907     54.5           0.00079979629
    219000   433.70806     -37594.605     -48183.941     -2099.789       0.19993357     54.75          0.00079973429
    220000   429.76275     -37742.259     -48235.266     -2172.6209      0.21229095     55             0.0008491638 
Loop time of 52.3884 on 56 procs for 10000 steps with 12288 atoms

Performance: 16.492 ns/day, 1.455 hours/ns, 190.882 timesteps/s, 2.346 Matom-step/s
99.8% CPU use with 56 MPI tasks x no OpenMP threads

MPI task timing breakdown:
Section |  min time  |  avg time  |  max time  |%varavg| %total
---------------------------------------------------------------
Pair    | 19.18      | 20.25      | 20.999     |   8.5 | 38.65
Bond    | 0.0018499  | 0.0030831  | 0.0041996  |   1.0 |  0.01
Kspace  | 15.411     | 16.09      | 17.052     |   9.5 | 30.71
Neigh   | 4.5121     | 4.516      | 4.5187     |   0.1 |  8.62
Comm    | 1.655      | 1.81       | 2.0085     |   5.6 |  3.45
Output  | 0.022692   | 0.039761   | 0.056178   |   5.0 |  0.08
Modify  | 7.3317     | 8.0491     | 9.422      |  17.8 | 15.36
Other   |            | 1.631      |            |       |  3.11

Nlocal:        219.429 ave         235 max         197 min
Histogram: 1 1 2 8 5 11 15 2 3 8
Nghost:         6846.2 ave        6926 max        6776 min
Histogram: 3 5 4 7 17 7 3 1 5 4
Neighs:        96035.8 ave      103340 max       86669 min
Histogram: 2 2 6 4 9 6 14 2 4 7

Total # of neighbors = 5378006
Ave neighs/atom = 437.66325
Ave special neighs/atom = 2
Neighbor list builds = 383
Dangerous builds = 0
kspace_style pppm/tip4p 1.0e-5
next nloop
jump SELF loop_start
run 10000 # 10ps
PPPM initialization ...
  extracting TIP4P info from pair style
  using 12-bit tables for long-range coulomb
  G vector (1/distance) = 0.32815664
  grid = 50 50 50
  stencil order = 5
  estimated absolute RMS force accuracy = 0.0035802102
  estimated relative force accuracy = 1.0781697e-05
  using double precision KISS FFT
  3d grid and FFT values/proc = 11424 2800
Generated 0 of 1 mixed pair_coeff terms from geometric mixing rule
Per MPI rank memory allocation (min/avg/max) = 10.92 | 11.04 | 11.12 Mbytes
   Step          Temp          TotEng         PotEng          Pxy           v_sxy         v_strain     v_viscosity  
    220000   429.65439     -37745.363     -48235.726     -1710.0543      0.16459729     55             0.00065838914
    221000   431.3614      -37580.914     -48112.954     -2305.9892      0.22689687     55.25          0.00090758749
    222000   430.78968     -37735.802     -48253.884     -1997.9973      0.19501263     55.5           0.00078005051
    223000   432.25101     -37657.786     -48211.547     -1817.1775      0.17463443     55.75          0.00069853771
    224000   430.75675     -37676.384     -48193.661     -2103.4773      0.21281979     56             0.00085127914
    225000   432.0048      -37601.263     -48149.012     -2238.4338      0.22071561     56.25          0.00088286245
    226000   430.41381     -37679.936     -48188.84      -1987.8434      0.19253869     56.5           0.00077015477
    227000   429.60832     -37763.088     -48252.325     -2065.2701      0.19978083     56.75          0.00079912331
    228000   430.56359     -37576.758     -48089.319     -2179.7131      0.21158123     57             0.00084632491
    229000   427.90709     -37663.44      -48111.14      -2441.3889      0.24259464     57.25          0.00097037857
    230000   428.87714     -37680.102     -48151.487     -2243.2208      0.2232278      57.5           0.00089291121
Loop time of 45.0927 on 56 procs for 10000 steps with 12288 atoms

Performance: 19.161 ns/day, 1.253 hours/ns, 221.765 timesteps/s, 2.725 Matom-step/s
99.8% CPU use with 56 MPI tasks x no OpenMP threads

MPI task timing breakdown:
Section |  min time  |  avg time  |  max time  |%varavg| %total
---------------------------------------------------------------
Pair    | 19.062     | 19.981     | 20.963     |  11.7 | 44.31
Bond    | 0.0013203  | 0.0026296  | 0.003931   |   1.0 |  0.01
Kspace  | 10.894     | 11.963     | 12.906     |  15.1 | 26.53
Neigh   | 4.5356     | 4.5383     | 4.5412     |   0.1 | 10.06
Comm    | 1.5615     | 1.65       | 1.7759     |   4.5 |  3.66
Output  | 0.022812   | 0.03993    | 0.056377   |   5.0 |  0.09
Modify  | 5.1566     | 5.6678     | 6.6632     |  14.6 | 12.57
Other   |            | 1.25       |            |       |  2.77

Nlocal:        219.429 ave         242 max         201 min
Histogram: 3 4 13 5 7 7 10 6 0 1
Nghost:        7268.68 ave        7342 max        7190 min
Histogram: 2 2 6 7 9 9 11 4 4 2
Neighs:        96076.1 ave      106062 max       87362 min
Histogram: 3 2 14 3 7 7 11 6 2 1

Total # of neighbors = 5380264
Ave neighs/atom = 437.84701
Ave special neighs/atom = 2
Neighbor list builds = 382
Dangerous builds = 0
kspace_style pppm/tip4p 1.0e-5
next nloop
jump SELF loop_start
run 10000 # 10ps
PPPM initialization ...
  extracting TIP4P info from pair style
  using 12-bit tables for long-range coulomb
  G vector (1/distance) = 0.32815664
  grid = 50 75 50
  stencil order = 5
  estimated absolute RMS force accuracy = 0.0035802102
  estimated relative force accuracy = 1.0781697e-05
  using double precision KISS FFT
  3d grid and FFT values/proc = 15776 4000
Generated 0 of 1 mixed pair_coeff terms from geometric mixing rule
Per MPI rank memory allocation (min/avg/max) = 11.21 | 11.35 | 11.45 Mbytes
   Step          Temp          TotEng         PotEng          Pxy           v_sxy         v_strain     v_viscosity  
    230000   428.54748     -37687.785     -48151.121     -1737.0138      0.17163947     57.5           0.00068655787
    231000   426.99803     -37977.644     -48403.149     -2407.1131      0.23788232     57.75          0.00095152927
    232000   436.1806      -37495.451     -48145.156     -2337.0691      0.2283732      58             0.00091349281
    233000   427.68885     -37908.884     -48351.256     -2317.6728      0.23041343     58.25          0.00092165373
    234000   435.74131     -37492.062     -48131.041     -2136.1058      0.20975083     58.5           0.00083900333
    235000   433.23398     -37575.454     -48153.215     -1932.5328      0.19039728     58.75          0.00076158912
    236000   432.26922     -37668.881     -48223.086     -2146.5787      0.21028882     59             0.00084115529
    237000   435.01119     -37535.577     -48156.73      -2129.8775      0.21095467     59.25          0.00084381869
    238000   433.22092     -37531.277     -48108.719     -2352.4604      0.23015183     59.5           0.00092060731
    239000   438.39766     -37555.716     -48259.553     -2129.9051      0.20998635     59.75          0.00083994539
    240000   428.9637      -37748.915     -48222.414     -2106.8573      0.21023177     60             0.0008409271 
Loop time of 52.3084 on 56 procs for 10000 steps with 12288 atoms

Performance: 16.517 ns/day, 1.453 hours/ns, 191.174 timesteps/s, 2.349 Matom-step/s
99.8% CPU use with 56 MPI tasks x no OpenMP threads

MPI task timing breakdown:
Section |  min time  |  avg time  |  max time  |%varavg| %total
---------------------------------------------------------------
Pair    | 19.148     | 20.233     | 21.185     |  10.1 | 38.68
Bond    | 0.0016109  | 0.0030985  | 0.0050337  |   1.0 |  0.01
Kspace  | 14.973     | 15.964     | 17.127     |  11.9 | 30.52
Neigh   | 4.5372     | 4.541      | 4.5433     |   0.1 |  8.68
Comm    | 1.6718     | 1.8239     | 2.0165     |   5.2 |  3.49
Output  | 0.023144   | 0.040271   | 0.056719   |   5.0 |  0.08
Modify  | 7.3535     | 8.0582     | 9.444      |  17.7 | 15.41
Other   |            | 1.644      |            |       |  3.14

Nlocal:        219.429 ave         233 max         198 min
Histogram: 4 1 2 2 5 11 9 9 6 7
Nghost:        6842.86 ave        6914 max        6746 min
Histogram: 1 0 5 5 7 11 10 10 5 2
Neighs:        96071.2 ave      103790 max       85259 min
Histogram: 4 1 2 3 6 11 9 9 9 2

Total # of neighbors = 5379988
Ave neighs/atom = 437.82454
Ave special neighs/atom = 2
Neighbor list builds = 385
Dangerous builds = 0
kspace_style pppm/tip4p 1.0e-5
next nloop
jump SELF loop_start
run 10000 # 10ps
PPPM initialization ...
  extracting TIP4P info from pair style
  using 12-bit tables for long-range coulomb
  G vector (1/distance) = 0.32815664
  grid = 50 50 50
  stencil order = 5
  estimated absolute RMS force accuracy = 0.0035802102
  estimated relative force accuracy = 1.0781697e-05
  using double precision KISS FFT
  3d grid and FFT values/proc = 11424 2800
Generated 0 of 1 mixed pair_coeff terms from geometric mixing rule
Per MPI rank memory allocation (min/avg/max) = 10.92 | 11.04 | 11.12 Mbytes
   Step          Temp          TotEng         PotEng          Pxy           v_sxy         v_strain     v_viscosity  
    240000   428.83888     -37752.402     -48222.853     -1608.898       0.15925495     60             0.0006370198 
    241000   432.25252     -37668.961     -48222.758     -2345.2033      0.23159112     60.25          0.00092636448
    242000   438.29857     -37522.521     -48223.938     -2312.9636      0.23370459     60.5           0.00093481835
    243000   435.03669     -37584.545     -48206.32      -2414.5258      0.24024688     60.75          0.00096098754
    244000   434.82934     -37607.988     -48224.701     -2060.01        0.2047738      61             0.00081909521
    245000   433.2486      -37629.782     -48207.9       -1908.3916      0.18678136     61.25          0.00074712544
    246000   438.75453     -37511.974     -48224.524     -2617.9403      0.25393509     61.5           0.0010157403 
    247000   433.36135     -37528.904     -48109.774     -2236.6583      0.21656983     61.75          0.00086627933
    248000   432.26237     -37462.043     -48016.081     -2101.9491      0.2092597      62             0.0008370388 
    249000   428.83458     -37881.031     -48351.377     -2329.1773      0.22820687     62.25          0.00091282749
    250000   434.14256     -37674.36      -48274.305     -2106.8088      0.21052909     62.5           0.00084211635
Loop time of 44.6717 on 56 procs for 10000 steps with 12288 atoms

Performance: 19.341 ns/day, 1.241 hours/ns, 223.855 timesteps/s, 2.751 Matom-step/s
99.8% CPU use with 56 MPI tasks x no OpenMP threads

MPI task timing breakdown:
Section |  min time  |  avg time  |  max time  |%varavg| %total
---------------------------------------------------------------
Pair    | 19.161     | 19.991     | 20.974     |   8.5 | 44.75
Bond    | 0.0015694  | 0.0026072  | 0.0041666  |   1.0 |  0.01
Kspace  | 10.548     | 11.6       | 12.496     |  10.9 | 25.97
Neigh   | 4.454      | 4.4569     | 4.4593     |   0.1 |  9.98
Comm    | 1.5502     | 1.6407     | 1.7959     |   4.6 |  3.67
Output  | 0.02293    | 0.040013   | 0.056341   |   5.0 |  0.09
Modify  | 5.1552     | 5.673      | 6.6897     |  14.6 | 12.70
Other   |            | 1.267      |            |       |  2.84

Nlocal:        219.429 ave         235 max         195 min
Histogram: 2 1 2 1 8 9 12 8 7 6
Nghost:        7287.61 ave        7375 max        7185 min
Histogram: 2 3 3 5 11 8 8 12 1 3
Neighs:          96068 ave      104485 max       84627 min
Histogram: 2 1 2 4 10 9 12 9 4 3

Total # of neighbors = 5379810
Ave neighs/atom = 437.81006
Ave special neighs/atom = 2
Neighbor list builds = 381
Dangerous builds = 0
kspace_style pppm/tip4p 1.0e-5
next nloop
jump SELF loop_start
run 10000 # 10ps
PPPM initialization ...
  extracting TIP4P info from pair style
  using 12-bit tables for long-range coulomb
  G vector (1/distance) = 0.32815664
  grid = 50 75 50
  stencil order = 5
  estimated absolute RMS force accuracy = 0.0035802102
  estimated relative force accuracy = 1.0781697e-05
  using double precision KISS FFT
  3d grid and FFT values/proc = 15776 4000
Generated 0 of 1 mixed pair_coeff terms from geometric mixing rule
Per MPI rank memory allocation (min/avg/max) = 11.21 | 11.35 | 11.45 Mbytes
   Step          Temp          TotEng         PotEng          Pxy           v_sxy         v_strain     v_viscosity  
    250000   434.105       -37674.436     -48273.463     -1638.6677      0.16266165     62.5           0.0006506466 
    251000   434.4838      -37420.398     -48028.675     -2406.5016      0.23329646     62.75          0.00093318586
    252000   431.23058     -37620.774     -48149.62      -2237.2615      0.22132826     63             0.00088531302
    253000   432.62144     -37506.176     -48068.982     -1865.6027      0.17798959     63.25          0.00071195837
    254000   436.60653     -37628.916     -48289.021     -1998.4171      0.20052023     63.5           0.00080208091
    255000   437.48105     -37565.084     -48246.541     -2043.1778      0.1989414      63.75          0.00079576558
    256000   433.01636     -37483.241     -48055.688     -2382.5493      0.23388395     64             0.00093553579
    257000   434.81463     -37500.097     -48116.451     -1875.8855      0.18278848     64.25          0.00073115392
    258000   440.02696     -37375.435     -48119.052     -1969.2244      0.18745435     64.5           0.00074981742
    259000   435.49455     -37479.934     -48112.889     -2428.9603      0.23823312     64.75          0.00095293249
    260000   435.04517     -37594.824     -48216.806     -2015.5045      0.20215459     65             0.00080861836
Loop time of 52.2075 on 56 procs for 10000 steps with 12288 atoms

Performance: 16.549 ns/day, 1.450 hours/ns, 191.543 timesteps/s, 2.354 Matom-step/s
99.8% CPU use with 56 MPI tasks x no OpenMP threads

MPI task timing breakdown:
Section |  min time  |  avg time  |  max time  |%varavg| %total
---------------------------------------------------------------
Pair    | 19.151     | 20.218     | 21.317     |   9.8 | 38.73
Bond    | 0.0015048  | 0.0030607  | 0.0044079  |   1.0 |  0.01
Kspace  | 14.935     | 16.018     | 16.99      |  10.9 | 30.68
Neigh   | 4.4274     | 4.431      | 4.4337     |   0.1 |  8.49
Comm    | 1.6773     | 1.8046     | 2.0439     |   6.2 |  3.46
Output  | 0.022751   | 0.039718   | 0.056023   |   5.0 |  0.08
Modify  | 7.3473     | 8.0632     | 9.4381     |  17.8 | 15.44
Other   |            | 1.63       |            |       |  3.12

Nlocal:        219.429 ave         235 max         190 min
Histogram: 1 0 0 2 9 9 12 8 9 6
Nghost:        6869.68 ave        6939 max        6813 min
Histogram: 5 6 6 5 6 10 10 6 0 2
Neighs:        96064.5 ave      104823 max       81139 min
Histogram: 1 0 0 5 8 12 7 11 10 2

Total # of neighbors = 5379610
Ave neighs/atom = 437.79378
Ave special neighs/atom = 2
Neighbor list builds = 378
Dangerous builds = 0
kspace_style pppm/tip4p 1.0e-5
next nloop
jump SELF loop_start
run 10000 # 10ps
PPPM initialization ...
  extracting TIP4P info from pair style
  using 12-bit tables for long-range coulomb
  G vector (1/distance) = 0.32815664
  grid = 50 50 50
  stencil order = 5
  estimated absolute RMS force accuracy = 0.0035802102
  estimated relative force accuracy = 1.0781697e-05
  using double precision KISS FFT
  3d grid and FFT values/proc = 11424 2800
Generated 0 of 1 mixed pair_coeff terms from geometric mixing rule
Per MPI rank memory allocation (min/avg/max) = 10.92 | 11.04 | 11.12 Mbytes
   Step          Temp          TotEng         PotEng          Pxy           v_sxy         v_strain     v_viscosity  
    260000   434.72014     -37603.061     -48217.108     -1552.32        0.15370313     65             0.00061481251
    261000   429.93448     -37503.388     -48000.589     -2296.4171      0.22673128     65.25          0.00090692511
    262000   431.64411     -37571.774     -48110.717     -2062.1568      0.2067903      65.5           0.00082716119
    263000   433.98725     -37624.232     -48220.385     -2079.5653      0.20485804     65.75          0.00081943214
    264000   437.8135      -37386.727     -48076.3       -2240.8071      0.21881175     66             0.00087524701
    265000   431.26134     -37841.084     -48370.681     -2232.0755      0.21969838     66.25          0.0008787935 
    266000   442.52271     -37259.376     -48063.929     -2314.5853      0.23013722     66.5           0.00092054886
    267000   432.32334     -37678.685     -48234.211     -2055.7892      0.20283667     66.75          0.00081134669
    268000   436.63341     -37396.912     -48057.673     -2354.4888      0.22881108     67             0.00091524431
    269000   432.88709     -37534.117     -48103.408     -2093.8017      0.20725041     67.25          0.00082900165
    270000   434.33954     -37503.237     -48107.991     -2443.8749      0.24628177     67.5           0.00098512706
Loop time of 44.9073 on 56 procs for 10000 steps with 12288 atoms

Performance: 19.240 ns/day, 1.247 hours/ns, 222.681 timesteps/s, 2.736 Matom-step/s
99.8% CPU use with 56 MPI tasks x no OpenMP threads

MPI task timing breakdown:
Section |  min time  |  avg time  |  max time  |%varavg| %total
---------------------------------------------------------------
Pair    | 18.827     | 19.966     | 21.007     |  11.2 | 44.46
Bond    | 0.0014882  | 0.0025997  | 0.00422    |   1.0 |  0.01
Kspace  | 10.776     | 11.773     | 12.916     |  14.6 | 26.22
Neigh   | 4.5237     | 4.5271     | 4.5296     |   0.1 | 10.08
Comm    | 1.5385     | 1.6426     | 1.7687     |   4.4 |  3.66
Output  | 0.022747   | 0.039932   | 0.056382   |   5.0 |  0.09
Modify  | 5.14       | 5.6717     | 6.7098     |  14.7 | 12.63
Other   |            | 1.285      |            |       |  2.86

Nlocal:        219.429 ave         239 max         198 min
Histogram: 2 1 3 10 8 9 14 5 2 2
Nghost:        7267.66 ave        7356 max        7174 min
Histogram: 2 3 3 6 15 8 7 7 2 3
Neighs:        96073.6 ave      104606 max       86853 min
Histogram: 2 2 7 6 6 11 10 8 1 3

Total # of neighbors = 5380123
Ave neighs/atom = 437.83553
Ave special neighs/atom = 2
Neighbor list builds = 382
Dangerous builds = 0
kspace_style pppm/tip4p 1.0e-5
next nloop
jump SELF loop_start
run 10000 # 10ps
PPPM initialization ...
  extracting TIP4P info from pair style
  using 12-bit tables for long-range coulomb
  G vector (1/distance) = 0.32815664
  grid = 50 75 50
  stencil order = 5
  estimated absolute RMS force accuracy = 0.0035802102
  estimated relative force accuracy = 1.0781697e-05
  using double precision KISS FFT
  3d grid and FFT values/proc = 15776 4000
Generated 0 of 1 mixed pair_coeff terms from geometric mixing rule
Per MPI rank memory allocation (min/avg/max) = 11.21 | 11.35 | 11.45 Mbytes
   Step          Temp          TotEng         PotEng          Pxy           v_sxy         v_strain     v_viscosity  
    270000   434.49477     -37499.562     -48108.106     -2033.8825      0.20448521     67.5           0.00081794085
    271000   432.50633     -37685.041     -48245.036     -2142.825       0.21232643     67.75          0.0008493057 
    272000   437.46766     -37433.715     -48114.844     -2245.0261      0.22211349     68             0.00088845395
    273000   438.49264     -37632.357     -48338.513     -2122.8752      0.2047328      68.25          0.0008189312 
    274000   435.8156      -37395.171     -48035.964     -1747.0592      0.17094496     68.5           0.00068377985
    275000   438.32707     -37423.881     -48125.994     -2262.4253      0.22081637     68.75          0.0008832655 
    276000   431.10783     -37622.591     -48148.441     -2042.9138      0.19837136     69             0.00079348546
    277000   437.54753     -37400.607     -48083.687     -2363.3402      0.23072062     69.25          0.00092288249
    278000   431.32081     -37820.378     -48351.427     -2204.6935      0.22224057     69.5           0.00088896228
    279000   438.81937     -37343.22      -48057.353     -2416.1843      0.23657474     69.75          0.00094629895
    280000   438.00007     -37428.455     -48122.584     -2396.6095      0.23604391     70             0.00094417563
Loop time of 52.4087 on 56 procs for 10000 steps with 12288 atoms

Performance: 16.486 ns/day, 1.456 hours/ns, 190.808 timesteps/s, 2.345 Matom-step/s
99.8% CPU use with 56 MPI tasks x no OpenMP threads

MPI task timing breakdown:
Section |  min time  |  avg time  |  max time  |%varavg| %total
---------------------------------------------------------------
Pair    | 19.327     | 20.223     | 21.31      |  10.0 | 38.59
Bond    | 0.0016138  | 0.0030488  | 0.0047495  |   1.0 |  0.01
Kspace  | 14.937     | 16.055     | 16.906     |  11.4 | 30.63
Neigh   | 4.5462     | 4.5505     | 4.554      |   0.1 |  8.68
Comm    | 1.653      | 1.8268     | 2.0272     |   5.7 |  3.49
Output  | 0.023224   | 0.040345   | 0.056729   |   4.9 |  0.08
Modify  | 7.3316     | 8.056      | 9.4384     |  17.8 | 15.37
Other   |            | 1.654      |            |       |  3.16

Nlocal:        219.429 ave         244 max         204 min
Histogram: 2 4 16 8 14 2 4 3 2 1
Nghost:        6845.07 ave        6898 max        6767 min
Histogram: 1 0 2 6 11 9 9 7 4 7
Neighs:        96055.6 ave      108951 max       89290 min
Histogram: 6 7 15 13 3 3 3 5 0 1

Total # of neighbors = 5379112
Ave neighs/atom = 437.75326
Ave special neighs/atom = 2
Neighbor list builds = 384
Dangerous builds = 0
kspace_style pppm/tip4p 1.0e-5
next nloop
jump SELF loop_start
run 10000 # 10ps
PPPM initialization ...
  extracting TIP4P info from pair style
  using 12-bit tables for long-range coulomb
  G vector (1/distance) = 0.32815664
  grid = 50 50 50
  stencil order = 5
  estimated absolute RMS force accuracy = 0.0035802102
  estimated relative force accuracy = 1.0781697e-05
  using double precision KISS FFT
  3d grid and FFT values/proc = 11424 2800
Generated 0 of 1 mixed pair_coeff terms from geometric mixing rule
Per MPI rank memory allocation (min/avg/max) = 10.92 | 11.04 | 11.12 Mbytes
   Step          Temp          TotEng         PotEng          Pxy           v_sxy         v_strain     v_viscosity  
    280000   437.97633     -37428.79      -48122.339     -1867.607       0.18208881     70             0.00072835522
    281000   436.6931      -37421.91      -48084.128     -1925.1155      0.18863014     70.25          0.00075452057
    282000   440.67903     -37413.55      -48173.088     -2035.4685      0.19963258     70.5           0.00079853032
    283000   439.79395     -37450.785     -48188.713     -2364.9921      0.23336417     70.75          0.00093345669
    284000   429.78795     -37809.071     -48302.694     -2023.7032      0.19524711     71             0.00078098843
    285000   434.92099     -37785.413     -48404.363     -2425.625       0.24261268     71.25          0.00097045071
    286000   438.18551     -37422.621     -48121.277     -2071.5768      0.20460436     71.5           0.00081841745
    287000   426.78324     -37949.372     -48369.633     -1933.7611      0.1930837      71.75          0.00077233479
    288000   424.80425     -37945.201     -48317.143     -1702.5517      0.16622329     72             0.00066489318
    289000   429.13139     -37566.692     -48044.285     -2437.2591      0.23989631     72.25          0.00095958525
    290000   432.63309     -37499.344     -48062.433     -2434.1989      0.24310816     72.5           0.00097243264
Loop time of 44.7886 on 56 procs for 10000 steps with 12288 atoms

Performance: 19.291 ns/day, 1.244 hours/ns, 223.271 timesteps/s, 2.744 Matom-step/s
99.8% CPU use with 56 MPI tasks x no OpenMP threads

MPI task timing breakdown:
Section |  min time  |  avg time  |  max time  |%varavg| %total
---------------------------------------------------------------
Pair    | 18.634     | 19.952     | 20.803     |  11.0 | 44.55
Bond    | 0.001425   | 0.0026136  | 0.0040392  |   1.0 |  0.01
Kspace  | 10.87      | 11.742     | 13.041     |  14.3 | 26.22
Neigh   | 4.466      | 4.4695     | 4.4724     |   0.1 |  9.98
Comm    | 1.5378     | 1.6347     | 1.7711     |   4.2 |  3.65
Output  | 0.02284    | 0.040088   | 0.056636   |   5.0 |  0.09
Modify  | 5.1595     | 5.6715     | 6.6988     |  14.7 | 12.66
Other   |            | 1.276      |            |       |  2.85

Nlocal:        219.429 ave         250 max         188 min
Histogram: 1 0 3 9 14 16 8 3 1 1
Nghost:        7266.52 ave        7356 max        7145 min
Histogram: 1 0 5 5 8 14 6 7 6 4
Neighs:        96082.1 ave      112418 max       80215 min
Histogram: 1 0 3 10 16 15 7 3 0 1

Total # of neighbors = 5380597
Ave neighs/atom = 437.8741
Ave special neighs/atom = 2
Neighbor list builds = 381
Dangerous builds = 0
kspace_style pppm/tip4p 1.0e-5
next nloop
jump SELF loop_start
run 10000 # 10ps
PPPM initialization ...
  extracting TIP4P info from pair style
  using 12-bit tables for long-range coulomb
  G vector (1/distance) = 0.32815664
  grid = 50 75 50
  stencil order = 5
  estimated absolute RMS force accuracy = 0.0035802102
  estimated relative force accuracy = 1.0781697e-05
  using double precision KISS FFT
  3d grid and FFT values/proc = 15776 4000
Generated 0 of 1 mixed pair_coeff terms from geometric mixing rule
Per MPI rank memory allocation (min/avg/max) = 11.21 | 11.35 | 11.45 Mbytes
   Step          Temp          TotEng         PotEng          Pxy           v_sxy         v_strain     v_viscosity  
    290000   432.63542     -37497.132     -48060.279     -1959.4241      0.19476476     72.5           0.00077905903
    291000   429.31615     -37716.878     -48198.982     -2137.9066      0.20903983     72.75          0.0008361593 
    292000   427.76041     -37697.117     -48141.236     -2070.3598      0.20289497     73             0.00081157989
    293000   427.72065     -37883.556     -48326.704     -2391.6413      0.2379412      73.25          0.00095176481
    294000   434.79709     -37711.791     -48327.717     -2459.9441      0.24580762     73.5           0.00098323048
    295000   432.37215     -37571.049     -48127.768     -2172.7135      0.21203065     73.75          0.0008481226 
    296000   433.62285     -37550.29      -48137.545     -1833.568       0.18155849     74             0.00072623398
    297000   429.52561     -37747.906     -48235.124     -1974.9454      0.19417329     74.25          0.00077669316
    298000   429.99641     -37733.958     -48232.671     -1908.8523      0.18637514     74.5           0.00074550056
    299000   433.27305     -37574.957     -48153.672     -2116.6947      0.21205402     74.75          0.00084821607
    300000   431.96896     -37571.57      -48118.445     -2155.9617      0.21313517     75             0.00085254067
Loop time of 52.487 on 56 procs for 10000 steps with 12288 atoms

Performance: 16.461 ns/day, 1.458 hours/ns, 190.523 timesteps/s, 2.341 Matom-step/s
99.8% CPU use with 56 MPI tasks x no OpenMP threads

MPI task timing breakdown:
Section |  min time  |  avg time  |  max time  |%varavg| %total
---------------------------------------------------------------
Pair    | 19.125     | 20.216     | 21.003     |   9.9 | 38.52
Bond    | 0.0015875  | 0.0030636  | 0.004904   |   1.0 |  0.01
Kspace  | 15.339     | 16.189     | 17.255     |  11.1 | 30.84
Neigh   | 4.5186     | 4.5227     | 4.5253     |   0.1 |  8.62
Comm    | 1.66       | 1.8256     | 2.0214     |   5.3 |  3.48
Output  | 0.022652   | 0.039597   | 0.055875   |   4.9 |  0.08
Modify  | 7.3311     | 8.0525     | 9.4359     |  17.9 | 15.34
Other   |            | 1.639      |            |       |  3.12

Nlocal:        219.429 ave         247 max         203 min
Histogram: 8 5 12 6 6 9 8 1 0 1
Nghost:        6828.34 ave        6930 max        6759 min
Histogram: 3 6 10 11 7 10 6 0 1 2
Neighs:        96058.9 ave      109063 max       88539 min
Histogram: 9 5 10 7 8 8 6 1 1 1

Total # of neighbors = 5379300
Ave neighs/atom = 437.76855
Ave special neighs/atom = 2
Neighbor list builds = 380
Dangerous builds = 0
kspace_style pppm/tip4p 1.0e-5
next nloop
jump SELF loop_start
run 10000 # 10ps
PPPM initialization ...
  extracting TIP4P info from pair style
  using 12-bit tables for long-range coulomb
  G vector (1/distance) = 0.32815664
  grid = 50 50 50
  stencil order = 5
  estimated absolute RMS force accuracy = 0.0035802102
  estimated relative force accuracy = 1.0781697e-05
  using double precision KISS FFT
  3d grid and FFT values/proc = 11424 2800
Generated 0 of 1 mixed pair_coeff terms from geometric mixing rule
Per MPI rank memory allocation (min/avg/max) = 10.92 | 11.04 | 11.12 Mbytes
   Step          Temp          TotEng         PotEng          Pxy           v_sxy         v_strain     v_viscosity  
    300000   432.06271     -37568.905     -48118.069     -1571.7669      0.15287179     75             0.00061148715
    301000   432.75519     -37548.79      -48114.86      -2320.5329      0.22616683     75.25          0.00090466731
    302000   435.87269     -37655.772     -48297.959     -2198.9432      0.21110003     75.5           0.0008444001 
    303000   434.54171     -37569.023     -48178.713     -1889.7922      0.18799151     75.75          0.00075196606
    304000   432.53489     -37639.833     -48200.525     -2209.5132      0.21938252     76             0.0008775301 
    305000   426.21908     -37793.278     -48199.764     -2533.3024      0.24884434     76.25          0.00099537735
    306000   425.54776     -37815.459     -48205.554     -1794.9694      0.17620232     76.5           0.00070480929
    307000   434.05287     -37592.82      -48190.574     -2073.1908      0.19692518     76.75          0.00078770074
    308000   427.16536     -37786.638     -48216.229     -2077.2681      0.20248808     77             0.00080995232
    309000   433.91988     -37560.189     -48154.696     -2248.7797      0.22098536     77.25          0.00088394144
    310000   431.46038     -37654.195     -48188.652     -2472.5449      0.23465893     77.5           0.00093863572
Loop time of 45.2154 on 56 procs for 10000 steps with 12288 atoms

Performance: 19.109 ns/day, 1.256 hours/ns, 221.163 timesteps/s, 2.718 Matom-step/s
99.7% CPU use with 56 MPI tasks x no OpenMP threads

MPI task timing breakdown:
Section |  min time  |  avg time  |  max time  |%varavg| %total
---------------------------------------------------------------
Pair    | 18.822     | 19.963     | 20.996     |  11.7 | 44.15
Bond    | 0.0014311  | 0.002577   | 0.0039074  |   0.9 |  0.01
Kspace  | 11.028     | 12.065     | 13.193     |  15.2 | 26.68
Neigh   | 4.5314     | 4.5345     | 4.5367     |   0.1 | 10.03
Comm    | 1.5471     | 1.6365     | 1.7904     |   4.1 |  3.62
Output  | 0.023064   | 0.040293   | 0.056782   |   5.0 |  0.09
Modify  | 5.161      | 5.6766     | 6.7118     |  14.8 | 12.55
Other   |            | 1.296      |            |       |  2.87

Nlocal:        219.429 ave         245 max         198 min
Histogram: 1 4 8 6 16 13 3 1 1 3
Nghost:        7268.52 ave        7330 max        7178 min
Histogram: 2 2 4 4 3 15 4 8 10 4
Neighs:        96077.7 ave      108171 max       86201 min
Histogram: 1 5 8 7 13 15 2 2 0 3

Total # of neighbors = 5380351
Ave neighs/atom = 437.85409
Ave special neighs/atom = 2
Neighbor list builds = 383
Dangerous builds = 0
kspace_style pppm/tip4p 1.0e-5
next nloop
jump SELF loop_start
run 10000 # 10ps
PPPM initialization ...
  extracting TIP4P info from pair style
  using 12-bit tables for long-range coulomb
  G vector (1/distance) = 0.32815664
  grid = 50 75 50
  stencil order = 5
  estimated absolute RMS force accuracy = 0.0035802102
  estimated relative force accuracy = 1.0781697e-05
  using double precision KISS FFT
  3d grid and FFT values/proc = 15776 4000
Generated 0 of 1 mixed pair_coeff terms from geometric mixing rule
Per MPI rank memory allocation (min/avg/max) = 11.21 | 11.35 | 11.45 Mbytes
   Step          Temp          TotEng         PotEng          Pxy           v_sxy         v_strain     v_viscosity  
    310000   431.3348      -37656.886     -48188.276     -1933.8901      0.17942997     77.5           0.00071771989
    311000   431.78164     -37712.842     -48255.143     -1953.9225      0.19700763     77.75          0.00078803053
    312000   434.69928     -37415.541     -48029.078     -2352.1734      0.2288196      78             0.0009152784 
    313000   429.56533     -37800.256     -48288.444     -1933.7549      0.19403177     78.25          0.00077612709
    314000   431.6804      -37579.273     -48119.101     -2247.811       0.22282871     78.5           0.00089131482
    315000   431.63028     -37643.877     -48182.482     -2244.2787      0.21609465     78.75          0.00086437859
    316000   428.38997     -37813.019     -48272.51      -2098.543       0.20186461     79             0.00080745845
    317000   433.23041     -37557.028     -48134.702     -2040.0198      0.20445178     79.25          0.00081780712
    318000   432.57961     -37588.078     -48149.862     -2026.7487      0.20283547     79.5           0.00081134186
    319000   434.31124     -37627.743     -48231.806     -1915.3896      0.18467641     79.75          0.00073870565
    320000   436.49637     -37463.199     -48120.613     -2427.4579      0.23639746     80             0.00094558984
Loop time of 52.4526 on 56 procs for 10000 steps with 12288 atoms

Performance: 16.472 ns/day, 1.457 hours/ns, 190.648 timesteps/s, 2.343 Matom-step/s
99.8% CPU use with 56 MPI tasks x no OpenMP threads

MPI task timing breakdown:
Section |  min time  |  avg time  |  max time  |%varavg| %total
---------------------------------------------------------------
Pair    | 19.144     | 20.188     | 21.149     |  11.1 | 38.49
Bond    | 0.0014962  | 0.0030586  | 0.0045943  |   1.1 |  0.01
Kspace  | 15.156     | 16.181     | 17.087     |  12.2 | 30.85
Neigh   | 4.5211     | 4.5247     | 4.5272     |   0.1 |  8.63
Comm    | 1.6712     | 1.8299     | 2.0295     |   5.8 |  3.49
Output  | 0.023094   | 0.040179   | 0.056573   |   5.0 |  0.08
Modify  | 7.3193     | 8.0542     | 9.418      |  17.8 | 15.36
Other   |            | 1.632      |            |       |  3.11

Nlocal:        219.429 ave         240 max         190 min
Histogram: 1 0 3 3 7 16 11 8 3 4
Nghost:        6860.14 ave        6924 max        6769 min
Histogram: 2 0 0 7 11 9 10 8 6 3
Neighs:        96034.1 ave      106355 max       81743 min
Histogram: 1 0 3 4 9 13 13 8 3 2

Total # of neighbors = 5377910
Ave neighs/atom = 437.65544
Ave special neighs/atom = 2
Neighbor list builds = 384
Dangerous builds = 0
kspace_style pppm/tip4p 1.0e-5
next nloop
jump SELF loop_start
run 10000 # 10ps
PPPM initialization ...
  extracting TIP4P info from pair style
  using 12-bit tables for long-range coulomb
  G vector (1/distance) = 0.32815664
  grid = 50 50 50
  stencil order = 5
  estimated absolute RMS force accuracy = 0.0035802102
  estimated relative force accuracy = 1.0781697e-05
  using double precision KISS FFT
  3d grid and FFT values/proc = 11424 2800
Generated 0 of 1 mixed pair_coeff terms from geometric mixing rule
Per MPI rank memory allocation (min/avg/max) = 10.92 | 11.04 | 11.12 Mbytes
   Step          Temp          TotEng         PotEng          Pxy           v_sxy         v_strain     v_viscosity  
    320000   436.68701     -37457.695     -48119.765     -1917.3917      0.18392447     80             0.00073569786
    321000   432.66294     -37591.112     -48154.93      -2196.3761      0.21590476     80.25          0.00086361902
    322000   430.66172     -37497.555     -48012.512     -2413.839       0.23522593     80.5           0.00094090371
    323000   433.77614     -37606.134     -48197.132     -2278.1623      0.22568995     80.75          0.0009027598 
    324000   431.85475     -37748.452     -48292.537     -2062.5901      0.20206144     81             0.00080824574
    325000   432.13961     -37601.885     -48152.926     -2044.6672      0.20279425     81.25          0.00081117701
    326000   433.28426     -37600.923     -48179.912     -2310.2131      0.23075375     81.5           0.00092301502
    327000   432.55713     -37424.008     -47985.243     -2349.1997      0.23164348     81.75          0.0009265739 
    328000   436.02022     -37517.768     -48163.558     -1746.0435      0.17182243     82             0.0006872897 
    329000   433.41055     -37678.883     -48260.955     -1998.6486      0.1968657      82.25          0.00078746279
    330000   437.39161     -37595.138     -48274.411     -1955.6892      0.19056166     82.5           0.00076224665
Loop time of 44.9746 on 56 procs for 10000 steps with 12288 atoms

Performance: 19.211 ns/day, 1.249 hours/ns, 222.348 timesteps/s, 2.732 Matom-step/s
99.8% CPU use with 56 MPI tasks x no OpenMP threads

MPI task timing breakdown:
Section |  min time  |  avg time  |  max time  |%varavg| %total
---------------------------------------------------------------
Pair    | 18.852     | 19.95      | 20.927     |  11.0 | 44.36
Bond    | 0.0014434  | 0.0026052  | 0.0040354  |   1.0 |  0.01
Kspace  | 10.903     | 11.921     | 13.005     |  14.2 | 26.51
Neigh   | 4.4895     | 4.4926     | 4.4952     |   0.1 |  9.99
Comm    | 1.5404     | 1.6382     | 1.7596     |   4.3 |  3.64
Output  | 0.022705   | 0.039885   | 0.056387   |   5.0 |  0.09
Modify  | 5.1432     | 5.6701     | 6.6873     |  14.6 | 12.61
Other   |            | 1.261      |            |       |  2.80

Nlocal:        219.429 ave         238 max         199 min
Histogram: 1 1 4 9 10 13 10 4 2 2
Nghost:        7252.75 ave        7320 max        7181 min
Histogram: 5 3 4 7 5 8 11 6 4 3
Neighs:        96065.6 ave      105565 max       86714 min
Histogram: 1 0 8 11 9 12 4 7 2 2

Total # of neighbors = 5379671
Ave neighs/atom = 437.79875
Ave special neighs/atom = 2
Neighbor list builds = 380
Dangerous builds = 0
kspace_style pppm/tip4p 1.0e-5
next nloop
jump SELF loop_start
run 10000 # 10ps
PPPM initialization ...
  extracting TIP4P info from pair style
  using 12-bit tables for long-range coulomb
  G vector (1/distance) = 0.32815664
  grid = 50 75 50
  stencil order = 5
  estimated absolute RMS force accuracy = 0.0035802102
  estimated relative force accuracy = 1.0781697e-05
  using double precision KISS FFT
  3d grid and FFT values/proc = 15776 4000
Generated 0 of 1 mixed pair_coeff terms from geometric mixing rule
Per MPI rank memory allocation (min/avg/max) = 11.21 | 11.35 | 11.45 Mbytes
   Step          Temp          TotEng         PotEng          Pxy           v_sxy         v_strain     v_viscosity  
    330000   437.60056     -37591.3       -48275.674     -1439.1884      0.13779807     82.5           0.00055119229
    331000   428.22343     -37848.5       -48303.924     -2259.248       0.22186024     82.75          0.00088744095
    332000   433.75833     -37371.429     -47961.992     -2198.7255      0.214212       83             0.00085684802
    333000   431.96905     -37710.76      -48257.637     -2182.1882      0.21289128     83.25          0.00085156512
    334000   429.3358      -37623.407     -48105.99      -2122.0827      0.20776272     83.5           0.00083105087
    335000   433.01912     -37649.746     -48222.261     -2039.5855      0.20466622     83.75          0.0008186649 
    336000   430.93535     -37676.637     -48198.275     -2144.1292      0.20667535     84             0.0008267014 
    337000   435.15101     -37507.302     -48131.869     -2057.7917      0.20717079     84.25          0.00082868317
    338000   433.59924     -37645.337     -48232.016     -2083.5592      0.19961651     84.5           0.00079846606
    339000   435.60352     -37608.816     -48244.431     -2333.5452      0.23153445     84.75          0.0009261378 
    340000   431.59545     -37771.814     -48309.569     -2297.6658      0.22725547     85             0.0009090219 
Loop time of 52.4985 on 56 procs for 10000 steps with 12288 atoms

Performance: 16.458 ns/day, 1.458 hours/ns, 190.482 timesteps/s, 2.341 Matom-step/s
99.8% CPU use with 56 MPI tasks x no OpenMP threads

MPI task timing breakdown:
Section |  min time  |  avg time  |  max time  |%varavg| %total
---------------------------------------------------------------
Pair    | 18.679     | 20.215     | 21.606     |  11.4 | 38.51
Bond    | 0.0015524  | 0.0030455  | 0.0047242  |   1.1 |  0.01
Kspace  | 14.885     | 16.152     | 17.587     |  12.2 | 30.77
Neigh   | 4.5144     | 4.5181     | 4.5208     |   0.1 |  8.61
Comm    | 1.7126     | 1.8617     | 2.0992     |   6.3 |  3.55
Output  | 0.022617   | 0.039683   | 0.056058   |   5.0 |  0.08
Modify  | 7.3461     | 8.0692     | 9.5039     |  17.9 | 15.37
Other   |            | 1.641      |            |       |  3.13

Nlocal:        219.429 ave         235 max         200 min
Histogram: 3 0 3 3 13 13 3 10 5 3
Nghost:        6849.39 ave        6912 max        6796 min
Histogram: 4 7 4 10 7 4 11 5 3 1
Neighs:        96088.1 ave      105396 max       86130 min
Histogram: 2 1 3 6 17 6 10 7 3 1

Total # of neighbors = 5380932
Ave neighs/atom = 437.90137
Ave special neighs/atom = 2
Neighbor list builds = 384
Dangerous builds = 0
kspace_style pppm/tip4p 1.0e-5
next nloop
jump SELF loop_start
run 10000 # 10ps
PPPM initialization ...
  extracting TIP4P info from pair style
  using 12-bit tables for long-range coulomb
  G vector (1/distance) = 0.32815664
  grid = 50 50 50
  stencil order = 5
  estimated absolute RMS force accuracy = 0.0035802102
  estimated relative force accuracy = 1.0781697e-05
  using double precision KISS FFT
  3d grid and FFT values/proc = 11424 2800
Generated 0 of 1 mixed pair_coeff terms from geometric mixing rule
Per MPI rank memory allocation (min/avg/max) = 10.92 | 11.04 | 11.12 Mbytes
   Step          Temp          TotEng         PotEng          Pxy           v_sxy         v_strain     v_viscosity  
    340000   431.58319     -37771.416     -48308.872     -1777.0303      0.17375204     85             0.00069500817
    341000   434.30791     -37432.932     -48036.914     -2191.868       0.21988815     85.25          0.00087955262
    342000   424.43734     -37833.724     -48196.708     -1941.0644      0.18996333     85.5           0.00075985333
    343000   436.15726     -37453.347     -48102.482     -2314.0153      0.23327407     85.75          0.00093309627
    344000   435.07564     -37645.502     -48268.229     -2237.9144      0.21349626     86             0.00085398504
    345000   436.69668     -37559.322     -48221.628     -2040.0304      0.20574662     86.25          0.00082298649
    346000   435.73587     -37467.036     -48105.882     -2177.478       0.21308301     86.5           0.00085233205
    347000   435.04009     -37597.468     -48219.326     -1863.0259      0.18161667     86.75          0.00072646669
    348000   438.6001      -37488.014     -48196.793     -2072.0308      0.20557216     87             0.00082228862
    349000   436.68676     -37805.523     -48467.586     -2189.0968      0.21053747     87.25          0.00084214988
    350000   434.85945     -37550.693     -48168.141     -1934.6105      0.19062428     87.5           0.00076249711
Loop time of 44.7794 on 56 procs for 10000 steps with 12288 atoms

Performance: 19.295 ns/day, 1.244 hours/ns, 223.317 timesteps/s, 2.744 Matom-step/s
99.8% CPU use with 56 MPI tasks x no OpenMP threads

MPI task timing breakdown:
Section |  min time  |  avg time  |  max time  |%varavg| %total
---------------------------------------------------------------
Pair    | 18.764     | 19.91      | 20.669     |   9.3 | 44.46
Bond    | 0.0012474  | 0.0025926  | 0.0038889  |   1.1 |  0.01
Kspace  | 10.979     | 11.741     | 12.928     |  12.0 | 26.22
Neigh   | 4.5174     | 4.5207     | 4.5236     |   0.1 | 10.10
Comm    | 1.5299     | 1.6381     | 1.7788     |   4.0 |  3.66
Output  | 0.022946   | 0.040111   | 0.056529   |   5.0 |  0.09
Modify  | 5.1423     | 5.6698     | 6.6835     |  14.6 | 12.66
Other   |            | 1.257      |            |       |  2.81

Nlocal:        219.429 ave         234 max         202 min
Histogram: 2 2 3 6 6 18 6 4 7 2
Nghost:        7289.96 ave        7364 max        7214 min
Histogram: 6 0 9 5 11 2 5 8 5 5
Neighs:        96060.6 ave      103724 max       87496 min
Histogram: 2 1 3 8 10 12 9 5 5 1

Total # of neighbors = 5379392
Ave neighs/atom = 437.77604
Ave special neighs/atom = 2
Neighbor list builds = 384
Dangerous builds = 0
kspace_style pppm/tip4p 1.0e-5
next nloop
jump SELF loop_start
run 10000 # 10ps
PPPM initialization ...
  extracting TIP4P info from pair style
  using 12-bit tables for long-range coulomb
  G vector (1/distance) = 0.32815664
  grid = 50 75 50
  stencil order = 5
  estimated absolute RMS force accuracy = 0.0035802102
  estimated relative force accuracy = 1.0781697e-05
  using double precision KISS FFT
  3d grid and FFT values/proc = 15776 4000
Generated 0 of 1 mixed pair_coeff terms from geometric mixing rule
Per MPI rank memory allocation (min/avg/max) = 11.21 | 11.35 | 11.45 Mbytes
   Step          Temp          TotEng         PotEng          Pxy           v_sxy         v_strain     v_viscosity  
    350000   434.6978      -37555.557     -48169.058     -1450.1646      0.14067525     87.5           0.000562701  
    351000   432.06502     -37509.518     -48058.737     -2456.6596      0.23817113     87.75          0.00095268452
    352000   433.31889     -37506.654     -48086.488     -2097.7667      0.20748492     88             0.00082993968
    353000   429.46947     -37613.211     -48099.058     -2162.7614      0.20871633     88.25          0.0008348653 
    354000   429.86167     -37585.538     -48080.962     -2109.0663      0.20537856     88.5           0.00082151424
    355000   432.4695      -37789.145     -48348.24      -1842.7471      0.18387107     88.75          0.00073548429
    356000   439.35541     -37367.187     -48094.408     -2296.8587      0.22288786     89             0.00089155145
    357000   431.53233     -37766.815     -48303.029     -2462.1401      0.24305809     89.25          0.00097223235
    358000   435.02532     -37532.58      -48154.078     -2147.4376      0.2117191      89.5           0.00084687638
    359000   431.87032     -37629.231     -48173.697     -2248.5627      0.22190332     89.75          0.0008876133 
    360000   433.14203     -37548.538     -48124.053     -2093.7284      0.2082607      90             0.00083304279
Loop time of 52.4568 on 56 procs for 10000 steps with 12288 atoms

Performance: 16.471 ns/day, 1.457 hours/ns, 190.633 timesteps/s, 2.342 Matom-step/s
99.8% CPU use with 56 MPI tasks x no OpenMP threads

MPI task timing breakdown:
Section |  min time  |  avg time  |  max time  |%varavg| %total
---------------------------------------------------------------
Pair    | 19.073     | 20.174     | 21.614     |  12.5 | 38.46
Bond    | 0.0015311  | 0.00304    | 0.004456   |   1.1 |  0.01
Kspace  | 14.743     | 16.223     | 17.39      |  13.8 | 30.93
Neigh   | 4.518      | 4.5218     | 4.5247     |   0.1 |  8.62
Comm    | 1.6553     | 1.8178     | 2.0054     |   5.5 |  3.47
Output  | 0.023379   | 0.040473   | 0.056844   |   4.9 |  0.08
Modify  | 7.3332     | 8.051      | 9.4243     |  17.7 | 15.35
Other   |            | 1.625      |            |       |  3.10

Nlocal:        219.429 ave         238 max         194 min
Histogram: 1 0 6 5 10 5 11 8 6 4
Nghost:        6837.79 ave        6922 max        6776 min
Histogram: 3 5 8 7 15 8 3 6 0 1
Neighs:        96097.3 ave      106200 max       83895 min
Histogram: 1 0 5 9 8 11 7 7 6 2

Total # of neighbors = 5381447
Ave neighs/atom = 437.94328
Ave special neighs/atom = 2
Neighbor list builds = 380
Dangerous builds = 0
kspace_style pppm/tip4p 1.0e-5
next nloop
jump SELF loop_start
run 10000 # 10ps
PPPM initialization ...
  extracting TIP4P info from pair style
  using 12-bit tables for long-range coulomb
  G vector (1/distance) = 0.32815664
  grid = 50 50 50
  stencil order = 5
  estimated absolute RMS force accuracy = 0.0035802102
  estimated relative force accuracy = 1.0781697e-05
  using double precision KISS FFT
  3d grid and FFT values/proc = 11424 2800
Generated 0 of 1 mixed pair_coeff terms from geometric mixing rule
Per MPI rank memory allocation (min/avg/max) = 10.92 | 11.04 | 11.12 Mbytes
   Step          Temp          TotEng         PotEng          Pxy           v_sxy         v_strain     v_viscosity  
    360000   433.00843     -37551.238     -48123.491     -1553.387       0.15302363     90             0.0006120945 
    361000   436.45003     -37524.482     -48180.765     -2420.7753      0.24218609     90.25          0.00096874437
    362000   433.03909     -37730.842     -48303.844     -2066.3597      0.19737943     90.5           0.00078951774
    363000   424.89142     -37753.724     -48127.795     -2033.1008      0.20065679     90.75          0.00080262714
    364000   435.3435      -37385.251     -48014.518     -1837.8791      0.18635359     91             0.00074541436
    365000   430.28652     -37824.153     -48329.949     -2116.4292      0.21164097     91.25          0.0008465639 
    366000   429.55778     -37728.994     -48216.997     -2337.2625      0.22352316     91.5           0.00089409264
    367000   430.54862     -37725.117     -48237.313     -2290.5751      0.22578452     91.75          0.00090313809
    368000   432.14577     -37648.946     -48200.137     -2217.1273      0.21517199     92             0.00086068794
    369000   439.52439     -37279.222     -48010.568     -2156.2439      0.21435966     92.25          0.00085743865
    370000   431.87333     -37619.195     -48163.734     -2298.8686      0.22693851     92.5           0.00090775406
Loop time of 44.9226 on 56 procs for 10000 steps with 12288 atoms

Performance: 19.233 ns/day, 1.248 hours/ns, 222.605 timesteps/s, 2.735 Matom-step/s
99.8% CPU use with 56 MPI tasks x no OpenMP threads

MPI task timing breakdown:
Section |  min time  |  avg time  |  max time  |%varavg| %total
---------------------------------------------------------------
Pair    | 18.603     | 19.902     | 20.969     |  12.4 | 44.30
Bond    | 0.0012218  | 0.0025764  | 0.0041029  |   1.1 |  0.01
Kspace  | 10.763     | 11.886     | 13.257     |  16.2 | 26.46
Neigh   | 4.5075     | 4.511      | 4.514      |   0.1 | 10.04
Comm    | 1.5455     | 1.6373     | 1.747      |   3.9 |  3.64
Output  | 0.022761   | 0.040039   | 0.056611   |   5.0 |  0.09
Modify  | 5.1607     | 5.6668     | 6.7016     |  14.7 | 12.61
Other   |            | 1.277      |            |       |  2.84

Nlocal:        219.429 ave         241 max         200 min
Histogram: 1 4 6 9 11 11 6 5 2 1
Nghost:        7274.75 ave        7359 max        7180 min
Histogram: 1 3 7 5 10 11 3 10 3 3
Neighs:        96057.4 ave      107154 max       85967 min
Histogram: 1 1 8 10 11 11 7 5 1 1

Total # of neighbors = 5379217
Ave neighs/atom = 437.7618
Ave special neighs/atom = 2
Neighbor list builds = 381
Dangerous builds = 0
kspace_style pppm/tip4p 1.0e-5
next nloop
jump SELF loop_start
run 10000 # 10ps
PPPM initialization ...
  extracting TIP4P info from pair style
  using 12-bit tables for long-range coulomb
  G vector (1/distance) = 0.32815664
  grid = 50 75 50
  stencil order = 5
  estimated absolute RMS force accuracy = 0.0035802102
  estimated relative force accuracy = 1.0781697e-05
  using double precision KISS FFT
  3d grid and FFT values/proc = 15776 4000
Generated 0 of 1 mixed pair_coeff terms from geometric mixing rule
Per MPI rank memory allocation (min/avg/max) = 11.21 | 11.35 | 11.45 Mbytes
   Step          Temp          TotEng         PotEng          Pxy           v_sxy         v_strain     v_viscosity  
    370000   431.89423     -37616.357     -48161.407     -1774.8263      0.17356191     92.5           0.00069424763
    371000   428.47373     -37565.085     -48026.621     -2242.7016      0.2199323      92.75          0.0008797292 
    372000   430.99674     -37629.298     -48152.435     -2417.8426      0.23991898     93             0.00095967593
    373000   435.91375     -37585.994     -48229.184     -2278.5441      0.22452235     93.25          0.00089808941
    374000   433.49234     -37638.231     -48222.3       -1926.7051      0.19228082     93.5           0.00076912326
    375000   433.45346     -37626.465     -48209.585     -2288.1403      0.22965458     93.75          0.00091861832
    376000   434.96595     -37544.428     -48164.476     -2270.3423      0.22241855     94             0.00088967419
    377000   436.65844     -37399.966     -48061.338     -2225.342       0.21648629     94.25          0.00086594518
    378000   431.05145     -37510.52      -48034.992     -2110.4733      0.20753078     94.5           0.00083012312
    379000   431.58788     -37802.879     -48340.449     -2279.5019      0.21806178     94.75          0.00087224714
    380000   433.41408     -37612.946     -48195.104     -2162.453       0.21225877     95             0.00084903508
Loop time of 52.413 on 56 procs for 10000 steps with 12288 atoms

Performance: 16.484 ns/day, 1.456 hours/ns, 190.793 timesteps/s, 2.344 Matom-step/s
99.8% CPU use with 56 MPI tasks x no OpenMP threads

MPI task timing breakdown:
Section |  min time  |  avg time  |  max time  |%varavg| %total
---------------------------------------------------------------
Pair    | 19.175     | 20.181     | 21.235     |  11.8 | 38.50
Bond    | 0.0015673  | 0.003033   | 0.0046114  |   1.1 |  0.01
Kspace  | 15.024     | 16.138     | 17.279     |  13.9 | 30.79
Neigh   | 4.5196     | 4.5233     | 4.5259     |   0.1 |  8.63
Comm    | 1.6562     | 1.8126     | 1.9926     |   5.7 |  3.46
Output  | 0.022618   | 0.039586   | 0.055951   |   5.0 |  0.08
Modify  | 7.3427     | 8.0615     | 9.4497     |  17.8 | 15.38
Other   |            | 1.654      |            |       |  3.16

Nlocal:        219.429 ave         236 max         188 min
Histogram: 1 0 2 3 4 9 12 13 7 5
Nghost:        6849.89 ave        6954 max        6744 min
Histogram: 3 5 7 6 8 3 11 3 6 4
Neighs:        96072.7 ave      104675 max       79809 min
Histogram: 1 0 2 3 6 7 13 13 5 6

Total # of neighbors = 5380071
Ave neighs/atom = 437.8313
Ave special neighs/atom = 2
Neighbor list builds = 382
Dangerous builds = 0
kspace_style pppm/tip4p 1.0e-5
next nloop
jump SELF loop_start
run 10000 # 10ps
PPPM initialization ...
  extracting TIP4P info from pair style
  using 12-bit tables for long-range coulomb
  G vector (1/distance) = 0.32815664
  grid = 50 50 50
  stencil order = 5
  estimated absolute RMS force accuracy = 0.0035802102
  estimated relative force accuracy = 1.0781697e-05
  using double precision KISS FFT
  3d grid and FFT values/proc = 11424 2800
Generated 0 of 1 mixed pair_coeff terms from geometric mixing rule
Per MPI rank memory allocation (min/avg/max) = 10.92 | 11.04 | 11.12 Mbytes
   Step          Temp          TotEng         PotEng          Pxy           v_sxy         v_strain     v_viscosity  
    380000   433.4471      -37611.295     -48194.259     -1552.4345      0.1503263      95             0.0006013052 
    381000   432.40698     -37748.773     -48306.342     -2203.8218      0.21470029     95.25          0.00085880117
    382000   433.86311     -37847.263     -48440.384     -1991.3116      0.20279034     95.5           0.00081116137
    383000   429.4285      -37801.675     -48286.522     -2174.7098      0.20990936     95.75          0.00083963745
    384000   436.09072     -37676.486     -48323.996     -2275.2076      0.22611618     96             0.00090446471
    385000   431.77239     -37568.462     -48110.537     -2102.0872      0.2068924      96.25          0.00082756958
    386000   430.14906     -37620.921     -48123.361     -2274.5209      0.22565765     96.5           0.00090263061
    387000   429.15546     -37741.476     -48219.656     -2045.9511      0.20368091     96.75          0.00081472365
    388000   437.07662     -37482.944     -48154.526     -1773.6509      0.17477861     97             0.00069911446
    389000   433.86197     -37652.568     -48245.662     -2048.4274      0.1977181      97.25          0.00079087238
    390000   435.82316     -37545.003     -48185.981     -2245.6789      0.22496499     97.5           0.00089985997
Loop time of 45.086 on 56 procs for 10000 steps with 12288 atoms

Performance: 19.163 ns/day, 1.252 hours/ns, 221.798 timesteps/s, 2.725 Matom-step/s
99.8% CPU use with 56 MPI tasks x no OpenMP threads

MPI task timing breakdown:
Section |  min time  |  avg time  |  max time  |%varavg| %total
---------------------------------------------------------------
Pair    | 18.524     | 19.886     | 21.288     |  11.7 | 44.11
Bond    | 0.0012714  | 0.0025706  | 0.0040104  |   1.0 |  0.01
Kspace  | 10.671     | 12.032     | 13.321     |  14.9 | 26.69
Neigh   | 4.5436     | 4.5469     | 4.5495     |   0.1 | 10.08
Comm    | 1.5364     | 1.6383     | 1.76       |   4.5 |  3.63
Output  | 0.022938   | 0.040129   | 0.056642   |   5.0 |  0.09
Modify  | 5.1457     | 5.6698     | 6.6825     |  14.5 | 12.58
Other   |            | 1.27       |            |       |  2.82

Nlocal:        219.429 ave         236 max         200 min
Histogram: 1 4 0 7 10 13 10 3 6 2
Nghost:        7262.21 ave        7357 max        7172 min
Histogram: 1 1 8 11 10 10 7 2 5 1
Neighs:        96049.2 ave      103245 max       86621 min
Histogram: 2 3 0 5 13 9 9 4 7 4

Total # of neighbors = 5378758
Ave neighs/atom = 437.72445
Ave special neighs/atom = 2
Neighbor list builds = 380
Dangerous builds = 0
kspace_style pppm/tip4p 1.0e-5
next nloop
jump SELF loop_start
run 10000 # 10ps
PPPM initialization ...
  extracting TIP4P info from pair style
  using 12-bit tables for long-range coulomb
  G vector (1/distance) = 0.32815664
  grid = 50 75 50
  stencil order = 5
  estimated absolute RMS force accuracy = 0.0035802102
  estimated relative force accuracy = 1.0781697e-05
  using double precision KISS FFT
  3d grid and FFT values/proc = 15776 4000
Generated 0 of 1 mixed pair_coeff terms from geometric mixing rule
Per MPI rank memory allocation (min/avg/max) = 11.21 | 11.35 | 11.45 Mbytes
   Step          Temp          TotEng         PotEng          Pxy           v_sxy         v_strain     v_viscosity  
    390000   435.85734     -37542.518     -48184.33      -1844.3329      0.18380333     97.5           0.00073521331
    391000   433.58226     -37682.447     -48268.712     -2032.1209      0.20137662     97.75          0.00080550648
    392000   437.13161     -37560.381     -48233.305     -2047.5797      0.20174198     98             0.00080696793
    393000   432.49172     -37547.402     -48107.04      -2325.0309      0.22322603     98.25          0.00089290411
    394000   426.48968     -37852.37      -48265.464     -2511.6674      0.25014965     98.5           0.0010005986 
    395000   432.84648     -37696.964     -48265.264     -2254.206       0.22446464     98.75          0.00089785855
    396000   428.89564     -37642.696     -48114.532     -2279.9225      0.22240524     99             0.00088962097
    397000   431.46677     -37781.487     -48316.1       -1963.2307      0.19697997     99.25          0.00078791989
    398000   433.54896     -37698.048     -48283.499     -2153.99        0.21108945     99.5           0.00084435779
    399000   433.56501     -37581.508     -48167.351     -2049.59        0.20434051     99.75          0.00081736205
    400000   430.27093     -37639.054     -48144.47      -1908.7381      0.18365871     100            0.00073463484
Loop time of 52.4244 on 56 procs for 10000 steps with 12288 atoms

Performance: 16.481 ns/day, 1.456 hours/ns, 190.751 timesteps/s, 2.344 Matom-step/s
99.8% CPU use with 56 MPI tasks x no OpenMP threads

MPI task timing breakdown:
Section |  min time  |  avg time  |  max time  |%varavg| %total
---------------------------------------------------------------
Pair    | 19.096     | 20.176     | 21.13      |  11.7 | 38.48
Bond    | 0.0015261  | 0.002992   | 0.0044309  |   1.1 |  0.01
Kspace  | 15.218     | 16.17      | 17.271     |  12.7 | 30.85
Neigh   | 4.5191     | 4.5231     | 4.5262     |   0.1 |  8.63
Comm    | 1.6744     | 1.8198     | 2.0252     |   5.8 |  3.47
Output  | 0.023168   | 0.040292   | 0.056758   |   5.0 |  0.08
Modify  | 7.3162     | 8.0451     | 9.444      |  18.0 | 15.35
Other   |            | 1.647      |            |       |  3.14

Nlocal:        219.429 ave         237 max         196 min
Histogram: 1 1 2 3 12 17 7 4 7 2
Nghost:        6839.84 ave        6908 max        6782 min
Histogram: 1 2 7 15 7 12 7 3 1 1
Neighs:        96070.5 ave      105670 max       85648 min
Histogram: 1 2 0 13 13 9 7 7 2 2

Total # of neighbors = 5379950
Ave neighs/atom = 437.82145
Ave special neighs/atom = 2
Neighbor list builds = 381
Dangerous builds = 0
kspace_style pppm/tip4p 1.0e-5
next nloop
jump SELF loop_start
run 10000 # 10ps
PPPM initialization ...
  extracting TIP4P info from pair style
  using 12-bit tables for long-range coulomb
  G vector (1/distance) = 0.32815664
  grid = 50 50 50
  stencil order = 5
  estimated absolute RMS force accuracy = 0.0035802102
  estimated relative force accuracy = 1.0781697e-05
  using double precision KISS FFT
  3d grid and FFT values/proc = 11424 2800
Generated 0 of 1 mixed pair_coeff terms from geometric mixing rule
Per MPI rank memory allocation (min/avg/max) = 10.92 | 11.04 | 11.12 Mbytes
   Step          Temp          TotEng         PotEng          Pxy           v_sxy         v_strain     v_viscosity  
    400000   430.12161     -37642.324     -48144.093     -1405.8073      0.13210758     100            0.00052843032
    401000   428.66594     -37709.791     -48176.019     -1910.0169      0.19276941     100.25         0.00077107763
    402000   426.7545      -37626.146     -48045.705     -2060.8087      0.20275609     100.5          0.00081102435
    403000   436.86204     -37550.36      -48216.702     -2181.4725      0.21758239     100.75         0.00087032957
    404000   433.29436     -37668.035     -48247.27      -2181.2618      0.21196798     101            0.00084787191
    405000   433.32695     -37723.869     -48303.9       -2148.7254      0.2114795      101.25         0.00084591802
    406000   430.96991     -37553.98      -48076.462     -2047.5734      0.20558668     101.5          0.00082234671
    407000   439.28016     -37463.073     -48188.456     -2289.1692      0.22585346     101.75         0.00090341382
    408000   436.59335     -37568.487     -48228.27      -2239.8988      0.21925702     102            0.00087702809
    409000   431.73819     -37705.309     -48246.549     -2279.5698      0.2180081      102.25         0.00087203238
    410000   436.71266     -37466.789     -48129.485     -2323.2583      0.22998914     102.5          0.00091995655
Loop time of 44.8179 on 56 procs for 10000 steps with 12288 atoms

Performance: 19.278 ns/day, 1.245 hours/ns, 223.125 timesteps/s, 2.742 Matom-step/s
99.8% CPU use with 56 MPI tasks x no OpenMP threads

MPI task timing breakdown:
Section |  min time  |  avg time  |  max time  |%varavg| %total
---------------------------------------------------------------
Pair    | 18.691     | 19.894     | 20.881     |  11.4 | 44.39
Bond    | 0.0012661  | 0.0025663  | 0.0038246  |   1.0 |  0.01
Kspace  | 10.917     | 11.831     | 12.975     |  14.4 | 26.40
Neigh   | 4.4706     | 4.4737     | 4.477      |   0.1 |  9.98
Comm    | 1.5591     | 1.6407     | 1.7365     |   3.8 |  3.66
Output  | 0.022696   | 0.039928   | 0.056372   |   5.0 |  0.09
Modify  | 5.1637     | 5.6806     | 6.6744     |  14.5 | 12.67
Other   |            | 1.255      |            |       |  2.80

Nlocal:        219.429 ave         242 max         201 min
Histogram: 4 4 7 8 8 12 8 2 1 2
Nghost:        7270.95 ave        7345 max        7201 min
Histogram: 1 5 5 12 6 11 5 6 4 1
Neighs:        96053.8 ave      106652 max       86060 min
Histogram: 1 3 9 5 9 14 9 3 1 2

Total # of neighbors = 5379014
Ave neighs/atom = 437.74528
Ave special neighs/atom = 2
Neighbor list builds = 381
Dangerous builds = 0
kspace_style pppm/tip4p 1.0e-5
next nloop
jump SELF loop_start
run 10000 # 10ps
PPPM initialization ...
  extracting TIP4P info from pair style
  using 12-bit tables for long-range coulomb
  G vector (1/distance) = 0.32815664
  grid = 50 75 50
  stencil order = 5
  estimated absolute RMS force accuracy = 0.0035802102
  estimated relative force accuracy = 1.0781697e-05
  using double precision KISS FFT
  3d grid and FFT values/proc = 15776 4000
Generated 0 of 1 mixed pair_coeff terms from geometric mixing rule
Per MPI rank memory allocation (min/avg/max) = 11.21 | 11.35 | 11.45 Mbytes
   Step          Temp          TotEng         PotEng          Pxy           v_sxy         v_strain     v_viscosity  
    410000   436.11691     -37481.332     -48129.482     -1833.7308      0.17943164     102.5          0.00071772654
    411000   435.29677     -37548.266     -48176.392     -1801.0866      0.17614174     102.75         0.00070456697
    412000   430.44503     -37636.333     -48146         -2305.0101      0.22911237     103            0.00091644948
    413000   433.90765     -37585.945     -48180.154     -2156.1817      0.21412204     103.25         0.00085648815
    414000   432.56782     -37376.527     -47938.023     -2091.7         0.20923358     103.5          0.0008369343 
    415000   432.25816     -37642.84      -48196.776     -1858.597       0.17568932     103.75         0.00070275726
    416000   436.98149     -37484.09      -48153.35      -2029.0458      0.200263       104            0.00080105199
    417000   432.26645     -37746.627     -48300.765     -2232.1501      0.21935243     104.25         0.00087740974
    418000   433.24934     -37593.61      -48171.746     -2444.2108      0.23894578     104.5          0.00095578312
    419000   432.42123     -37553.087     -48111.004     -2280.7243      0.2228481      104.75         0.00089139242
    420000   434.51408     -37620.947     -48229.963     -2140.1816      0.21507185     105            0.00086028742
Loop time of 52.3612 on 56 procs for 10000 steps with 12288 atoms

Performance: 16.501 ns/day, 1.454 hours/ns, 190.981 timesteps/s, 2.347 Matom-step/s
99.8% CPU use with 56 MPI tasks x no OpenMP threads

MPI task timing breakdown:
Section |  min time  |  avg time  |  max time  |%varavg| %total
---------------------------------------------------------------
Pair    | 18.797     | 20.167     | 21.609     |  12.1 | 38.52
Bond    | 0.0015526  | 0.0030297  | 0.0043993  |   1.1 |  0.01
Kspace  | 14.686     | 16.127     | 17.527     |  13.6 | 30.80
Neigh   | 4.5023     | 4.5063     | 4.5094     |   0.1 |  8.61
Comm    | 1.6686     | 1.8195     | 2.0046     |   5.5 |  3.47
Output  | 0.022682   | 0.039754   | 0.056155   |   5.0 |  0.08
Modify  | 7.36       | 8.0533     | 9.4517     |  17.8 | 15.38
Other   |            | 1.645      |            |       |  3.14

Nlocal:        219.429 ave         238 max         206 min
Histogram: 7 4 9 5 12 7 2 6 2 2
Nghost:        6844.68 ave        6931 max        6783 min
Histogram: 7 3 8 12 4 10 4 4 1 3
Neighs:        96062.1 ave      104467 max       88652 min
Histogram: 3 4 8 7 10 8 7 3 3 3

Total # of neighbors = 5379477
Ave neighs/atom = 437.78296
Ave special neighs/atom = 2
Neighbor list builds = 383
Dangerous builds = 0
kspace_style pppm/tip4p 1.0e-5
next nloop
jump SELF loop_start
run 10000 # 10ps
PPPM initialization ...
  extracting TIP4P info from pair style
  using 12-bit tables for long-range coulomb
  G vector (1/distance) = 0.32815664
  grid = 50 50 50
  stencil order = 5
  estimated absolute RMS force accuracy = 0.0035802102
  estimated relative force accuracy = 1.0781697e-05
  using double precision KISS FFT
  3d grid and FFT values/proc = 11424 2800
Generated 0 of 1 mixed pair_coeff terms from geometric mixing rule
Per MPI rank memory allocation (min/avg/max) = 10.92 | 11.04 | 11.12 Mbytes
   Step          Temp          TotEng         PotEng          Pxy           v_sxy         v_strain     v_viscosity  
    420000   434.52952     -37619.542     -48228.934     -1739.7867      0.17428698     105            0.00069714791
    421000   438.53997     -37494.222     -48201.533     -2393.0379      0.23644918     105.25         0.00094579671
    422000   431.01872     -37625.77      -48149.443     -2137.748       0.21184743     105.5          0.00084738972
    423000   431.67243     -37658.119     -48197.753     -2086.0111      0.20723685     105.75         0.00082894742
    424000   431.61582     -37601.629     -48139.881     -2058.6527      0.19857212     106            0.0007942885 
    425000   434.97395     -37647.391     -48267.634     -1987.4497      0.1947639      106.25         0.00077905559
    426000   432.26856     -37721.833     -48276.022     -2318.2624      0.22955126     106.5          0.00091820504
    427000   434.0236      -37575.579     -48172.619     -2228.5918      0.21117724     106.75         0.00084470896
    428000   443.34655     -37459.924     -48284.591     -2004.729       0.19586446     107            0.00078345783
    429000   434.03126     -37611.204     -48208.431     -1970.1005      0.1913593      107.25         0.00076543718
    430000   436.1802      -37581.461     -48231.156     -2254.2527      0.22353921     107.5          0.00089415682
Loop time of 44.8662 on 56 procs for 10000 steps with 12288 atoms

Performance: 19.257 ns/day, 1.246 hours/ns, 222.885 timesteps/s, 2.739 Matom-step/s
99.7% CPU use with 56 MPI tasks x no OpenMP threads

MPI task timing breakdown:
Section |  min time  |  avg time  |  max time  |%varavg| %total
---------------------------------------------------------------
Pair    | 18.559     | 19.862     | 20.882     |  12.5 | 44.27
Bond    | 0.0012627  | 0.0025746  | 0.0038836  |   1.0 |  0.01
Kspace  | 10.945     | 11.851     | 13.14      |  15.9 | 26.41
Neigh   | 4.4871     | 4.4911     | 4.4944     |   0.1 | 10.01
Comm    | 1.5445     | 1.6552     | 1.8257     |   5.0 |  3.69
Output  | 0.022742   | 0.039939   | 0.056405   |   5.0 |  0.09
Modify  | 5.1712     | 5.6834     | 6.6917     |  14.7 | 12.67
Other   |            | 1.281      |            |       |  2.85

Nlocal:        219.429 ave         238 max         198 min
Histogram: 1 4 2 6 7 13 11 4 4 4
Nghost:        7260.68 ave        7326 max        7172 min
Histogram: 1 0 6 8 7 10 3 8 9 4
Neighs:        96071.8 ave      105689 max       86065 min
Histogram: 2 4 3 4 16 8 10 2 6 1

Total # of neighbors = 5380021
Ave neighs/atom = 437.82723
Ave special neighs/atom = 2
Neighbor list builds = 381
Dangerous builds = 0
kspace_style pppm/tip4p 1.0e-5
next nloop
jump SELF loop_start
run 10000 # 10ps
PPPM initialization ...
  extracting TIP4P info from pair style
  using 12-bit tables for long-range coulomb
  G vector (1/distance) = 0.32815664
  grid = 50 75 50
  stencil order = 5
  estimated absolute RMS force accuracy = 0.0035802102
  estimated relative force accuracy = 1.0781697e-05
  using double precision KISS FFT
  3d grid and FFT values/proc = 15776 4000
Generated 0 of 1 mixed pair_coeff terms from geometric mixing rule
Per MPI rank memory allocation (min/avg/max) = 11.21 | 11.35 | 11.45 Mbytes
   Step          Temp          TotEng         PotEng          Pxy           v_sxy         v_strain     v_viscosity  
    430000   435.96006     -37586.216     -48230.536     -1831.0764      0.17984342     107.5          0.0007193737 
    431000   434.23515     -37767.732     -48369.937     -2122.2503      0.21154282     107.75         0.00084617126
    432000   432.18002     -37502.99      -48055.017     -2376.1229      0.22894972     108            0.0009157989 
    433000   430.61371     -37680.119     -48193.904     -2218.5087      0.21483991     108.25         0.00085935966
    434000   430.93902     -37656.863     -48178.591     -2443.4702      0.23565053     108.5          0.00094260212
    435000   433.55316     -37568.827     -48154.381     -2334.5539      0.22555971     108.75         0.00090223883
    436000   432.99957     -37626.258     -48198.295     -2299.9555      0.225964       109            0.00090385599
    437000   433.40984     -37467.372     -48049.427     -2051.4549      0.20234627     109.25         0.00080938509
    438000   432.0269      -37591.872     -48140.161     -2059.9911      0.20224301     109.5          0.00080897205
    439000   429.58012     -37874.017     -48362.565     -2291.0441      0.2240325      109.75         0.00089612999
    440000   434.05423     -37635.973     -48233.761     -2127.8313      0.20744761     110            0.00082979043
Loop time of 52.4561 on 56 procs for 10000 steps with 12288 atoms

Performance: 16.471 ns/day, 1.457 hours/ns, 190.636 timesteps/s, 2.343 Matom-step/s
99.8% CPU use with 56 MPI tasks x no OpenMP threads

MPI task timing breakdown:
Section |  min time  |  avg time  |  max time  |%varavg| %total
---------------------------------------------------------------
Pair    | 19.102     | 20.136     | 21.057     |  10.8 | 38.39
Bond    | 0.0015347  | 0.0030266  | 0.0043815  |   1.1 |  0.01
Kspace  | 15.333     | 16.205     | 17.12      |  11.7 | 30.89
Neigh   | 4.5749     | 4.5785     | 4.5815     |   0.1 |  8.73
Comm    | 1.6409     | 1.8177     | 1.9965     |   5.7 |  3.47
Output  | 0.023366   | 0.040459   | 0.056783   |   4.9 |  0.08
Modify  | 7.3798     | 8.0406     | 9.4359     |  17.7 | 15.33
Other   |            | 1.636      |            |       |  3.12

Nlocal:        219.429 ave         239 max         202 min
Histogram: 4 6 7 4 10 8 7 5 1 4
Nghost:        6841.05 ave        6881 max        6800 min
Histogram: 6 1 4 9 7 8 7 7 3 4
Neighs:        96053.3 ave      107120 max       87491 min
Histogram: 2 8 9 7 6 10 8 3 2 1

Total # of neighbors = 5378986
Ave neighs/atom = 437.743
Ave special neighs/atom = 2
Neighbor list builds = 383
Dangerous builds = 0
kspace_style pppm/tip4p 1.0e-5
next nloop
jump SELF loop_start
run 10000 # 10ps
PPPM initialization ...
  extracting TIP4P info from pair style
  using 12-bit tables for long-range coulomb
  G vector (1/distance) = 0.32815664
  grid = 50 50 50
  stencil order = 5
  estimated absolute RMS force accuracy = 0.0035802102
  estimated relative force accuracy = 1.0781697e-05
  using double precision KISS FFT
  3d grid and FFT values/proc = 11424 2800
Generated 0 of 1 mixed pair_coeff terms from geometric mixing rule
Per MPI rank memory allocation (min/avg/max) = 10.92 | 11.04 | 11.12 Mbytes
   Step          Temp          TotEng         PotEng          Pxy           v_sxy         v_strain     v_viscosity  
    440000   433.99593     -37639.779     -48236.144     -1728.2176      0.16656854     110            0.00066627415
    441000   437.04958     -37567.448     -48238.369     -2379.458       0.23288721     110.25         0.00093154884
    442000   433.55167     -37496.71      -48082.228     -2359.5371      0.23341336     110.5          0.00093365345
    443000   431.31194     -37552.457     -48083.29      -2463.0199      0.24194402     110.75         0.00096777609
    444000   433.63823     -37586.453     -48174.084     -2073.8777      0.20758536     111            0.00083034143
    445000   427.56108     -37634.134     -48073.386     -1590.1423      0.15903671     111.25         0.00063614682
    446000   432.02066     -37587.444     -48135.581     -2231.291       0.21647044     111.5          0.00086588178
    447000   436.38988     -37453.074     -48107.889     -2180.3202      0.2180759      111.75         0.0008723036 
    448000   434.3073      -37608.202     -48212.169     -2040.7143      0.19924297     112            0.00079697189
    449000   434.72341     -37537.371     -48151.498     -2130.6503      0.20740442     112.25         0.00082961768
    450000   426.68826     -37694.403     -48112.344     -2106.065       0.20929165     112.5          0.00083716662
Loop time of 45.0307 on 56 procs for 10000 steps with 12288 atoms

Performance: 19.187 ns/day, 1.251 hours/ns, 222.071 timesteps/s, 2.729 Matom-step/s
99.8% CPU use with 56 MPI tasks x no OpenMP threads

MPI task timing breakdown:
Section |  min time  |  avg time  |  max time  |%varavg| %total
---------------------------------------------------------------
Pair    | 18.222     | 19.866     | 21.241     |  13.8 | 44.12
Bond    | 0.0012414  | 0.0025647  | 0.0038263  |   1.0 |  0.01
Kspace  | 10.801     | 12.05      | 13.665     |  17.2 | 26.76
Neigh   | 4.5045     | 4.508      | 4.5111     |   0.1 | 10.01
Comm    | 1.538      | 1.6419     | 1.7851     |   4.6 |  3.65
Output  | 0.022865   | 0.040006   | 0.056418   |   5.0 |  0.09
Modify  | 5.1209     | 5.6567     | 6.6716     |  14.7 | 12.56
Other   |            | 1.266      |            |       |  2.81

Nlocal:        219.429 ave         241 max         194 min
Histogram: 2 0 5 6 12 9 10 7 1 4
Nghost:         7277.2 ave        7337 max        7187 min
Histogram: 2 0 1 6 6 11 12 8 8 2
Neighs:        96075.7 ave      108279 max       82553 min
Histogram: 1 2 4 4 16 7 12 6 2 2

Total # of neighbors = 5380238
Ave neighs/atom = 437.84489
Ave special neighs/atom = 2
Neighbor list builds = 380
Dangerous builds = 0
kspace_style pppm/tip4p 1.0e-5
next nloop
jump SELF loop_start
run 10000 # 10ps
PPPM initialization ...
  extracting TIP4P info from pair style
  using 12-bit tables for long-range coulomb
  G vector (1/distance) = 0.32815664
  grid = 50 75 50
  stencil order = 5
  estimated absolute RMS force accuracy = 0.0035802102
  estimated relative force accuracy = 1.0781697e-05
  using double precision KISS FFT
  3d grid and FFT values/proc = 15776 4000
Generated 0 of 1 mixed pair_coeff terms from geometric mixing rule
Per MPI rank memory allocation (min/avg/max) = 11.21 | 11.35 | 11.45 Mbytes
   Step          Temp          TotEng         PotEng          Pxy           v_sxy         v_strain     v_viscosity  
    450000   426.49626     -37699.195     -48112.449     -1704.7192      0.16784296     112.5          0.00067137183
    451000   429.47056     -37830.718     -48316.591     -1986.1968      0.19779405     112.75         0.0007911762 
    452000   425.34361     -37747.592     -48132.703     -2363.9929      0.23197983     113            0.00092791932
    453000   431.11508     -37590.954     -48116.98      -1883.3513      0.18623824     113.25         0.00074495297
    454000   431.32854     -37822.176     -48353.414     -2175.359       0.21479529     113.5          0.00085918114
    455000   432.85864     -37644.961     -48213.558     -2115.7536      0.20596002     113.75         0.00082384007
    456000   432.15514     -37866.049     -48417.469     -2232.4369      0.2201057      114            0.00088042281
    457000   433.90086     -37743.192     -48337.235     -2012.4585      0.1970594      114.25         0.00078823762
    458000   433.9321      -37600.052     -48194.858     -2151.6223      0.20700853     114.5          0.00082803414
    459000   434.50599     -37525.38      -48134.198     -1837.2632      0.18119747     114.75         0.00072478988
    460000   431.79082     -37566.57      -48109.095     -2092.1431      0.20123668     115            0.00080494673
Loop time of 52.4517 on 56 procs for 10000 steps with 12288 atoms

Performance: 16.472 ns/day, 1.457 hours/ns, 190.651 timesteps/s, 2.343 Matom-step/s
99.8% CPU use with 56 MPI tasks x no OpenMP threads

MPI task timing breakdown:
Section |  min time  |  avg time  |  max time  |%varavg| %total
---------------------------------------------------------------
Pair    | 18.572     | 20.143     | 21.699     |  13.9 | 38.40
Bond    | 0.0015257  | 0.0029815  | 0.0041679  |   1.1 |  0.01
Kspace  | 14.698     | 16.234     | 17.799     |  15.2 | 30.95
Neigh   | 4.5263     | 4.5304     | 4.5336     |   0.1 |  8.64
Comm    | 1.6462     | 1.8119     | 2.0125     |   5.8 |  3.45
Output  | 0.022749   | 0.039727   | 0.056009   |   4.9 |  0.08
Modify  | 7.3247     | 8.0419     | 9.4352     |  17.9 | 15.33
Other   |            | 1.647      |            |       |  3.14

Nlocal:        219.429 ave         247 max         198 min
Histogram: 3 6 2 9 16 7 7 5 0 1
Nghost:        6849.71 ave        6914 max        6785 min
Histogram: 2 4 7 5 10 9 9 5 4 1
Neighs:        96056.3 ave      108973 max       86163 min
Histogram: 5 4 6 8 15 5 5 6 1 1

Total # of neighbors = 5379154
Ave neighs/atom = 437.75667
Ave special neighs/atom = 2
Neighbor list builds = 380
Dangerous builds = 0
kspace_style pppm/tip4p 1.0e-5
next nloop
jump SELF loop_start
run 10000 # 10ps
PPPM initialization ...
  extracting TIP4P info from pair style
  using 12-bit tables for long-range coulomb
  G vector (1/distance) = 0.32815664
  grid = 50 50 50
  stencil order = 5
  estimated absolute RMS force accuracy = 0.0035802102
  estimated relative force accuracy = 1.0781697e-05
  using double precision KISS FFT
  3d grid and FFT values/proc = 11424 2800
Generated 0 of 1 mixed pair_coeff terms from geometric mixing rule
Per MPI rank memory allocation (min/avg/max) = 10.92 | 11.04 | 11.12 Mbytes
   Step          Temp          TotEng         PotEng          Pxy           v_sxy         v_strain     v_viscosity  
    460000   432.0863      -37558.94      -48108.679     -1621.9959      0.15290044     115            0.00061160177
    461000   426.71607     -37998.332     -48416.953     -1914.085       0.18924324     115.25         0.00075697297
    462000   431.7027      -37527.763     -48068.136     -2129.484       0.2068144      115.5          0.00082725761
    463000   423.66141     -37964.218     -48308.256     -2014.075       0.198738       115.75         0.00079495201
    464000   434.62259     -37478.266     -48089.931     -2038.9899      0.20137948     116            0.00080551794
    465000   432.55611     -37462.518     -48023.728     -2139.44        0.20924468     116.25         0.00083697873
    466000   430.74312     -37642.507     -48159.451     -2269.5181      0.22517161     116.5          0.00090068643
    467000   433.4066      -37546.508     -48128.484     -2097.6588      0.20791739     116.75         0.00083166955
    468000   435.94343     -37484.456     -48128.37      -2427.7797      0.23418116     117            0.00093672462
    469000   433.44202     -37638.716     -48221.556     -2007.652       0.19382321     117.25         0.00077529285
    470000   432.21992     -37771.925     -48324.926     -2342.3867      0.22910744     117.5          0.00091642977
Loop time of 44.9531 on 56 procs for 10000 steps with 12288 atoms

Performance: 19.220 ns/day, 1.249 hours/ns, 222.454 timesteps/s, 2.734 Matom-step/s
99.8% CPU use with 56 MPI tasks x no OpenMP threads

MPI task timing breakdown:
Section |  min time  |  avg time  |  max time  |%varavg| %total
---------------------------------------------------------------
Pair    | 18.796     | 19.863     | 21.025     |  13.9 | 44.19
Bond    | 0.0012467  | 0.0025399  | 0.0038339  |   1.0 |  0.01
Kspace  | 10.768     | 11.955     | 13.033     |  17.7 | 26.59
Neigh   | 4.5222     | 4.5257     | 4.5281     |   0.1 | 10.07
Comm    | 1.5355     | 1.6421     | 1.7908     |   4.5 |  3.65
Output  | 0.02306    | 0.040306   | 0.056828   |   5.0 |  0.09
Modify  | 5.1491     | 5.6583     | 6.665      |  14.7 | 12.59
Other   |            | 1.266      |            |       |  2.82

Nlocal:        219.429 ave         241 max         196 min
Histogram: 1 2 6 6 9 10 12 8 1 1
Nghost:        7280.34 ave        7331 max        7204 min
Histogram: 3 3 4 3 3 10 9 6 8 7
Neighs:        96065.6 ave      105313 max       85171 min
Histogram: 1 2 6 7 7 10 9 6 6 2

Total # of neighbors = 5379676
Ave neighs/atom = 437.79915
Ave special neighs/atom = 2
Neighbor list builds = 380
Dangerous builds = 0
kspace_style pppm/tip4p 1.0e-5
next nloop
jump SELF loop_start
run 10000 # 10ps
PPPM initialization ...
  extracting TIP4P info from pair style
  using 12-bit tables for long-range coulomb
  G vector (1/distance) = 0.32815664
  grid = 50 75 50
  stencil order = 5
  estimated absolute RMS force accuracy = 0.0035802102
  estimated relative force accuracy = 1.0781697e-05
  using double precision KISS FFT
  3d grid and FFT values/proc = 15776 4000
Generated 0 of 1 mixed pair_coeff terms from geometric mixing rule
Per MPI rank memory allocation (min/avg/max) = 11.21 | 11.35 | 11.45 Mbytes
   Step          Temp          TotEng         PotEng          Pxy           v_sxy         v_strain     v_viscosity  
    470000   432.10755     -37775.916     -48326.174     -1765.1404      0.16992486     117.5          0.00067969944
    471000   431.34522     -37815.303     -48346.948     -2116.7306      0.20587502     117.75         0.00082350007
    472000   431.16699     -37717.49      -48244.784     -2215.9929      0.21667304     118            0.00086669216
    473000   430.02726     -37721.804     -48221.27      -2077.4027      0.19569755     118.25         0.00078279021
    474000   429.80346     -37832.931     -48326.932     -2221.9604      0.22045887     118.5          0.0008818355 
    475000   432.65997     -37615.889     -48179.635     -2296.7054      0.22789894     118.75         0.00091159575
    476000   429.17819     -37891.475     -48370.211     -1888.0178      0.18719301     119            0.00074877203
    477000   427.75875     -37570.873     -48014.951     -1892.9088      0.18949143     119.25         0.00075796573
    478000   428.54013     -37701.248     -48164.404     -2057.3594      0.20446168     119.5          0.00081784671
    479000   429.11476     -37794.241     -48271.427     -2115.7114      0.20703007     119.75         0.00082812029
    480000   436.08702     -37429.047     -48076.467     -2236.5278      0.21868325     120            0.00087473301
Loop time of 52.3568 on 56 procs for 10000 steps with 12288 atoms

Performance: 16.502 ns/day, 1.454 hours/ns, 190.997 timesteps/s, 2.347 Matom-step/s
99.8% CPU use with 56 MPI tasks x no OpenMP threads

MPI task timing breakdown:
Section |  min time  |  avg time  |  max time  |%varavg| %total
---------------------------------------------------------------
Pair    | 18.927     | 20.119     | 21.059     |  12.7 | 38.43
Bond    | 0.0016491  | 0.0029894  | 0.0045255  |   1.1 |  0.01
Kspace  | 15.251     | 16.141     | 17.137     |  13.6 | 30.83
Neigh   | 4.5574     | 4.5614     | 4.5639     |   0.1 |  8.71
Comm    | 1.6692     | 1.8119     | 2.0259     |   6.2 |  3.46
Output  | 0.023151   | 0.040168   | 0.056512   |   4.9 |  0.08
Modify  | 7.2968     | 8.0464     | 9.4319     |  17.9 | 15.37
Other   |            | 1.633      |            |       |  3.12

Nlocal:        219.429 ave         242 max         202 min
Histogram: 2 3 10 10 11 9 4 3 2 2
Nghost:        6843.32 ave        6893 max        6775 min
Histogram: 2 2 3 5 11 6 9 3 9 6
Neighs:        96074.1 ave      107129 max       88940 min
Histogram: 4 6 10 7 13 7 4 3 1 1

Total # of neighbors = 5380149
Ave neighs/atom = 437.83765
Ave special neighs/atom = 2
Neighbor list builds = 385
Dangerous builds = 0
kspace_style pppm/tip4p 1.0e-5
next nloop
jump SELF loop_start
run 10000 # 10ps
PPPM initialization ...
  extracting TIP4P info from pair style
  using 12-bit tables for long-range coulomb
  G vector (1/distance) = 0.32815664
  grid = 50 50 50
  stencil order = 5
  estimated absolute RMS force accuracy = 0.0035802102
  estimated relative force accuracy = 1.0781697e-05
  using double precision KISS FFT
  3d grid and FFT values/proc = 11424 2800
Generated 0 of 1 mixed pair_coeff terms from geometric mixing rule
Per MPI rank memory allocation (min/avg/max) = 10.92 | 11.04 | 11.12 Mbytes
   Step          Temp          TotEng         PotEng          Pxy           v_sxy         v_strain     v_viscosity  
    480000   436.0567      -37429.043     -48075.722     -1745.793       0.16867035     120            0.00067468138
    481000   425.89385     -37664.4       -48062.946     -2102.1646      0.2094859      120.25         0.00083794359
    482000   431.06291     -37805.31      -48330.063     -2310.4837      0.22790765     120.5          0.00091163059
    483000   434.5274      -37736.547     -48345.887     -1939.5427      0.19437256     120.75         0.00077749022
    484000   434.35519     -37599.032     -48204.168     -2246.4306      0.21960105     121            0.00087840419
    485000   431.81807     -37724.91      -48268.1       -2073.683       0.20346343     121.25         0.00081385372
    486000   436.70439     -37487.145     -48149.639     -2348.764       0.23618915     121.5          0.00094475659
    487000   429.82029     -37532.654     -48027.067     -2190.2753      0.21676036     121.75         0.00086704143
    488000   431.37564     -37534.648     -48067.036     -2077.1774      0.20482234     122            0.00081928936
    489000   433.64288     -37608.241     -48195.985     -1937.1332      0.19248171     122.25         0.00076992685
    490000   432.79462     -37588.433     -48155.466     -2199.8681      0.21933132     122.5          0.00087732526
Loop time of 44.7243 on 56 procs for 10000 steps with 12288 atoms

Performance: 19.318 ns/day, 1.242 hours/ns, 223.592 timesteps/s, 2.748 Matom-step/s
99.8% CPU use with 56 MPI tasks x no OpenMP threads

MPI task timing breakdown:
Section |  min time  |  avg time  |  max time  |%varavg| %total
---------------------------------------------------------------
Pair    | 18.886     | 19.86      | 21.03      |  10.9 | 44.40
Bond    | 0.0012829  | 0.0025278  | 0.003836   |   1.0 |  0.01
Kspace  | 10.663     | 11.847     | 12.794     |  13.9 | 26.49
Neigh   | 4.4279     | 4.4315     | 4.4344     |   0.1 |  9.91
Comm    | 1.5495     | 1.6344     | 1.7759     |   4.2 |  3.65
Output  | 0.022946   | 0.040159   | 0.056635   |   5.0 |  0.09
Modify  | 5.1722     | 5.6711     | 6.6639     |  14.6 | 12.68
Other   |            | 1.238      |            |       |  2.77

Nlocal:        219.429 ave         241 max         197 min
Histogram: 2 1 6 7 9 16 6 4 2 3
Nghost:        7285.64 ave        7358 max        7194 min
Histogram: 2 1 3 6 7 15 7 8 4 3
Neighs:        96046.3 ave      106171 max       85424 min
Histogram: 2 2 3 10 9 13 7 6 2 2

Total # of neighbors = 5378594
Ave neighs/atom = 437.7111
Ave special neighs/atom = 2
Neighbor list builds = 378
Dangerous builds = 0
kspace_style pppm/tip4p 1.0e-5
next nloop
jump SELF loop_start
run 10000 # 10ps
PPPM initialization ...
  extracting TIP4P info from pair style
  using 12-bit tables for long-range coulomb
  G vector (1/distance) = 0.32815664
  grid = 50 75 50
  stencil order = 5
  estimated absolute RMS force accuracy = 0.0035802102
  estimated relative force accuracy = 1.0781697e-05
  using double precision KISS FFT
  3d grid and FFT values/proc = 15776 4000
Generated 0 of 1 mixed pair_coeff terms from geometric mixing rule
Per MPI rank memory allocation (min/avg/max) = 11.21 | 11.35 | 11.45 Mbytes
   Step          Temp          TotEng         PotEng          Pxy           v_sxy         v_strain     v_viscosity  
    490000   432.65002     -37590.084     -48153.587     -1674.5275      0.16586982     122.5          0.00066347928
    491000   433.1929      -37582.273     -48159.031     -1897.9488      0.19115971     122.75         0.00076463884
    492000   432.4615      -37517.018     -48075.918     -2162.9706      0.21489906     123            0.00085959625
    493000   434.59232     -37768.651     -48379.576     -1964.1406      0.19916134     123.25         0.00079664535
    494000   429.20113     -37762.826     -48242.121     -1944.0004      0.18834899     123.5          0.00075339595
    495000   429.67325     -37803.433     -48294.256     -1992.6448      0.20169061     123.75         0.00080676242
    496000   432.373       -37566.871     -48123.61      -1965.6442      0.18919728     124            0.00075678911
    497000   436.36121     -37494.175     -48148.289     -1942.1257      0.19309188     124.25         0.00077236752
    498000   428.53965     -37675.767     -48138.912     -1971.691       0.19231497     124.5          0.00076925987
    499000   429.91894     -37706.176     -48202.997     -2165.5902      0.21426558     124.75         0.00085706231
    500000   433.2346      -37718.854     -48296.63      -2367.0834      0.23444172     125            0.00093776688
Loop time of 52.2369 on 56 procs for 10000 steps with 12288 atoms

Performance: 16.540 ns/day, 1.451 hours/ns, 191.435 timesteps/s, 2.352 Matom-step/s
99.8% CPU use with 56 MPI tasks x no OpenMP threads

MPI task timing breakdown:
Section |  min time  |  avg time  |  max time  |%varavg| %total
---------------------------------------------------------------
Pair    | 18.972     | 20.128     | 21.164     |  10.9 | 38.53
Bond    | 0.0016091  | 0.0029903  | 0.004383   |   1.1 |  0.01
Kspace  | 15.005     | 16.055     | 17.092     |  11.7 | 30.73
Neigh   | 4.4893     | 4.4934     | 4.4957     |   0.1 |  8.60
Comm    | 1.6777     | 1.8187     | 2.0238     |   5.8 |  3.48
Output  | 0.022877   | 0.039883   | 0.056221   |   5.0 |  0.08
Modify  | 7.3292     | 8.0524     | 9.4352     |  17.8 | 15.42
Other   |            | 1.647      |            |       |  3.15

Nlocal:        219.429 ave         242 max         199 min
Histogram: 2 4 3 10 13 8 8 7 0 1
Nghost:        6842.11 ave        6901 max        6782 min
Histogram: 2 5 5 8 5 7 13 7 3 1
Neighs:        96071.5 ave      104972 max       85770 min
Histogram: 1 4 3 7 7 14 7 5 6 2

Total # of neighbors = 5380004
Ave neighs/atom = 437.82585
Ave special neighs/atom = 2
Neighbor list builds = 381
Dangerous builds = 0
kspace_style pppm/tip4p 1.0e-5
next nloop
jump SELF loop_start
run 10000 # 10ps
PPPM initialization ...
  extracting TIP4P info from pair style
  using 12-bit tables for long-range coulomb
  G vector (1/distance) = 0.32815664
  grid = 50 50 50
  stencil order = 5
  estimated absolute RMS force accuracy = 0.0035802102
  estimated relative force accuracy = 1.0781697e-05
  using double precision KISS FFT
  3d grid and FFT values/proc = 11424 2800
Generated 0 of 1 mixed pair_coeff terms from geometric mixing rule
Per MPI rank memory allocation (min/avg/max) = 10.92 | 11.04 | 11.12 Mbytes
   Step          Temp          TotEng         PotEng          Pxy           v_sxy         v_strain     v_viscosity  
    500000   432.98231     -37723.537     -48295.153     -1807.4718      0.17731228     125            0.00070924912
    501000   430.44942     -37815.768     -48325.541     -2041.4859      0.20369977     125.25         0.0008147991 
    502000   427.25518     -37650.616     -48082.4       -1821.0103      0.18499306     125.5          0.00073997225
    503000   431.99853     -37663.636     -48211.232     -1724.6415      0.16960751     125.75         0.00067843005
    504000   434.00156     -37648.251     -48244.753     -1831.972       0.18542541     126            0.00074170164
    505000   432.17789     -37710.791     -48262.767     -2350.0236      0.23127972     126.25         0.00092511887
    506000   434.00009     -37588.742     -48185.208     -1893.9566      0.19290747     126.5          0.00077162987
    507000   429.79579     -37708.558     -48202.373     -2200.3529      0.21306223     126.75         0.00085224894
    508000   436.13728     -37567.109     -48215.756     -2307.8611      0.22928697     127            0.00091714787
    509000   438.37964     -37501.957     -48205.354     -2377.6163      0.23610927     127.25         0.00094443708
    510000   437.81174     -37472.925     -48162.455     -2158.2639      0.21120733     127.5          0.00084482933
Loop time of 44.9312 on 56 procs for 10000 steps with 12288 atoms

Performance: 19.229 ns/day, 1.248 hours/ns, 222.562 timesteps/s, 2.735 Matom-step/s
99.8% CPU use with 56 MPI tasks x no OpenMP threads

MPI task timing breakdown:
Section |  min time  |  avg time  |  max time  |%varavg| %total
---------------------------------------------------------------
Pair    | 18.352     | 19.836     | 21.16      |  12.5 | 44.15
Bond    | 0.0013119  | 0.0025345  | 0.0037619  |   1.0 |  0.01
Kspace  | 10.607     | 11.966     | 13.384     |  15.7 | 26.63
Neigh   | 4.4958     | 4.4994     | 4.5021     |   0.1 | 10.01
Comm    | 1.5407     | 1.6365     | 1.7667     |   4.3 |  3.64
Output  | 0.02393    | 0.041122   | 0.057584   |   4.9 |  0.09
Modify  | 5.1441     | 5.6635     | 6.6761     |  14.7 | 12.60
Other   |            | 1.286      |            |       |  2.86

Nlocal:        219.429 ave         239 max         203 min
Histogram: 4 0 11 11 3 11 6 8 1 1
Nghost:        7279.61 ave        7372 max        7199 min
Histogram: 2 4 8 11 8 5 9 4 2 3
Neighs:        96090.7 ave      105776 max       87454 min
Histogram: 4 1 5 14 7 9 7 6 2 1

Total # of neighbors = 5381080
Ave neighs/atom = 437.91341
Ave special neighs/atom = 2
Neighbor list builds = 381
Dangerous builds = 0
kspace_style pppm/tip4p 1.0e-5
next nloop
jump SELF loop_start
run 10000 # 10ps
PPPM initialization ...
  extracting TIP4P info from pair style
  using 12-bit tables for long-range coulomb
  G vector (1/distance) = 0.32815664
  grid = 50 75 50
  stencil order = 5
  estimated absolute RMS force accuracy = 0.0035802102
  estimated relative force accuracy = 1.0781697e-05
  using double precision KISS FFT
  3d grid and FFT values/proc = 15776 4000
Generated 0 of 1 mixed pair_coeff terms from geometric mixing rule
Per MPI rank memory allocation (min/avg/max) = 11.21 | 11.35 | 11.45 Mbytes
   Step          Temp          TotEng         PotEng          Pxy           v_sxy         v_strain     v_viscosity  
    510000   437.83461     -37471.366     -48161.455     -1745.2837      0.16889488     127.5          0.00067557952
    511000   435.1633      -37574.512     -48199.379     -1896.854       0.18289662     127.75         0.00073158648
    512000   435.32415     -37578.028     -48206.822     -2342.0827      0.23176977     128            0.0009270791 
    513000   433.56967     -37590.11      -48176.067     -2202.6762      0.2189593      128.25         0.00087583722
    514000   435.00371     -37592.323     -48213.293     -2029.5653      0.19596404     128.5          0.00078385616
    515000   428.96683     -37864.442     -48338.016     -2014.3695      0.20189377     128.75         0.00080757507
    516000   431.36091     -37732.394     -48264.422     -2458.2712      0.23986151     129            0.00095944605
    517000   434.75035     -37413.229     -48028.013     -2274.8043      0.22453622     129.25         0.00089814488
    518000   433.80777     -37618.365     -48210.135     -1890.3582      0.18702134     129.5          0.00074808537
    519000   434.94064     -37642.78      -48262.21      -2267.4265      0.22343499     129.75         0.00089373996
    520000   434.96955     -37553.74      -48173.877     -2057.5556      0.20428816     130            0.00081715264
Loop time of 52.3781 on 56 procs for 10000 steps with 12288 atoms

Performance: 16.495 ns/day, 1.455 hours/ns, 190.919 timesteps/s, 2.346 Matom-step/s
99.8% CPU use with 56 MPI tasks x no OpenMP threads

MPI task timing breakdown:
Section |  min time  |  avg time  |  max time  |%varavg| %total
---------------------------------------------------------------
Pair    | 18.954     | 20.097     | 21.319     |  11.6 | 38.37
Bond    | 0.0015886  | 0.0029907  | 0.0044258  |   1.2 |  0.01
Kspace  | 14.956     | 16.229     | 17.316     |  13.0 | 30.98
Neigh   | 4.508      | 4.5124     | 4.515      |   0.1 |  8.61
Comm    | 1.6728     | 1.8074     | 1.9961     |   5.2 |  3.45
Output  | 0.023395   | 0.040512   | 0.056882   |   4.9 |  0.08
Modify  | 7.3217     | 8.0416     | 9.4225     |  17.7 | 15.35
Other   |            | 1.648      |            |       |  3.15

Nlocal:        219.429 ave         235 max         202 min
Histogram: 4 0 1 12 11 5 12 2 5 4
Nghost:        6855.54 ave        6906 max        6784 min
Histogram: 2 3 3 6 8 5 8 8 5 8
Neighs:        96054.1 ave      104001 max       87008 min
Histogram: 2 2 3 6 14 9 9 3 5 3

Total # of neighbors = 5379032
Ave neighs/atom = 437.74674
Ave special neighs/atom = 2
Neighbor list builds = 382
Dangerous builds = 0
kspace_style pppm/tip4p 1.0e-5
next nloop
jump SELF loop_start
run 10000 # 10ps
PPPM initialization ...
  extracting TIP4P info from pair style
  using 12-bit tables for long-range coulomb
  G vector (1/distance) = 0.32815664
  grid = 50 50 50
  stencil order = 5
  estimated absolute RMS force accuracy = 0.0035802102
  estimated relative force accuracy = 1.0781697e-05
  using double precision KISS FFT
  3d grid and FFT values/proc = 11424 2800
Generated 0 of 1 mixed pair_coeff terms from geometric mixing rule
Per MPI rank memory allocation (min/avg/max) = 10.92 | 11.04 | 11.12 Mbytes
   Step          Temp          TotEng         PotEng          Pxy           v_sxy         v_strain     v_viscosity  
    520000   434.74657     -37556.809     -48171.501     -1545.3121      0.15155393     130            0.00060621572
    521000   428.36695     -37766.63      -48225.558     -1946.3034      0.18918394     130.25         0.00075673577
    522000   435.83616     -37536.341     -48177.636     -2239.888       0.22228627     130.5          0.00088914506
    523000   437.34783     -37551.023     -48229.227     -2064.9229      0.20995749     130.75         0.00083982998
    524000   438.84508     -37479.474     -48194.235     -1979.9448      0.19415156     131            0.00077660624
    525000   439.25059     -37565.27      -48289.932     -2432.5391      0.23950283     131.25         0.00095801134
    526000   430.22874     -37707.396     -48211.782     -2124.7445      0.20538655     131.5          0.00082154619
    527000   434.41183     -37545.238     -48151.757     -2266.7836      0.22235258     131.75         0.00088941031
    528000   432.28241     -37633.737     -48188.265     -2186.0472      0.21168669     132            0.00084674678
    529000   430.77271     -37577.225     -48094.892     -2395.5843      0.23615439     132.25         0.00094461757
    530000   430.22604     -37707.041     -48211.36      -2317.7375      0.22811942     132.5          0.00091247766
Loop time of 44.8407 on 56 procs for 10000 steps with 12288 atoms

Performance: 19.268 ns/day, 1.246 hours/ns, 223.012 timesteps/s, 2.740 Matom-step/s
99.8% CPU use with 56 MPI tasks x no OpenMP threads

MPI task timing breakdown:
Section |  min time  |  avg time  |  max time  |%varavg| %total
---------------------------------------------------------------
Pair    | 18.574     | 19.831     | 20.889     |  13.0 | 44.22
Bond    | 0.0012484  | 0.0025362  | 0.003791   |   1.0 |  0.01
Kspace  | 10.787     | 11.893     | 13.071     |  16.5 | 26.52
Neigh   | 4.4549     | 4.4588     | 4.4615     |   0.1 |  9.94
Comm    | 1.5385     | 1.64       | 1.7773     |   4.4 |  3.66
Output  | 0.022848   | 0.04001    | 0.056498   |   5.0 |  0.09
Modify  | 5.1481     | 5.6712     | 6.7191     |  14.8 | 12.65
Other   |            | 1.305      |            |       |  2.91

Nlocal:        219.429 ave         241 max         206 min
Histogram: 4 6 10 8 13 6 6 2 0 1
Nghost:        7277.16 ave        7331 max        7223 min
Histogram: 1 5 9 4 9 7 9 6 2 4
Neighs:        96045.6 ave      106737 max       90327 min
Histogram: 9 5 10 10 11 4 5 1 0 1

Total # of neighbors = 5378556
Ave neighs/atom = 437.70801
Ave special neighs/atom = 2
Neighbor list builds = 378
Dangerous builds = 0
kspace_style pppm/tip4p 1.0e-5
next nloop
jump SELF loop_start
run 10000 # 10ps
PPPM initialization ...
  extracting TIP4P info from pair style
  using 12-bit tables for long-range coulomb
  G vector (1/distance) = 0.32815664
  grid = 50 75 50
  stencil order = 5
  estimated absolute RMS force accuracy = 0.0035802102
  estimated relative force accuracy = 1.0781697e-05
  using double precision KISS FFT
  3d grid and FFT values/proc = 15776 4000
Generated 0 of 1 mixed pair_coeff terms from geometric mixing rule
Per MPI rank memory allocation (min/avg/max) = 11.21 | 11.35 | 11.45 Mbytes
   Step          Temp          TotEng         PotEng          Pxy           v_sxy         v_strain     v_viscosity  
    530000   430.02285     -37712.004     -48211.362     -1798.7947      0.17504804     132.5          0.00070019216
    531000   434.82834     -37658.947     -48275.635     -2265.941       0.22067455     132.75         0.00088269821
    532000   441.48012     -37376.162     -48155.259     -1917.1611      0.18973609     133            0.00075894436
    533000   435.56787     -37558.325     -48193.07      -2274.4276      0.22292291     133.25         0.00089169163
    534000   432.8431      -37585.238     -48153.455     -2076.4615      0.20555097     133.5          0.00082220387
    535000   436.68434     -37626.85      -48288.854     -2358.035       0.23627492     133.75         0.00094509967
    536000   436.02026     -37362.777     -48008.567     -2440.1214      0.24308879     134            0.00097235514
    537000   433.81057     -37506.644     -48098.482     -1885.5683      0.18071555     134.25         0.00072286219
    538000   427.64526     -37697.283     -48138.591     -2097.7747      0.20642149     134.5          0.00082568595
    539000   430.59185     -37603.468     -48116.719     -2070.7144      0.20394913     134.75         0.00081579654
    540000   431.25486     -37676.86      -48206.299     -1999.3518      0.19249286     135            0.00076997143
Loop time of 52.286 on 56 procs for 10000 steps with 12288 atoms

Performance: 16.525 ns/day, 1.452 hours/ns, 191.256 timesteps/s, 2.350 Matom-step/s
99.8% CPU use with 56 MPI tasks x no OpenMP threads

MPI task timing breakdown:
Section |  min time  |  avg time  |  max time  |%varavg| %total
---------------------------------------------------------------
Pair    | 18.985     | 20.104     | 21.342     |  12.3 | 38.45
Bond    | 0.0015905  | 0.0029417  | 0.0046126  |   1.2 |  0.01
Kspace  | 14.899     | 16.107     | 17.088     |  13.4 | 30.81
Neigh   | 4.5322     | 4.5364     | 4.5388     |   0.1 |  8.68
Comm    | 1.6885     | 1.8081     | 1.9828     |   5.4 |  3.46
Output  | 0.022894   | 0.039871   | 0.056194   |   5.0 |  0.08
Modify  | 7.3221     | 8.0521     | 9.4309     |  17.8 | 15.40
Other   |            | 1.635      |            |       |  3.13

Nlocal:        219.429 ave         240 max         194 min
Histogram: 1 2 6 4 7 10 14 6 4 2
Nghost:        6851.27 ave        6925 max        6804 min
Histogram: 4 10 8 11 6 5 8 1 1 2
Neighs:        96064.2 ave      105168 max       85121 min
Histogram: 2 2 6 4 5 12 9 11 2 3

Total # of neighbors = 5379597
Ave neighs/atom = 437.79272
Ave special neighs/atom = 2
Neighbor list builds = 386
Dangerous builds = 0
kspace_style pppm/tip4p 1.0e-5
next nloop
jump SELF loop_start
run 10000 # 10ps
PPPM initialization ...
  extracting TIP4P info from pair style
  using 12-bit tables for long-range coulomb
  G vector (1/distance) = 0.32815664
  grid = 50 50 50
  stencil order = 5
  estimated absolute RMS force accuracy = 0.0035802102
  estimated relative force accuracy = 1.0781697e-05
  using double precision KISS FFT
  3d grid and FFT values/proc = 11424 2800
Generated 0 of 1 mixed pair_coeff terms from geometric mixing rule
Per MPI rank memory allocation (min/avg/max) = 10.92 | 11.04 | 11.12 Mbytes
   Step          Temp          TotEng         PotEng          Pxy           v_sxy         v_strain     v_viscosity  
    540000   431.35525     -37672.873     -48204.763     -1416.5412      0.13283155     135            0.00053132619
    541000   434.09515     -37532.767     -48131.554     -2473.9094      0.24469044     135.25         0.00097876175
    542000   439.59532     -37356.323     -48089.401     -2267.7237      0.22292116     135.5          0.00089168464
    543000   429.48974     -37643.747     -48130.089     -1950.3867      0.18934522     135.75         0.00075738087
    544000   430.49026     -37564.538     -48075.309     -2163.5839      0.21485099     136            0.00085940396
    545000   434.34522     -37651.707     -48256.6       -2086.6969      0.20558602     136.25         0.00082234409
    546000   436.63132     -37588.271     -48248.98      -1935.384       0.19528127     136.5          0.00078112507
    547000   428.47444     -37891.512     -48353.064     -2115.8534      0.20430218     136.75         0.00081720873
    548000   430.56431     -37626.279     -48138.858     -2170.8257      0.21411623     137            0.00085646493
    549000   427.57575     -37599.485     -48039.096     -2480.3617      0.24656196     137.25         0.00098624786
    550000   429.46577     -37712.602     -48198.359     -2116.3332      0.20459871     137.5          0.00081839484
Loop time of 44.9365 on 56 procs for 10000 steps with 12288 atoms

Performance: 19.227 ns/day, 1.248 hours/ns, 222.536 timesteps/s, 2.735 Matom-step/s
99.8% CPU use with 56 MPI tasks x no OpenMP threads

MPI task timing breakdown:
Section |  min time  |  avg time  |  max time  |%varavg| %total
---------------------------------------------------------------
Pair    | 18.843     | 19.825     | 21.14      |  12.9 | 44.12
Bond    | 0.0012897  | 0.0024993  | 0.0037787  |   1.0 |  0.01
Kspace  | 10.651     | 11.992     | 12.979     |  16.3 | 26.69
Neigh   | 4.4829     | 4.4867     | 4.4888     |   0.1 |  9.98
Comm    | 1.5323     | 1.6514     | 1.7893     |   4.9 |  3.68
Output  | 0.023119   | 0.040269   | 0.05676    |   5.0 |  0.09
Modify  | 5.1495     | 5.6674     | 6.6763     |  14.6 | 12.61
Other   |            | 1.271      |            |       |  2.83

Nlocal:        219.429 ave         238 max         199 min
Histogram: 2 2 2 11 8 13 8 4 3 3
Nghost:        7284.77 ave        7363 max        7230 min
Histogram: 4 4 10 11 7 9 7 1 1 2
Neighs:        96069.5 ave      103808 max       85606 min
Histogram: 1 3 0 10 6 8 9 13 0 6

Total # of neighbors = 5379891
Ave neighs/atom = 437.81665
Ave special neighs/atom = 2
Neighbor list builds = 381
Dangerous builds = 0
kspace_style pppm/tip4p 1.0e-5
next nloop
jump SELF loop_start
run 10000 # 10ps
PPPM initialization ...
  extracting TIP4P info from pair style
  using 12-bit tables for long-range coulomb
  G vector (1/distance) = 0.32815664
  grid = 50 75 50
  stencil order = 5
  estimated absolute RMS force accuracy = 0.0035802102
  estimated relative force accuracy = 1.0781697e-05
  using double precision KISS FFT
  3d grid and FFT values/proc = 15776 4000
Generated 0 of 1 mixed pair_coeff terms from geometric mixing rule
Per MPI rank memory allocation (min/avg/max) = 11.21 | 11.35 | 11.45 Mbytes
   Step          Temp          TotEng         PotEng          Pxy           v_sxy         v_strain     v_viscosity  
    550000   429.33247     -37716.432     -48198.934     -1612.1667      0.15300875     137.5          0.00061203501
    551000   430.76126     -37686.511     -48203.898     -2269.9718      0.22130284     137.75         0.00088521136
    552000   434.74091     -37609.179     -48223.733     -2275.5322      0.23033549     138            0.00092134195
    553000   433.96601     -37558.945     -48154.579     -2111.3025      0.20721102     138.25         0.00082884406
    554000   433.35333     -37577.586     -48158.261     -2121.9898      0.214142       138.5          0.00085656799
    555000   430.60749     -37674.257     -48187.89      -2346.2762      0.22857438     138.75         0.00091429754
    556000   432.56573     -37680.792     -48242.237     -1942.2938      0.19242792     139            0.00076971168
    557000   431.60441     -37693.234     -48231.208     -2364.7474      0.23242061     139.25         0.00092968244
    558000   432.66486     -37590.982     -48154.847     -2501.298       0.24651112     139.5          0.00098604449
    559000   431.83166     -37703.227     -48246.749     -1945.704       0.18606038     139.75         0.00074424151
    560000   429.08772     -37842.452     -48318.979     -1896.0661      0.18956373     140            0.00075825492
Loop time of 52.3702 on 56 procs for 10000 steps with 12288 atoms

Performance: 16.498 ns/day, 1.455 hours/ns, 190.948 timesteps/s, 2.346 Matom-step/s
99.8% CPU use with 56 MPI tasks x no OpenMP threads

MPI task timing breakdown:
Section |  min time  |  avg time  |  max time  |%varavg| %total
---------------------------------------------------------------
Pair    | 18.586     | 20.088     | 21.157     |  13.2 | 38.36
Bond    | 0.001511   | 0.002886   | 0.0041861  |   1.1 |  0.01
Kspace  | 15.135     | 16.159     | 17.719     |  14.2 | 30.86
Neigh   | 4.563      | 4.5671     | 4.5694     |   0.1 |  8.72
Comm    | 1.6665     | 1.8301     | 1.9896     |   5.9 |  3.49
Output  | 0.023377   | 0.040553   | 0.056934   |   4.9 |  0.08
Modify  | 7.3384     | 8.0441     | 9.4481     |  17.9 | 15.36
Other   |            | 1.639      |            |       |  3.13

Nlocal:        219.429 ave         246 max         186 min
Histogram: 1 1 0 10 6 14 11 7 4 2
Nghost:        6846.21 ave        6938 max        6796 min
Histogram: 7 9 9 10 10 3 3 1 2 2
Neighs:        96081.4 ave      110889 max       80407 min
Histogram: 1 1 4 10 9 13 10 5 2 1

Total # of neighbors = 5380557
Ave neighs/atom = 437.87085
Ave special neighs/atom = 2
Neighbor list builds = 383
Dangerous builds = 0
kspace_style pppm/tip4p 1.0e-5
next nloop
jump SELF loop_start
run 10000 # 10ps
PPPM initialization ...
  extracting TIP4P info from pair style
  using 12-bit tables for long-range coulomb
  G vector (1/distance) = 0.32815664
  grid = 50 50 50
  stencil order = 5
  estimated absolute RMS force accuracy = 0.0035802102
  estimated relative force accuracy = 1.0781697e-05
  using double precision KISS FFT
  3d grid and FFT values/proc = 11424 2800
Generated 0 of 1 mixed pair_coeff terms from geometric mixing rule
Per MPI rank memory allocation (min/avg/max) = 10.92 | 11.04 | 11.12 Mbytes
   Step          Temp          TotEng         PotEng          Pxy           v_sxy         v_strain     v_viscosity  
    560000   429.35187     -37835.71      -48318.686     -1433.6116      0.14176541     140            0.00056706163
    561000   434.96984     -37547.121     -48167.265     -2314.7742      0.22780867     140.25         0.00091123469
    562000   431.81817     -37597.405     -48140.597     -2241.0204      0.22614212     140.5          0.00090456848
    563000   428.26749     -37781.115     -48237.615     -2079.5856      0.19790885     140.75         0.00079163541
    564000   434.47545     -37478.374     -48086.446     -2191.8903      0.21433508     141            0.00085734034
    565000   429.27811     -37731.047     -48212.223     -2058.6492      0.19837519     141.25         0.00079350076
    566000   426.6709      -37804.083     -48221.6       -1904.5226      0.19250178     141.5          0.00077000712
    567000   430.67932     -37527.223     -48042.61      -2371.3862      0.2337777      141.75         0.00093511082
    568000   432.08522     -37523.344     -48073.057     -2235.6439      0.22128315     142            0.00088513261
    569000   429.05994     -37747.157     -48223.005     -1783.8445      0.17827224     142.25         0.00071308897
    570000   431.94714     -37574.345     -48120.686     -2102.9048      0.21069707     142.5          0.0008427883 
Loop time of 44.9671 on 56 procs for 10000 steps with 12288 atoms

Performance: 19.214 ns/day, 1.249 hours/ns, 222.385 timesteps/s, 2.733 Matom-step/s
99.8% CPU use with 56 MPI tasks x no OpenMP threads

MPI task timing breakdown:
Section |  min time  |  avg time  |  max time  |%varavg| %total
---------------------------------------------------------------
Pair    | 18.559     | 19.814     | 21.01      |  13.6 | 44.06
Bond    | 0.0011958  | 0.0024944  | 0.0037885  |   1.1 |  0.01
Kspace  | 10.842     | 12.05      | 13.35      |  17.2 | 26.80
Neigh   | 4.4805     | 4.4845     | 4.4868     |   0.1 |  9.97
Comm    | 1.5371     | 1.6432     | 1.7712     |   4.4 |  3.65
Output  | 0.023042   | 0.040224   | 0.056631   |   5.0 |  0.09
Modify  | 5.1425     | 5.6541     | 6.6657     |  14.6 | 12.57
Other   |            | 1.279      |            |       |  2.84

Nlocal:        219.429 ave         235 max         199 min
Histogram: 1 2 6 8 3 9 4 13 7 3
Nghost:        7305.32 ave        7405 max        7244 min
Histogram: 5 9 5 14 9 6 4 0 2 2
Neighs:        96069.1 ave      104055 max       85646 min
Histogram: 1 0 6 5 10 5 11 10 5 3

Total # of neighbors = 5379869
Ave neighs/atom = 437.81486
Ave special neighs/atom = 2
Neighbor list builds = 380
Dangerous builds = 0
kspace_style pppm/tip4p 1.0e-5
next nloop
jump SELF loop_start
run 10000 # 10ps
PPPM initialization ...
  extracting TIP4P info from pair style
  using 12-bit tables for long-range coulomb
  G vector (1/distance) = 0.32815664
  grid = 50 75 50
  stencil order = 5
  estimated absolute RMS force accuracy = 0.0035802102
  estimated relative force accuracy = 1.0781697e-05
  using double precision KISS FFT
  3d grid and FFT values/proc = 15776 4000
Generated 0 of 1 mixed pair_coeff terms from geometric mixing rule
Per MPI rank memory allocation (min/avg/max) = 11.21 | 11.35 | 11.45 Mbytes
   Step          Temp          TotEng         PotEng          Pxy           v_sxy         v_strain     v_viscosity  
    570000   432.373       -37564.178     -48120.917     -1685.3736      0.16751878     142.5          0.00067007511
    571000   431.68976     -37593.49      -48133.547     -2301.0865      0.2294065      142.75         0.00091762601
    572000   436.04245     -37529.087     -48175.419     -2298.5598      0.22476685     143            0.00089906738
    573000   436.8523      -37424.163     -48090.268     -2015.2449      0.1961855      143.25         0.00078474202
    574000   431.79478     -37629.018     -48171.639     -2317.9474      0.23235921     143.5          0.00092943682
    575000   434.03232     -37649.216     -48246.468     -2197.1178      0.21863843     143.75         0.00087455372
    576000   425.05339     -37796.899     -48174.925     -2115.1755      0.20935523     144            0.0008374209 
    577000   432.82483     -37542.852     -48110.623     -2460.3751      0.24686346     144.25         0.00098745385
    578000   438.22199     -37511.852     -48211.399     -2219.6811      0.21808584     144.5          0.00087234334
    579000   434.0158      -37780.549     -48377.398     -2105.3351      0.20372207     144.75         0.00081488826
    580000   434.55052     -37561.231     -48171.137     -2368.6817      0.23248313     145            0.0009299325 
Loop time of 52.3057 on 56 procs for 10000 steps with 12288 atoms

Performance: 16.518 ns/day, 1.453 hours/ns, 191.184 timesteps/s, 2.349 Matom-step/s
99.8% CPU use with 56 MPI tasks x no OpenMP threads

MPI task timing breakdown:
Section |  min time  |  avg time  |  max time  |%varavg| %total
---------------------------------------------------------------
Pair    | 19.144     | 20.078     | 21.088     |  12.6 | 38.39
Bond    | 0.0016139  | 0.0029124  | 0.0043766  |   1.1 |  0.01
Kspace  | 15.106     | 16.124     | 17.051     |  14.0 | 30.83
Neigh   | 4.5313     | 4.5359     | 4.5387     |   0.1 |  8.67
Comm    | 1.6749     | 1.8231     | 1.9874     |   5.7 |  3.49
Output  | 0.023077   | 0.040124   | 0.056508   |   5.0 |  0.08
Modify  | 7.3824     | 8.0513     | 9.4391     |  17.6 | 15.39
Other   |            | 1.65       |            |       |  3.15

Nlocal:        219.429 ave         237 max         201 min
Histogram: 2 2 5 7 11 14 2 3 7 3
Nghost:        6845.11 ave        6923 max        6784 min
Histogram: 4 5 8 7 10 8 6 4 2 2
Neighs:        96061.5 ave      105026 max       86738 min
Histogram: 1 4 5 8 8 15 2 6 4 3

Total # of neighbors = 5379442
Ave neighs/atom = 437.78011
Ave special neighs/atom = 2
Neighbor list builds = 383
Dangerous builds = 0
kspace_style pppm/tip4p 1.0e-5
next nloop
jump SELF loop_start
run 10000 # 10ps
PPPM initialization ...
  extracting TIP4P info from pair style
  using 12-bit tables for long-range coulomb
  G vector (1/distance) = 0.32815664
  grid = 50 50 50
  stencil order = 5
  estimated absolute RMS force accuracy = 0.0035802102
  estimated relative force accuracy = 1.0781697e-05
  using double precision KISS FFT
  3d grid and FFT values/proc = 11424 2800
Generated 0 of 1 mixed pair_coeff terms from geometric mixing rule
Per MPI rank memory allocation (min/avg/max) = 10.92 | 11.04 | 11.12 Mbytes
   Step          Temp          TotEng         PotEng          Pxy           v_sxy         v_strain     v_viscosity  
    580000   434.64471     -37559.688     -48171.893     -1759.0878      0.1702769      145            0.00068110761
    581000   434.35497     -37618.009     -48223.14      -2183.7131      0.21579104     145.25         0.00086316415
    582000   433.96959     -37509.142     -48104.864     -2175.1435      0.21431408     145.5          0.00085725632
    583000   427.90302     -37619.817     -48067.418     -2036.2106      0.20481768     145.75         0.00081927074
    584000   432.35183     -37718.643     -48274.866     -2231.9017      0.21465773     146            0.00085863092
    585000   433.07682     -37650.827     -48224.751     -2165.672       0.21067554     146.25         0.00084270215
    586000   432.16498     -37517.763     -48069.423     -2179.7877      0.21524875     146.5          0.00086099501
    587000   426.46406     -37847.59      -48260.058     -2165.9282      0.21702509     146.75         0.00086810034
    588000   427.82543     -37803.18      -48248.887     -2361.3554      0.23859437     147            0.00095437749
    589000   428.39744     -37666.105     -48125.777     -2247.1631      0.22243903     147.25         0.00088975614
    590000   436.02683     -37521.429     -48167.38      -2258.9533      0.22103931     147.5          0.00088415725
Loop time of 44.8055 on 56 procs for 10000 steps with 12288 atoms

Performance: 19.283 ns/day, 1.245 hours/ns, 223.187 timesteps/s, 2.743 Matom-step/s
99.8% CPU use with 56 MPI tasks x no OpenMP threads

MPI task timing breakdown:
Section |  min time  |  avg time  |  max time  |%varavg| %total
---------------------------------------------------------------
Pair    | 18.212     | 19.792     | 21.229     |  13.7 | 44.17
Bond    | 0.0012893  | 0.0024858  | 0.003961   |   1.0 |  0.01
Kspace  | 10.416     | 11.855     | 13.319     |  17.4 | 26.46
Neigh   | 4.5013     | 4.5053     | 4.508      |   0.1 | 10.06
Comm    | 1.5262     | 1.6379     | 1.7783     |   4.2 |  3.66
Output  | 0.022861   | 0.040065   | 0.056578   |   5.0 |  0.09
Modify  | 5.1378     | 5.6583     | 6.6711     |  14.5 | 12.63
Other   |            | 1.315      |            |       |  2.93

Nlocal:        219.429 ave         238 max         198 min
Histogram: 3 2 3 9 5 11 8 2 8 5
Nghost:        7281.23 ave        7354 max        7186 min
Histogram: 3 3 1 7 5 9 12 6 6 4
Neighs:        96077.1 ave      105658 max       85210 min
Histogram: 3 2 5 8 6 12 5 4 9 2

Total # of neighbors = 5380315
Ave neighs/atom = 437.85116
Ave special neighs/atom = 2
Neighbor list builds = 381
Dangerous builds = 0
kspace_style pppm/tip4p 1.0e-5
next nloop
jump SELF loop_start
run 10000 # 10ps
PPPM initialization ...
  extracting TIP4P info from pair style
  using 12-bit tables for long-range coulomb
  G vector (1/distance) = 0.32815664
  grid = 50 75 50
  stencil order = 5
  estimated absolute RMS force accuracy = 0.0035802102
  estimated relative force accuracy = 1.0781697e-05
  using double precision KISS FFT
  3d grid and FFT values/proc = 15776 4000
Generated 0 of 1 mixed pair_coeff terms from geometric mixing rule
Per MPI rank memory allocation (min/avg/max) = 11.21 | 11.35 | 11.45 Mbytes
   Step          Temp          TotEng         PotEng          Pxy           v_sxy         v_strain     v_viscosity  
    590000   436.25049     -37514.262     -48165.674     -1750.9831      0.16908161     147.5          0.00067632645
    591000   432.75885     -37694.598     -48260.758     -1863.5581      0.1883384      147.75         0.00075335359
    592000   431.56088     -37758.286     -48295.197     -2125.9818      0.21413098     148            0.00085652393
    593000   435.62809     -37514.813     -48151.028     -2089.8244      0.19908154     148.25         0.00079632615
    594000   429.27498     -37710.066     -48191.165     -2059.8475      0.20398098     148.5          0.00081592394
    595000   434.41778     -37378.355     -47985.019     -2281.7964      0.22806824     148.75         0.00091227298
    596000   434.94724     -37616.143     -48235.734     -2294.4475      0.22899329     149            0.00091597316
    597000   435.21696     -37548.606     -48174.783     -2529.8605      0.24566959     149.25         0.00098267835
    598000   433.79259     -37502.669     -48094.069     -2221.3576      0.21756896     149.5          0.00087027583
    599000   434.98536     -37529.308     -48149.83      -2390.0613      0.24116634     149.75         0.00096466535
    600000   432.05656     -37683.1       -48232.113     -1955.1883      0.19478544     150            0.00077914177
Loop time of 52.3463 on 56 procs for 10000 steps with 12288 atoms

Performance: 16.505 ns/day, 1.454 hours/ns, 191.036 timesteps/s, 2.347 Matom-step/s
99.8% CPU use with 56 MPI tasks x no OpenMP threads

MPI task timing breakdown:
Section |  min time  |  avg time  |  max time  |%varavg| %total
---------------------------------------------------------------
Pair    | 18.643     | 20.047     | 21.332     |  13.9 | 38.30
Bond    | 0.0015925  | 0.0029337  | 0.0039917  |   1.1 |  0.01
Kspace  | 14.999     | 16.246     | 17.708     |  15.0 | 31.04
Neigh   | 4.5027     | 4.507      | 4.5096     |   0.1 |  8.61
Comm    | 1.6752     | 1.8115     | 1.986      |   5.7 |  3.46
Output  | 0.023292   | 0.040277   | 0.056643   |   4.9 |  0.08
Modify  | 7.3148     | 8.036      | 9.4304     |  17.9 | 15.35
Other   |            | 1.656      |            |       |  3.16

Nlocal:        219.429 ave         241 max         203 min
Histogram: 4 4 9 8 10 6 10 2 2 1
Nghost:        6850.04 ave        6932 max        6787 min
Histogram: 5 6 6 10 6 9 4 5 3 2
Neighs:          96051 ave      106705 max       87259 min
Histogram: 4 4 8 7 10 10 5 5 2 1

Total # of neighbors = 5378854
Ave neighs/atom = 437.73226
Ave special neighs/atom = 2
Neighbor list builds = 381
Dangerous builds = 0
kspace_style pppm/tip4p 1.0e-5
next nloop
jump SELF loop_start
run 10000 # 10ps
PPPM initialization ...
  extracting TIP4P info from pair style
  using 12-bit tables for long-range coulomb
  G vector (1/distance) = 0.32815664
  grid = 50 50 50
  stencil order = 5
  estimated absolute RMS force accuracy = 0.0035802102
  estimated relative force accuracy = 1.0781697e-05
  using double precision KISS FFT
  3d grid and FFT values/proc = 11424 2800
Generated 0 of 1 mixed pair_coeff terms from geometric mixing rule
Per MPI rank memory allocation (min/avg/max) = 10.92 | 11.04 | 11.12 Mbytes
   Step          Temp          TotEng         PotEng          Pxy           v_sxy         v_strain     v_viscosity  
    600000   432.41103     -37676.992     -48234.66      -1516.4389      0.14936031     150            0.00059744123
    601000   430.78392     -37589.102     -48107.043     -2345.7219      0.2264486      150.25         0.0009057944 
    602000   437.81901     -37297.982     -47987.69      -1897.8002      0.1854977      150.5          0.00074199079
    603000   432.05716     -37643.34      -48192.368     -2099.7567      0.20532836     150.75         0.00082131346
    604000   431.44        -37649.947     -48183.906     -2093.5847      0.20894438     151            0.0008357775 
    605000   434.12402     -37576.727     -48176.219     -2128.5642      0.2105364      151.25         0.00084214562
    606000   433.56903     -37698.663     -48284.605     -1750.9091      0.16908003     151.5          0.00067632012
    607000   434.86745     -37619.525     -48237.168     -2133.407       0.21314165     151.75         0.00085256661
    608000   433.80078     -37621.763     -48213.363     -1909.6577      0.18465175     152            0.00073860699
    609000   426.02578     -37760.365     -48162.131     -2176.3885      0.21840793     152.25         0.0008736317 
    610000   435.05024     -37607.714     -48229.82      -2323.0161      0.22675912     152.5          0.00090703647
Loop time of 44.9626 on 56 procs for 10000 steps with 12288 atoms

Performance: 19.216 ns/day, 1.249 hours/ns, 222.407 timesteps/s, 2.733 Matom-step/s
99.8% CPU use with 56 MPI tasks x no OpenMP threads

MPI task timing breakdown:
Section |  min time  |  avg time  |  max time  |%varavg| %total
---------------------------------------------------------------
Pair    | 18.434     | 19.795     | 21.023     |  14.3 | 44.02
Bond    | 0.0012601  | 0.0024881  | 0.0039315  |   1.1 |  0.01
Kspace  | 10.796     | 12.014     | 13.365     |  18.1 | 26.72
Neigh   | 4.5441     | 4.5479     | 4.5506     |   0.1 | 10.11
Comm    | 1.5402     | 1.6439     | 1.7725     |   4.3 |  3.66
Output  | 0.02308    | 0.040312   | 0.05673    |   5.0 |  0.09
Modify  | 5.1333     | 5.6544     | 6.6547     |  14.7 | 12.58
Other   |            | 1.266      |            |       |  2.81

Nlocal:        219.429 ave         240 max         202 min
Histogram: 5 3 9 7 7 7 7 6 2 3
Nghost:        7266.52 ave        7356 max        7187 min
Histogram: 2 3 9 10 8 8 5 7 3 1
Neighs:        96073.1 ave      104441 max       87206 min
Histogram: 4 3 5 9 5 8 7 4 7 4

Total # of neighbors = 5380092
Ave neighs/atom = 437.83301
Ave special neighs/atom = 2
Neighbor list builds = 384
Dangerous builds = 0
kspace_style pppm/tip4p 1.0e-5
next nloop
jump SELF loop_start
run 10000 # 10ps
PPPM initialization ...
  extracting TIP4P info from pair style
  using 12-bit tables for long-range coulomb
  G vector (1/distance) = 0.32815664
  grid = 50 75 50
  stencil order = 5
  estimated absolute RMS force accuracy = 0.0035802102
  estimated relative force accuracy = 1.0781697e-05
  using double precision KISS FFT
  3d grid and FFT values/proc = 15776 4000
Generated 0 of 1 mixed pair_coeff terms from geometric mixing rule
Per MPI rank memory allocation (min/avg/max) = 11.21 | 11.35 | 11.45 Mbytes
   Step          Temp          TotEng         PotEng          Pxy           v_sxy         v_strain     v_viscosity  
    610000   435.0506      -37603.972     -48226.087     -1806.9604      0.17349846     152.5          0.00069399385
    611000   434.99918     -37748.637     -48369.496     -2053.0175      0.20486677     152.75         0.00081946709
    612000   434.47808     -37599.249     -48207.386     -2167.5507      0.21268975     153            0.00085075902
    613000   429.08249     -37782.486     -48258.885     -2282.8641      0.22509138     153.25         0.00090036552
    614000   433.4857      -37543.594     -48127.501     -2000.7999      0.19791444     153.5          0.00079165777
    615000   429.5961      -37802.636     -48291.575     -1737.8228      0.17126185     153.75         0.00068504738
    616000   431.50555     -37578.136     -48113.696     -2520.3471      0.24589424     154            0.00098357697
    617000   428.63242     -37734.657     -48200.067     -2023.5157      0.19339636     154.25         0.00077358544
    618000   429.74705     -37718.988     -48211.612     -2140.3944      0.21534187     154.5          0.00086136749
    619000   428.83708     -37766.519     -48236.925     -2303.077       0.21933633     154.75         0.00087734532
    620000   428.5079      -37698.106     -48160.476     -2054.0036      0.20105154     155            0.00080420614
Loop time of 52.2766 on 56 procs for 10000 steps with 12288 atoms

Performance: 16.527 ns/day, 1.452 hours/ns, 191.290 timesteps/s, 2.351 Matom-step/s
99.8% CPU use with 56 MPI tasks x no OpenMP threads

MPI task timing breakdown:
Section |  min time  |  avg time  |  max time  |%varavg| %total
---------------------------------------------------------------
Pair    | 18.778     | 20.046     | 21.23      |  13.1 | 38.35
Bond    | 0.0016212  | 0.002905   | 0.0043552  |   1.2 |  0.01
Kspace  | 14.869     | 16.191     | 17.446     |  14.8 | 30.97
Neigh   | 4.4934     | 4.4977     | 4.5        |   0.1 |  8.60
Comm    | 1.6702     | 1.8144     | 1.9706     |   5.3 |  3.47
Output  | 0.023065   | 0.040121   | 0.056497   |   5.0 |  0.08
Modify  | 7.31       | 8.036      | 9.4195     |  17.7 | 15.37
Other   |            | 1.649      |            |       |  3.15

Nlocal:        219.429 ave         242 max         198 min
Histogram: 3 3 4 8 8 13 6 9 1 1
Nghost:        6847.73 ave        6912 max        6796 min
Histogram: 3 1 6 13 15 9 3 3 2 1
Neighs:        96047.2 ave      107826 max       86320 min
Histogram: 3 5 3 12 8 11 6 7 0 1

Total # of neighbors = 5378641
Ave neighs/atom = 437.71493
Ave special neighs/atom = 2
Neighbor list builds = 381
Dangerous builds = 0
kspace_style pppm/tip4p 1.0e-5
next nloop
jump SELF loop_start
run 10000 # 10ps
PPPM initialization ...
  extracting TIP4P info from pair style
  using 12-bit tables for long-range coulomb
  G vector (1/distance) = 0.32815664
  grid = 50 50 50
  stencil order = 5
  estimated absolute RMS force accuracy = 0.0035802102
  estimated relative force accuracy = 1.0781697e-05
  using double precision KISS FFT
  3d grid and FFT values/proc = 11424 2800
Generated 0 of 1 mixed pair_coeff terms from geometric mixing rule
Per MPI rank memory allocation (min/avg/max) = 10.92 | 11.04 | 11.12 Mbytes
   Step          Temp          TotEng         PotEng          Pxy           v_sxy         v_strain     v_viscosity  
    620000   428.77698     -37692.599     -48161.539     -1518.7354      0.14642776     155            0.00058571103
    621000   433.99547     -37633.666     -48230.019     -2075.5593      0.2149398      155.25         0.0008597592 
    622000   435.39034     -37496.436     -48126.846     -2053.2834      0.20027618     155.5          0.00080110473
    623000   427.18766     -37799.151     -48229.286     -1824.9481      0.1782667      155.75         0.00071306682
    624000   433.57502     -37703.194     -48289.282     -2110.158       0.20901491     156            0.00083605964
    625000   427.33883     -37796.336     -48230.162     -2223.4303      0.22298846     156.25         0.00089195382
    626000   432.32279     -37543.291     -48098.804     -2270.8457      0.21748878     156.5          0.00086995511
    627000   429.02294     -37762.597     -48237.542     -1913.3586      0.1892832      156.75         0.0007571328 
    628000   431.42287     -37699.293     -48232.834     -2299.4329      0.22476592     157            0.00089906367
    629000   429.78346     -37735.584     -48229.097     -2306.1192      0.22658701     157.25         0.00090634803
    630000   429.7712      -37800.458     -48293.672     -2225.8711      0.22261331     157.5          0.00089045323
Loop time of 44.7522 on 56 procs for 10000 steps with 12288 atoms

Performance: 19.306 ns/day, 1.243 hours/ns, 223.453 timesteps/s, 2.746 Matom-step/s
99.8% CPU use with 56 MPI tasks x no OpenMP threads

MPI task timing breakdown:
Section |  min time  |  avg time  |  max time  |%varavg| %total
---------------------------------------------------------------
Pair    | 18.838     | 19.776     | 20.704     |   9.1 | 44.19
Bond    | 0.0012671  | 0.0024752  | 0.0035059  |   1.0 |  0.01
Kspace  | 10.903     | 11.836     | 12.841     |  11.6 | 26.45
Neigh   | 4.5257     | 4.5297     | 4.5326     |   0.1 | 10.12
Comm    | 1.5303     | 1.6442     | 1.787      |   4.5 |  3.67
Output  | 0.023231   | 0.04028    | 0.056691   |   5.0 |  0.09
Modify  | 5.1295     | 5.6575     | 6.669      |  14.6 | 12.64
Other   |            | 1.266      |            |       |  2.83

Nlocal:        219.429 ave         242 max         204 min
Histogram: 5 8 5 12 7 7 5 4 2 1
Nghost:         7265.2 ave        7332 max        7193 min
Histogram: 2 3 3 11 10 9 4 6 2 6
Neighs:        96067.4 ave      107892 max       87431 min
Histogram: 3 8 5 11 9 8 5 3 2 2

Total # of neighbors = 5379776
Ave neighs/atom = 437.80729
Ave special neighs/atom = 2
Neighbor list builds = 381
Dangerous builds = 0
kspace_style pppm/tip4p 1.0e-5
next nloop
jump SELF loop_start
run 10000 # 10ps
PPPM initialization ...
  extracting TIP4P info from pair style
  using 12-bit tables for long-range coulomb
  G vector (1/distance) = 0.32815664
  grid = 50 75 50
  stencil order = 5
  estimated absolute RMS force accuracy = 0.0035802102
  estimated relative force accuracy = 1.0781697e-05
  using double precision KISS FFT
  3d grid and FFT values/proc = 15776 4000
Generated 0 of 1 mixed pair_coeff terms from geometric mixing rule
Per MPI rank memory allocation (min/avg/max) = 11.21 | 11.35 | 11.45 Mbytes
   Step          Temp          TotEng         PotEng          Pxy           v_sxy         v_strain     v_viscosity  
    630000   429.7691      -37800.552     -48293.715     -1697.6272      0.16821174     157.5          0.00067284695
    631000   426.99191     -37946.735     -48372.091     -1893.9341      0.18495031     157.75         0.00073980124
    632000   433.6282      -37565.255     -48152.641     -2209.2137      0.20923836     158            0.00083695344
    633000   426.13396     -37841.567     -48245.975     -2183.0938      0.21337966     158.25         0.00085351864
    634000   430.55468     -37606.307     -48118.65      -2302.3575      0.22620787     158.5          0.00090483149
    635000   435.06923     -37623.957     -48246.527     -2395.8913      0.23533802     158.75         0.00094135206
    636000   428.52333     -37853.861     -48316.608     -2349.6425      0.23259671     159            0.00093038684
    637000   431.87493     -37514.237     -48058.816     -2125.5694      0.20977047     159.25         0.00083908188
    638000   429.41029     -37771.845     -48256.248     -2114.8386      0.20869682     159.5          0.00083478727
    639000   434.82457     -37560.745     -48177.341     -2053.8048      0.20179273     159.75         0.00080717094
    640000   430.82278     -37729.404     -48248.294     -2429.8371      0.2435327      160            0.00097413079
Loop time of 52.2704 on 56 procs for 10000 steps with 12288 atoms

Performance: 16.529 ns/day, 1.452 hours/ns, 191.313 timesteps/s, 2.351 Matom-step/s
99.8% CPU use with 56 MPI tasks x no OpenMP threads

MPI task timing breakdown:
Section |  min time  |  avg time  |  max time  |%varavg| %total
---------------------------------------------------------------
Pair    | 18.902     | 20.045     | 21.193     |  12.5 | 38.35
Bond    | 0.0016038  | 0.0028895  | 0.0040852  |   1.2 |  0.01
Kspace  | 15.005     | 16.122     | 17.188     |  13.8 | 30.84
Neigh   | 4.5253     | 4.5296     | 4.532      |   0.1 |  8.67
Comm    | 1.658      | 1.8141     | 2.042      |   6.2 |  3.47
Output  | 0.023392   | 0.040477   | 0.056865   |   4.9 |  0.08
Modify  | 7.35       | 8.0561     | 9.4486     |  17.8 | 15.41
Other   |            | 1.66       |            |       |  3.18

Nlocal:        219.429 ave         233 max         197 min
Histogram: 1 2 0 7 3 8 14 8 7 6
Nghost:        6839.02 ave        6901 max        6783 min
Histogram: 2 3 6 10 9 11 7 5 2 1
Neighs:        96044.4 ave      101904 max       85254 min
Histogram: 1 2 1 4 7 5 14 6 7 9

Total # of neighbors = 5378488
Ave neighs/atom = 437.70247
Ave special neighs/atom = 2
Neighbor list builds = 383
Dangerous builds = 0
kspace_style pppm/tip4p 1.0e-5
next nloop
jump SELF loop_start
run 10000 # 10ps
PPPM initialization ...
  extracting TIP4P info from pair style
  using 12-bit tables for long-range coulomb
  G vector (1/distance) = 0.32815664
  grid = 50 50 50
  stencil order = 5
  estimated absolute RMS force accuracy = 0.0035802102
  estimated relative force accuracy = 1.0781697e-05
  using double precision KISS FFT
  3d grid and FFT values/proc = 11424 2800
Generated 0 of 1 mixed pair_coeff terms from geometric mixing rule
Per MPI rank memory allocation (min/avg/max) = 10.92 | 11.04 | 11.12 Mbytes
   Step          Temp          TotEng         PotEng          Pxy           v_sxy         v_strain     v_viscosity  
    640000   430.6174      -37733.138     -48247.013     -1949.8501      0.1944944      160            0.0007779776 
    641000   434.90416     -37394.503     -48013.043     -2321.3242      0.22303968     160.25         0.00089215874
    642000   430.94147     -37643.912     -48165.699     -1947.6594      0.18972487     160.5          0.00075889946
    643000   429.33581     -37636.402     -48118.986     -2067.3584      0.2034493      160.75         0.00081379719
    644000   432.52306     -37682.529     -48242.932     -2478.9404      0.24271756     161            0.00097087025
    645000   436.42518     -37459.546     -48115.223     -2308.2435      0.22158329     161.25         0.00088633314
    646000   434.95193     -37534.57      -48154.276     -2033.6269      0.2001744      161.5          0.00080069761
    647000   437.74882     -37494.008     -48182.002     -1984.7752      0.1936822      161.75         0.00077472879
    648000   428.20937     -37752.078     -48207.158     -2109.1989      0.21131195     162            0.00084524781
    649000   436.8454      -37624.896     -48290.833     -1987.4124      0.19942107     162.25         0.00079768426
    650000   435.36539     -37542.098     -48171.899     -2345.8083      0.22720609     162.5          0.00090882437
Loop time of 44.9428 on 56 procs for 10000 steps with 12288 atoms

Performance: 19.224 ns/day, 1.248 hours/ns, 222.505 timesteps/s, 2.734 Matom-step/s
99.8% CPU use with 56 MPI tasks x no OpenMP threads

MPI task timing breakdown:
Section |  min time  |  avg time  |  max time  |%varavg| %total
---------------------------------------------------------------
Pair    | 18.536     | 19.766     | 21.067     |  12.8 | 43.98
Bond    | 0.0012884  | 0.0024698  | 0.0036826  |   1.1 |  0.01
Kspace  | 10.733     | 12.045     | 13.174     |  16.1 | 26.80
Neigh   | 4.4978     | 4.5017     | 4.5047     |   0.1 | 10.02
Comm    | 1.5363     | 1.6494     | 1.7915     |   4.7 |  3.67
Output  | 0.023214   | 0.040399   | 0.056936   |   5.0 |  0.09
Modify  | 5.1353     | 5.6541     | 6.6769     |  14.6 | 12.58
Other   |            | 1.284      |            |       |  2.86

Nlocal:        219.429 ave         235 max         203 min
Histogram: 2 2 6 6 12 11 7 2 4 4
Nghost:        7277.98 ave        7360 max        7199 min
Histogram: 2 10 2 6 7 8 8 9 1 3
Neighs:        96061.7 ave      104195 max       87274 min
Histogram: 2 2 5 7 11 9 9 5 2 4

Total # of neighbors = 5379457
Ave neighs/atom = 437.78133
Ave special neighs/atom = 2
Neighbor list builds = 381
Dangerous builds = 0
kspace_style pppm/tip4p 1.0e-5
next nloop
jump SELF loop_start
run 10000 # 10ps
PPPM initialization ...
  extracting TIP4P info from pair style
  using 12-bit tables for long-range coulomb
  G vector (1/distance) = 0.32815664
  grid = 50 75 50
  stencil order = 5
  estimated absolute RMS force accuracy = 0.0035802102
  estimated relative force accuracy = 1.0781697e-05
  using double precision KISS FFT
  3d grid and FFT values/proc = 15776 4000
Generated 0 of 1 mixed pair_coeff terms from geometric mixing rule
Per MPI rank memory allocation (min/avg/max) = 11.21 | 11.35 | 11.45 Mbytes
   Step          Temp          TotEng         PotEng          Pxy           v_sxy         v_strain     v_viscosity  
    650000   435.26916     -37544.612     -48172.063     -1918.1602      0.1836651      162.5          0.00073466041
    651000   431.8618      -37552.446     -48096.704     -2621.2334      0.26111142     162.75         0.0010444457 
    652000   437.76943     -37418.901     -48107.398     -2110.4467      0.20805478     163            0.00083221913
    653000   430.23981     -37780.339     -48284.994     -2042.3957      0.20121694     163.25         0.00080486777
    654000   433.66886     -37732.657     -48321.036     -2147.7184      0.21094561     163.5          0.00084378245
    655000   435.198       -37553.112     -48178.826     -2117.1378      0.2067428      163.75         0.0008269712 
    656000   430.30752     -37673.718     -48180.027     -2138.751       0.21389926     164            0.00085559703
    657000   429.19243     -37637.975     -48117.058     -2066.1738      0.20156713     164.25         0.00080626852
    658000   427.96594     -37693.722     -48142.859     -2213.6612      0.21677566     164.5          0.00086710265
    659000   435.51508     -37393.175     -48026.631     -2115.9835      0.20882863     164.75         0.00083531452
    660000   427.21978     -37830.546     -48261.465     -2336.0991      0.22647632     165            0.0009059053 
Loop time of 51.9825 on 56 procs for 10000 steps with 12288 atoms

Performance: 16.621 ns/day, 1.444 hours/ns, 192.372 timesteps/s, 2.364 Matom-step/s
99.8% CPU use with 56 MPI tasks x no OpenMP threads

MPI task timing breakdown:
Section |  min time  |  avg time  |  max time  |%varavg| %total
---------------------------------------------------------------
Pair    | 18.949     | 20.051     | 21.181     |  11.7 | 38.57
Bond    | 0.0016032  | 0.0028875  | 0.0043431  |   1.2 |  0.01
Kspace  | 14.82      | 15.914     | 16.844     |  12.7 | 30.61
Neigh   | 4.4817     | 4.4857     | 4.4882     |   0.1 |  8.63
Comm    | 1.6503     | 1.8178     | 2.0757     |   6.5 |  3.50
Output  | 0.022931   | 0.039944   | 0.05626    |   4.9 |  0.08
Modify  | 7.3378     | 8.0379     | 9.4103     |  17.9 | 15.46
Other   |            | 1.633      |            |       |  3.14

Nlocal:        219.429 ave         239 max         194 min
Histogram: 1 1 5 4 11 5 14 5 6 4
Nghost:        6852.86 ave        6925 max        6783 min
Histogram: 8 4 5 2 6 6 12 6 3 4
Neighs:        96040.8 ave      104667 max       83066 min
Histogram: 1 1 4 6 6 8 10 9 7 4

Total # of neighbors = 5378282
Ave neighs/atom = 437.68571
Ave special neighs/atom = 2
Neighbor list builds = 381
Dangerous builds = 0
kspace_style pppm/tip4p 1.0e-5
next nloop
jump SELF loop_start
run 10000 # 10ps
PPPM initialization ...
  extracting TIP4P info from pair style
  using 12-bit tables for long-range coulomb
  G vector (1/distance) = 0.32815664
  grid = 50 50 50
  stencil order = 5
  estimated absolute RMS force accuracy = 0.0035802102
  estimated relative force accuracy = 1.0781697e-05
  using double precision KISS FFT
  3d grid and FFT values/proc = 11424 2800
Generated 0 of 1 mixed pair_coeff terms from geometric mixing rule
Per MPI rank memory allocation (min/avg/max) = 10.92 | 11.04 | 11.12 Mbytes
   Step          Temp          TotEng         PotEng          Pxy           v_sxy         v_strain     v_viscosity  
    660000   427.42817     -37823.975     -48259.982     -1674.0884      0.15925781     165            0.00063703125
    661000   428.97596     -37763.094     -48236.892     -2075.537       0.20547227     165.25         0.00082188906
    662000   428.75827     -37790.867     -48259.35      -1935.4333      0.18772648     165.5          0.00075090593
    663000   437.44846     -37178.896     -47859.557     -2179.5531      0.20876456     165.75         0.00083505823
    664000   431.68267     -37735.946     -48275.83      -2148.575       0.21566832     166            0.00086267327
    665000   436.38238     -37586.982     -48241.614     -1971.7115      0.19157589     166.25         0.00076630358
    666000   436.3642      -37391.198     -48045.386     -2221.222       0.22309165     166.5          0.00089236659
    667000   435.5883      -37525.429     -48160.672     -2291.9375      0.23108879     166.75         0.00092435518
    668000   429.92372     -37636.982     -48133.92      -2273.043       0.2226232      167            0.00089049278
    669000   432.42988     -37498.574     -48056.702     -1822.2142      0.18434645     167.25         0.00073738578
    670000   436.35047     -37487.404     -48141.257     -2332.2791      0.22884993     167.5          0.00091539971
Loop time of 44.921 on 56 procs for 10000 steps with 12288 atoms

Performance: 19.234 ns/day, 1.248 hours/ns, 222.613 timesteps/s, 2.735 Matom-step/s
99.8% CPU use with 56 MPI tasks x no OpenMP threads

MPI task timing breakdown:
Section |  min time  |  avg time  |  max time  |%varavg| %total
---------------------------------------------------------------
Pair    | 18.654     | 19.77      | 20.98      |  12.3 | 44.01
Bond    | 0.0012826  | 0.0024989  | 0.0039525  |   1.1 |  0.01
Kspace  | 10.777     | 11.987     | 13.116     |  15.3 | 26.68
Neigh   | 4.5359     | 4.54       | 4.5429     |   0.1 | 10.11
Comm    | 1.5356     | 1.6481     | 1.7834     |   4.4 |  3.67
Output  | 0.023138   | 0.040349   | 0.056739   |   5.0 |  0.09
Modify  | 5.1427     | 5.6542     | 6.6689     |  14.6 | 12.59
Other   |            | 1.279      |            |       |  2.85

Nlocal:        219.429 ave         241 max         204 min
Histogram: 6 5 9 6 8 9 4 7 1 1
Nghost:        7281.46 ave        7380 max        7221 min
Histogram: 6 8 7 8 11 8 3 2 2 1
Neighs:        96053.1 ave      107549 max       88353 min
Histogram: 6 5 9 7 9 12 2 5 0 1

Total # of neighbors = 5378975
Ave neighs/atom = 437.74211
Ave special neighs/atom = 2
Neighbor list builds = 383
Dangerous builds = 0
kspace_style pppm/tip4p 1.0e-5
next nloop
jump SELF loop_start
run 10000 # 10ps
PPPM initialization ...
  extracting TIP4P info from pair style
  using 12-bit tables for long-range coulomb
  G vector (1/distance) = 0.32815664
  grid = 50 75 50
  stencil order = 5
  estimated absolute RMS force accuracy = 0.0035802102
  estimated relative force accuracy = 1.0781697e-05
  using double precision KISS FFT
  3d grid and FFT values/proc = 15776 4000
Generated 0 of 1 mixed pair_coeff terms from geometric mixing rule
Per MPI rank memory allocation (min/avg/max) = 11.21 | 11.35 | 11.45 Mbytes
   Step          Temp          TotEng         PotEng          Pxy           v_sxy         v_strain     v_viscosity  
    670000   436.50203     -37484.323     -48141.876     -1786.9857      0.1732731      167.5          0.00069309239
    671000   433.07732     -37726.925     -48300.86      -2204.8234      0.21418145     167.75         0.0008567258 
    672000   435.62236     -37439.266     -48075.341     -2493.724       0.24711386     168            0.00098845544
    673000   434.39278     -37625.595     -48231.649     -2351.3778      0.23057708     168.25         0.00092230831
    674000   434.14598     -37496.713     -48096.741     -2151.3006      0.20996881     168.5          0.00083987526
    675000   431.4978      -37664.461     -48199.831     -2240.4747      0.22145565     168.75         0.00088582262
    676000   431.84533     -37824.235     -48368.091     -2099.3586      0.20939017     169            0.00083756067
    677000   434.80848     -37567.271     -48183.475     -2263.4339      0.22374116     169.25         0.00089496463
    678000   434.15497     -37610.547     -48210.794     -2212.5563      0.22346894     169.5          0.00089387576
    679000   433.74814     -37740.003     -48330.317     -2063.8644      0.20142417     169.75         0.00080569667
    680000   432.96482     -37586.884     -48158.073     -2416.3685      0.23520612     170            0.00094082449
Loop time of 52.4214 on 56 procs for 10000 steps with 12288 atoms

Performance: 16.482 ns/day, 1.456 hours/ns, 190.762 timesteps/s, 2.344 Matom-step/s
99.7% CPU use with 56 MPI tasks x no OpenMP threads

MPI task timing breakdown:
Section |  min time  |  avg time  |  max time  |%varavg| %total
---------------------------------------------------------------
Pair    | 18.737     | 20.024     | 21.214     |  13.5 | 38.20
Bond    | 0.0016198  | 0.0028834  | 0.0043424  |   1.2 |  0.01
Kspace  | 15.158     | 16.261     | 17.453     |  14.3 | 31.02
Neigh   | 4.5652     | 4.569      | 4.5715     |   0.1 |  8.72
Comm    | 1.6713     | 1.8238     | 2.0234     |   6.1 |  3.48
Output  | 0.023567   | 0.040632   | 0.057012   |   4.9 |  0.08
Modify  | 7.3331     | 8.0496     | 9.4421     |  17.9 | 15.36
Other   |            | 1.651      |            |       |  3.15

Nlocal:        219.429 ave         237 max         197 min
Histogram: 1 2 4 5 8 12 7 6 6 5
Nghost:        6836.46 ave        6928 max        6756 min
Histogram: 4 0 7 8 12 10 11 2 0 2
Neighs:        96072.1 ave      104148 max       84136 min
Histogram: 1 1 5 3 5 12 11 6 7 5

Total # of neighbors = 5380039
Ave neighs/atom = 437.82869
Ave special neighs/atom = 2
Neighbor list builds = 383
Dangerous builds = 0
kspace_style pppm/tip4p 1.0e-5
next nloop
jump SELF loop_start
run 10000 # 10ps
PPPM initialization ...
  extracting TIP4P info from pair style
  using 12-bit tables for long-range coulomb
  G vector (1/distance) = 0.32815664
  grid = 50 50 50
  stencil order = 5
  estimated absolute RMS force accuracy = 0.0035802102
  estimated relative force accuracy = 1.0781697e-05
  using double precision KISS FFT
  3d grid and FFT values/proc = 11424 2800
Generated 0 of 1 mixed pair_coeff terms from geometric mixing rule
Per MPI rank memory allocation (min/avg/max) = 10.92 | 11.04 | 11.13 Mbytes
   Step          Temp          TotEng         PotEng          Pxy           v_sxy         v_strain     v_viscosity  
    680000   433.17801     -37581.567     -48157.961     -1930.9249      0.18553723     170            0.00074214891
    681000   428.54315     -37778.189     -48241.419     -1901.415       0.18428499     170.25         0.00073713995
    682000   430.93214     -37607.439     -48128.999     -2212.6241      0.21895408     170.5          0.00087581631
    683000   434.19368     -37483.128     -48084.32      -2000.9429      0.19824047     170.75         0.00079296188
    684000   427.21701     -37730.102     -48160.953     -1853.1609      0.18481997     171            0.00073927987
    685000   435.10675     -37557.305     -48180.791     -1840.2515      0.17687415     171.25         0.00070749661
    686000   433.49009     -37694.475     -48278.489     -1955.4129      0.18698538     171.5          0.00074794153
    687000   433.72449     -37739.229     -48328.966     -1781.2379      0.17615683     171.75         0.00070462731
    688000   437.5714      -37569.656     -48253.318     -2016.4055      0.19468456     172            0.00077873823
    689000   431.36379     -37599.15      -48131.249     -2226.202       0.22326514     172.25         0.00089306057
    690000   430.68789     -37700.106     -48215.702     -2107.5127      0.20602668     172.5          0.00082410671
Loop time of 44.7779 on 56 procs for 10000 steps with 12288 atoms

Performance: 19.295 ns/day, 1.244 hours/ns, 223.324 timesteps/s, 2.744 Matom-step/s
99.7% CPU use with 56 MPI tasks x no OpenMP threads

MPI task timing breakdown:
Section |  min time  |  avg time  |  max time  |%varavg| %total
---------------------------------------------------------------
Pair    | 18.635     | 19.758     | 20.851     |  12.8 | 44.12
Bond    | 0.0012803  | 0.0024412  | 0.0038173  |   1.1 |  0.01
Kspace  | 10.892     | 11.838     | 12.908     |  15.8 | 26.44
Neigh   | 4.5353     | 4.539      | 4.5415     |   0.1 | 10.14
Comm    | 1.5485     | 1.6553     | 1.7966     |   4.7 |  3.70
Output  | 0.023222   | 0.040547   | 0.057091   |   5.0 |  0.09
Modify  | 5.1571     | 5.666      | 6.668      |  14.6 | 12.65
Other   |            | 1.28       |            |       |  2.86

Nlocal:        219.429 ave         238 max         196 min
Histogram: 1 1 5 6 11 7 11 6 4 4
Nghost:         7281.7 ave        7334 max        7229 min
Histogram: 3 3 4 9 6 12 9 5 4 1
Neighs:        96042.9 ave      105025 max       85824 min
Histogram: 1 3 5 8 8 9 7 9 2 4

Total # of neighbors = 5378405
Ave neighs/atom = 437.69572
Ave special neighs/atom = 2
Neighbor list builds = 385
Dangerous builds = 0
kspace_style pppm/tip4p 1.0e-5
next nloop
jump SELF loop_start
run 10000 # 10ps
PPPM initialization ...
  extracting TIP4P info from pair style
  using 12-bit tables for long-range coulomb
  G vector (1/distance) = 0.32815664
  grid = 50 75 50
  stencil order = 5
  estimated absolute RMS force accuracy = 0.0035802102
  estimated relative force accuracy = 1.0781697e-05
  using double precision KISS FFT
  3d grid and FFT values/proc = 15776 4000
Generated 0 of 1 mixed pair_coeff terms from geometric mixing rule
Per MPI rank memory allocation (min/avg/max) = 11.21 | 11.35 | 11.45 Mbytes
   Step          Temp          TotEng         PotEng          Pxy           v_sxy         v_strain     v_viscosity  
    690000   430.68789     -37699.698     -48215.294     -1690.9192      0.16381534     172.5          0.00065526137
    691000   431.66976     -37640.587     -48180.156     -2284.8231      0.2254561      172.75         0.00090182438
    692000   432.10149     -37544.064     -48094.175     -2240.5643      0.22449196     173            0.00089796785
    693000   432.50696     -37568.702     -48128.712     -2157.3513      0.21285582     173.25         0.00085142329
    694000   437.31398     -37462.908     -48140.285     -1959.6503      0.18930802     173.5          0.00075723208
    695000   437.47369     -37597.049     -48278.326     -1992.6144      0.19644546     173.75         0.00078578184
    696000   435.93515     -37565.654     -48209.366     -2102.9422      0.21023488     174            0.00084093952
    697000   433.93937     -37753.762     -48348.746     -2132.512       0.20619046     174.25         0.00082476183
    698000   434.28221     -37675.653     -48279.007     -2124.9234      0.21398573     174.5          0.00085594294
    699000   433.55721     -37667.197     -48252.85      -2204.6431      0.22219222     174.75         0.00088876887
    700000   437.65482     -37617.806     -48303.505     -2051.72        0.19872387     175            0.00079489548
Loop time of 52.0251 on 56 procs for 10000 steps with 12288 atoms

Performance: 16.607 ns/day, 1.445 hours/ns, 192.215 timesteps/s, 2.362 Matom-step/s
99.8% CPU use with 56 MPI tasks x no OpenMP threads

MPI task timing breakdown:
Section |  min time  |  avg time  |  max time  |%varavg| %total
---------------------------------------------------------------
Pair    | 18.956     | 20.022     | 20.957     |  11.1 | 38.49
Bond    | 0.0016121  | 0.0028547  | 0.0043642  |   1.2 |  0.01
Kspace  | 15.114     | 16.003     | 16.986     |  12.0 | 30.76
Neigh   | 4.4801     | 4.4845     | 4.4868     |   0.1 |  8.62
Comm    | 1.6534     | 1.8147     | 2.0309     |   6.0 |  3.49
Output  | 0.02305    | 0.040292   | 0.05677    |   5.0 |  0.08
Modify  | 7.3136     | 8.0347     | 9.3937     |  17.8 | 15.44
Other   |            | 1.623      |            |       |  3.12

Nlocal:        219.429 ave         239 max         202 min
Histogram: 5 3 6 5 13 9 6 3 2 4
Nghost:         6857.5 ave        6903 max        6799 min
Histogram: 2 5 2 9 6 4 6 13 3 6
Neighs:        96070.1 ave      106087 max       86505 min
Histogram: 2 3 6 9 13 6 7 4 1 5

Total # of neighbors = 5379924
Ave neighs/atom = 437.81934
Ave special neighs/atom = 2
Neighbor list builds = 381
Dangerous builds = 0
kspace_style pppm/tip4p 1.0e-5
next nloop
jump SELF loop_start
run 10000 # 10ps
PPPM initialization ...
  extracting TIP4P info from pair style
  using 12-bit tables for long-range coulomb
  G vector (1/distance) = 0.32815664
  grid = 50 50 50
  stencil order = 5
  estimated absolute RMS force accuracy = 0.0035802102
  estimated relative force accuracy = 1.0781697e-05
  using double precision KISS FFT
  3d grid and FFT values/proc = 11424 2800
Generated 0 of 1 mixed pair_coeff terms from geometric mixing rule
Per MPI rank memory allocation (min/avg/max) = 10.92 | 11.04 | 11.13 Mbytes
   Step          Temp          TotEng         PotEng          Pxy           v_sxy         v_strain     v_viscosity  
    700000   437.9137      -37612.754     -48304.774     -1547.4639      0.14741134     175            0.00058964537
    701000   433.54274     -37576.512     -48161.811     -2273.6749      0.21909536     175.25         0.00087638143
    702000   433.248       -37473.355     -48051.458     -2169.2296      0.21038782     175.5          0.00084155129
    703000   428.91374     -37744.303     -48216.582     -2322.5934      0.23455702     175.75         0.00093822807
    704000   429.18353     -37842.412     -48321.278     -2142.606       0.2164142      176            0.00086565679
    705000   435.38439     -37416.653     -48046.918     -2224.8485      0.21848579     176.25         0.00087394315
    706000   428.85203     -37589.036     -48059.808     -2321.1577      0.22899587     176.5          0.00091598348
    707000   435.34193     -37389.026     -48018.254     -2581.351       0.25248174     176.75         0.001009927  
    708000   431.16924     -37686.777     -48214.125     -2325.8633      0.23168105     177            0.0009267242 
    709000   433.1985      -37534.588     -48111.482     -2092.6968      0.20575369     177.25         0.00082301477
    710000   431.23364     -37785.923     -48314.844     -2204.1184      0.21554872     177.5          0.00086219487
Loop time of 44.8441 on 56 procs for 10000 steps with 12288 atoms

Performance: 19.267 ns/day, 1.246 hours/ns, 222.995 timesteps/s, 2.740 Matom-step/s
99.8% CPU use with 56 MPI tasks x no OpenMP threads

MPI task timing breakdown:
Section |  min time  |  avg time  |  max time  |%varavg| %total
---------------------------------------------------------------
Pair    | 18.107     | 19.738     | 21.083     |  13.9 | 44.02
Bond    | 0.0012348  | 0.0024486  | 0.0039351  |   1.1 |  0.01
Kspace  | 10.582     | 11.954     | 13.528     |  17.6 | 26.66
Neigh   | 4.5413     | 4.5454     | 4.5476     |   0.1 | 10.14
Comm    | 1.5329     | 1.6399     | 1.7833     |   4.5 |  3.66
Output  | 0.023172   | 0.040346   | 0.056826   |   5.0 |  0.09
Modify  | 5.1471     | 5.6558     | 6.6742     |  14.6 | 12.61
Other   |            | 1.269      |            |       |  2.83

Nlocal:        219.429 ave         235 max         200 min
Histogram: 2 2 3 5 9 11 7 5 11 1
Nghost:        7290.75 ave        7369 max        7191 min
Histogram: 1 2 5 7 4 11 10 9 5 2
Neighs:        96051.3 ave      104007 max       85755 min
Histogram: 2 2 2 3 13 9 8 8 8 1

Total # of neighbors = 5378875
Ave neighs/atom = 437.73397
Ave special neighs/atom = 2
Neighbor list builds = 384
Dangerous builds = 0
kspace_style pppm/tip4p 1.0e-5
next nloop
jump SELF loop_start
run 10000 # 10ps
PPPM initialization ...
  extracting TIP4P info from pair style
  using 12-bit tables for long-range coulomb
  G vector (1/distance) = 0.32815664
  grid = 50 75 50
  stencil order = 5
  estimated absolute RMS force accuracy = 0.0035802102
  estimated relative force accuracy = 1.0781697e-05
  using double precision KISS FFT
  3d grid and FFT values/proc = 15776 4000
Generated 0 of 1 mixed pair_coeff terms from geometric mixing rule
Per MPI rank memory allocation (min/avg/max) = 11.21 | 11.35 | 11.45 Mbytes
   Step          Temp          TotEng         PotEng          Pxy           v_sxy         v_strain     v_viscosity  
    710000   431.23364     -37786.284     -48315.205     -1695.9254      0.16405606     177.5          0.00065622424
    711000   431.42328     -37841.641     -48375.192     -2181.0085      0.2173494      177.75         0.00086939759
    712000   435.72382     -37729.582     -48368.134     -2002.3798      0.19837582     178            0.00079350328
    713000   428.55835     -37907.206     -48370.807     -2238.0417      0.22201411     178.25         0.00088805645
    714000   432.78515     -37505.667     -48072.47      -2111.6344      0.21126229     178.5          0.00084504917
    715000   430.09439     -37678.955     -48180.06      -2430.6052      0.23558577     178.75         0.0009423431 
    716000   434.93943     -37594.328     -48213.729     -2236.5526      0.21558569     179            0.00086234275
    717000   431.62993     -37613.748     -48152.345     -2452.7387      0.23765137     179.25         0.00095060546
    718000   433.34602     -37551.591     -48132.087     -2333.2625      0.2293848      179.5          0.0009175392 
    719000   437.79987     -37423.603     -48112.843     -2217.5194      0.21703864     179.75         0.00086815455
    720000   432.12777     -37827.308     -48378.06      -2459.9723      0.24332815     180            0.00097331259
Loop time of 52.2827 on 56 procs for 10000 steps with 12288 atoms

Performance: 16.526 ns/day, 1.452 hours/ns, 191.268 timesteps/s, 2.350 Matom-step/s
99.8% CPU use with 56 MPI tasks x no OpenMP threads

MPI task timing breakdown:
Section |  min time  |  avg time  |  max time  |%varavg| %total
---------------------------------------------------------------
Pair    | 18.806     | 20.015     | 21.318     |  13.5 | 38.28
Bond    | 0.0015982  | 0.0028334  | 0.0043312  |   1.2 |  0.01
Kspace  | 14.965     | 16.205     | 17.224     |  14.5 | 31.00
Neigh   | 4.5288     | 4.5327     | 4.5349     |   0.1 |  8.67
Comm    | 1.671      | 1.8185     | 2.0161     |   6.2 |  3.48
Output  | 0.023341   | 0.040376   | 0.05671    |   4.9 |  0.08
Modify  | 7.2987     | 8.0372     | 9.4029     |  17.7 | 15.37
Other   |            | 1.631      |            |       |  3.12

Nlocal:        219.429 ave         240 max         192 min
Histogram: 1 1 2 5 7 13 14 8 3 2
Nghost:         6863.8 ave        6907 max        6816 min
Histogram: 2 3 11 6 3 8 3 10 4 6
Neighs:        96062.5 ave      106897 max       83041 min
Histogram: 1 2 3 6 8 14 11 6 3 2

Total # of neighbors = 5379502
Ave neighs/atom = 437.78499
Ave special neighs/atom = 2
Neighbor list builds = 382
Dangerous builds = 0
kspace_style pppm/tip4p 1.0e-5
next nloop
jump SELF loop_start
run 10000 # 10ps
PPPM initialization ...
  extracting TIP4P info from pair style
  using 12-bit tables for long-range coulomb
  G vector (1/distance) = 0.32815664
  grid = 50 50 50
  stencil order = 5
  estimated absolute RMS force accuracy = 0.0035802102
  estimated relative force accuracy = 1.0781697e-05
  using double precision KISS FFT
  3d grid and FFT values/proc = 11424 2800
Generated 0 of 1 mixed pair_coeff terms from geometric mixing rule
Per MPI rank memory allocation (min/avg/max) = 10.92 | 11.04 | 11.13 Mbytes
   Step          Temp          TotEng         PotEng          Pxy           v_sxy         v_strain     v_viscosity  
    720000   432.05132     -37828.268     -48377.153     -1980.3528      0.19447652     180            0.00077790607
    721000   432.74156     -37803.825     -48369.563     -1905.0492      0.18395923     180.25         0.00073583692
    722000   428.21611     -37830.348     -48285.593     -2298.6112      0.22164084     180.5          0.00088656337
    723000   434.22238     -37481.079     -48082.972     -2321.79        0.2283278      180.75         0.0009133112 
    724000   432.90928     -37639.029     -48208.862     -2170.2419      0.21564089     181            0.00086256358
    725000   429.53634     -37636.982     -48124.462     -1972.1217      0.20121139     181.25         0.00080484555
    726000   435.89316     -37453.767     -48096.453     -2381.393       0.23787322     181.5          0.00095149289
    727000   432.11379     -37725.743     -48276.154     -2033.9542      0.19954793     181.75         0.0007981917 
    728000   435.01219     -37494.024     -48115.202     -2210.7602      0.2199768      182            0.00087990722
    729000   427.64022     -37713.238     -48154.422     -2179.3813      0.21193048     182.25         0.00084772193
    730000   429.9985      -37692.217     -48190.981     -2238.5287      0.22128447     182.5          0.00088513786
Loop time of 44.7948 on 56 procs for 10000 steps with 12288 atoms

Performance: 19.288 ns/day, 1.244 hours/ns, 223.240 timesteps/s, 2.743 Matom-step/s
99.8% CPU use with 56 MPI tasks x no OpenMP threads

MPI task timing breakdown:
Section |  min time  |  avg time  |  max time  |%varavg| %total
---------------------------------------------------------------
Pair    | 18.57      | 19.728     | 20.874     |  11.7 | 44.04
Bond    | 0.0012756  | 0.0024331  | 0.0037405  |   1.0 |  0.01
Kspace  | 10.778     | 11.946     | 13.054     |  14.4 | 26.67
Neigh   | 4.5037     | 4.5076     | 4.5103     |   0.1 | 10.06
Comm    | 1.5375     | 1.6529     | 1.7951     |   4.9 |  3.69
Output  | 0.023204   | 0.040345   | 0.056779   |   5.0 |  0.09
Modify  | 5.1478     | 5.6509     | 6.6533     |  14.7 | 12.62
Other   |            | 1.267      |            |       |  2.83

Nlocal:        219.429 ave         235 max         206 min
Histogram: 5 6 6 9 4 8 7 3 4 4
Nghost:         7276.5 ave        7332 max        7198 min
Histogram: 1 1 7 4 7 8 8 9 6 5
Neighs:        96069.9 ave      104039 max       89629 min
Histogram: 5 7 9 5 5 8 6 3 4 4

Total # of neighbors = 5379917
Ave neighs/atom = 437.81877
Ave special neighs/atom = 2
Neighbor list builds = 381
Dangerous builds = 0
kspace_style pppm/tip4p 1.0e-5
next nloop
jump SELF loop_start
run 10000 # 10ps
PPPM initialization ...
  extracting TIP4P info from pair style
  using 12-bit tables for long-range coulomb
  G vector (1/distance) = 0.32815664
  grid = 50 75 50
  stencil order = 5
  estimated absolute RMS force accuracy = 0.0035802102
  estimated relative force accuracy = 1.0781697e-05
  using double precision KISS FFT
  3d grid and FFT values/proc = 15776 4000
Generated 0 of 1 mixed pair_coeff terms from geometric mixing rule
Per MPI rank memory allocation (min/avg/max) = 11.21 | 11.35 | 11.45 Mbytes
   Step          Temp          TotEng         PotEng          Pxy           v_sxy         v_strain     v_viscosity  
    730000   429.78196     -37698.783     -48192.26      -1807.7487      0.17698344     182.5          0.00070793376
    731000   431.42419     -37511.374     -48044.947     -2151.1948      0.20738439     182.75         0.00082953758
    732000   431.93121     -37672.663     -48218.616     -2089.5631      0.20487709     183            0.00081950836
    733000   433.00737     -37497.626     -48069.854     -2127.269       0.20979653     183.25         0.00083918613
    734000   441.06677     -37505.651     -48274.656     -2070.5002      0.20762802     183.5          0.00083051209
    735000   429.22456     -37835.639     -48315.506     -2002.0389      0.20089043     183.75         0.00080356172
    736000   431.20786     -37520.214     -48048.505     -2363.3382      0.23010335     184            0.00092041342
    737000   432.06559     -37738.129     -48287.362     -2499.8228      0.23948375     184.25         0.00095793501
    738000   437.12689     -37516.927     -48189.736     -2139.9454      0.21333877     184.5          0.00085335507
    739000   429.92155     -37757.909     -48254.794     -2292.7364      0.23016704     184.75         0.00092066817
    740000   429.63935     -37664.512     -48154.507     -1874.9102      0.18710324     185            0.00074841298
Loop time of 52.1901 on 56 procs for 10000 steps with 12288 atoms

Performance: 16.555 ns/day, 1.450 hours/ns, 191.607 timesteps/s, 2.354 Matom-step/s
99.8% CPU use with 56 MPI tasks x no OpenMP threads

MPI task timing breakdown:
Section |  min time  |  avg time  |  max time  |%varavg| %total
---------------------------------------------------------------
Pair    | 18.397     | 20.012     | 21.487     |  12.7 | 38.34
Bond    | 0.0015552  | 0.0028672  | 0.0044001  |   1.2 |  0.01
Kspace  | 14.687     | 16.15      | 17.582     |  13.2 | 30.94
Neigh   | 4.4936     | 4.4975     | 4.5001     |   0.1 |  8.62
Comm    | 1.6563     | 1.8284     | 2.0595     |   6.2 |  3.50
Output  | 0.023001   | 0.039888   | 0.056161   |   4.9 |  0.08
Modify  | 7.3345     | 8.0348     | 9.4144     |  17.7 | 15.40
Other   |            | 1.625      |            |       |  3.11

Nlocal:        219.429 ave         236 max         205 min
Histogram: 4 6 4 9 9 7 5 5 4 3
Nghost:        6858.12 ave        6906 max        6802 min
Histogram: 2 2 6 5 6 11 11 8 3 2
Neighs:        96068.9 ave      104182 max       88908 min
Histogram: 3 7 5 8 6 14 2 7 3 1

Total # of neighbors = 5379858
Ave neighs/atom = 437.81396
Ave special neighs/atom = 2
Neighbor list builds = 380
Dangerous builds = 0
kspace_style pppm/tip4p 1.0e-5
next nloop
jump SELF loop_start
run 10000 # 10ps
PPPM initialization ...
  extracting TIP4P info from pair style
  using 12-bit tables for long-range coulomb
  G vector (1/distance) = 0.32815664
  grid = 50 50 50
  stencil order = 5
  estimated absolute RMS force accuracy = 0.0035802102
  estimated relative force accuracy = 1.0781697e-05
  using double precision KISS FFT
  3d grid and FFT values/proc = 11424 2800
Generated 0 of 1 mixed pair_coeff terms from geometric mixing rule
Per MPI rank memory allocation (min/avg/max) = 10.92 | 11.04 | 11.13 Mbytes
   Step          Temp          TotEng         PotEng          Pxy           v_sxy         v_strain     v_viscosity  
    740000   429.84052     -37659.031     -48153.938     -1328.3121      0.13142157     185            0.00052568629
    741000   428.24371     -37781.591     -48237.51      -2411.5439      0.23592554     185.25         0.00094370215
    742000   432.64513     -37585.921     -48149.304     -2119.728       0.20873792     185.5          0.00083495168
    743000   431.17202     -37653.974     -48181.39      -2066.3459      0.2077982      185.75         0.0008311928 
    744000   430.93595     -37622.659     -48144.312     -1913.1322      0.18881057     186            0.00075524227
    745000   435.93086     -37490.345     -48133.952     -2241.9161      0.22252662     186.25         0.00089010649
    746000   433.35366     -37538.709     -48119.392     -2063.1854      0.20019312     186.5          0.00080077248
    747000   436.21903     -37625.727     -48276.37      -2489.7148      0.24638426     186.75         0.00098553702
    748000   430.9097      -37639.505     -48160.516     -2124.4295      0.20759        187            0.00083035999
    749000   431.73388     -37714.641     -48255.776     -2025.5365      0.19967508     187.25         0.00079870032
    750000   431.72711     -37756.541     -48297.51      -1843.9446      0.17443512     187.5          0.00069774047
Loop time of 44.8548 on 56 procs for 10000 steps with 12288 atoms

Performance: 19.262 ns/day, 1.246 hours/ns, 222.942 timesteps/s, 2.740 Matom-step/s
99.8% CPU use with 56 MPI tasks x no OpenMP threads

MPI task timing breakdown:
Section |  min time  |  avg time  |  max time  |%varavg| %total
---------------------------------------------------------------
Pair    | 18.247     | 19.719     | 20.751     |  12.3 | 43.96
Bond    | 0.0012171  | 0.0024055  | 0.0036896  |   1.1 |  0.01
Kspace  | 10.851     | 11.915     | 13.273     |  15.5 | 26.56
Neigh   | 4.5907     | 4.5946     | 4.5972     |   0.1 | 10.24
Comm    | 1.5542     | 1.642      | 1.8087     |   4.5 |  3.66
Output  | 0.023191   | 0.040392   | 0.056874   |   5.0 |  0.09
Modify  | 5.1458     | 5.6593     | 6.682      |  14.7 | 12.62
Other   |            | 1.282      |            |       |  2.86

Nlocal:        219.429 ave         239 max         202 min
Histogram: 1 4 7 5 17 13 2 4 2 1
Nghost:        7289.62 ave        7360 max        7196 min
Histogram: 5 0 2 6 3 12 11 10 3 4
Neighs:        96056.6 ave      106053 max       88394 min
Histogram: 2 6 9 6 13 10 3 2 4 1

Total # of neighbors = 5379168
Ave neighs/atom = 437.75781
Ave special neighs/atom = 2
Neighbor list builds = 388
Dangerous builds = 0
kspace_style pppm/tip4p 1.0e-5
next nloop
jump SELF loop_start
run 10000 # 10ps
PPPM initialization ...
  extracting TIP4P info from pair style
  using 12-bit tables for long-range coulomb
  G vector (1/distance) = 0.32815664
  grid = 50 75 50
  stencil order = 5
  estimated absolute RMS force accuracy = 0.0035802102
  estimated relative force accuracy = 1.0781697e-05
  using double precision KISS FFT
  3d grid and FFT values/proc = 15776 4000
Generated 0 of 1 mixed pair_coeff terms from geometric mixing rule
Per MPI rank memory allocation (min/avg/max) = 11.21 | 11.35 | 11.45 Mbytes
   Step          Temp          TotEng         PotEng          Pxy           v_sxy         v_strain     v_viscosity  
    750000   431.64902     -37760.081     -48299.144     -1358.7743      0.12507024     187.5          0.00050028094
    751000   432.05547     -37584.639     -48133.625     -1839.562       0.17797547     187.75         0.00071190187
    752000   433.94119     -37612.592     -48207.62      -2184.8378      0.21554016     188            0.00086216066
    753000   431.86172     -37700.755     -48245.011     -2135.4931      0.21325603     188.25         0.00085302413
    754000   430.34352     -37600.425     -48107.613     -2076.4473      0.20658463     188.5          0.00082633853
    755000   437.88473     -37541.451     -48232.763     -2001.1549      0.19818697     188.75         0.00079274786
    756000   433.65295     -37667.384     -48255.375     -2289.4737      0.22561215     189            0.00090244859
    757000   432.62994     -37473.692     -48036.705     -2131.4746      0.21060007     189.25         0.0008424003 
    758000   432.44845     -37735.474     -48294.056     -2176.3545      0.21705039     189.5          0.00086820156
    759000   432.31752     -37652.441     -48207.825     -2455.0594      0.23886681     189.75         0.00095546724
    760000   431.31629     -37719.532     -48250.471     -1929.0357      0.18811297     190            0.00075245189
Loop time of 52.154 on 56 procs for 10000 steps with 12288 atoms

Performance: 16.566 ns/day, 1.449 hours/ns, 191.740 timesteps/s, 2.356 Matom-step/s
99.8% CPU use with 56 MPI tasks x no OpenMP threads

MPI task timing breakdown:
Section |  min time  |  avg time  |  max time  |%varavg| %total
---------------------------------------------------------------
Pair    | 18.93      | 19.981     | 21.164     |  11.9 | 38.31
Bond    | 0.0014343  | 0.0028028  | 0.0043164  |   1.2 |  0.01
Kspace  | 14.882     | 16.112     | 17.189     |  12.8 | 30.89
Neigh   | 4.518      | 4.5222     | 4.5248     |   0.1 |  8.67
Comm    | 1.6615     | 1.8162     | 2.0577     |   6.2 |  3.48
Output  | 0.023696   | 0.040561   | 0.056865   |   4.9 |  0.08
Modify  | 7.3191     | 8.0452     | 9.4171     |  17.7 | 15.43
Other   |            | 1.633      |            |       |  3.13

Nlocal:        219.429 ave         238 max         202 min
Histogram: 4 2 8 7 8 9 6 6 2 4
Nghost:        6855.39 ave        6926 max        6785 min
Histogram: 2 0 11 3 11 12 8 5 1 3
Neighs:        96065.2 ave      104888 max       86379 min
Histogram: 3 1 5 8 10 9 7 5 4 4

Total # of neighbors = 5379650
Ave neighs/atom = 437.79704
Ave special neighs/atom = 2
Neighbor list builds = 381
Dangerous builds = 0
kspace_style pppm/tip4p 1.0e-5
next nloop
jump SELF loop_start
run 10000 # 10ps
PPPM initialization ...
  extracting TIP4P info from pair style
  using 12-bit tables for long-range coulomb
  G vector (1/distance) = 0.32815664
  grid = 50 50 50
  stencil order = 5
  estimated absolute RMS force accuracy = 0.0035802102
  estimated relative force accuracy = 1.0781697e-05
  using double precision KISS FFT
  3d grid and FFT values/proc = 11424 2800
Generated 0 of 1 mixed pair_coeff terms from geometric mixing rule
Per MPI rank memory allocation (min/avg/max) = 10.92 | 11.04 | 11.13 Mbytes
   Step          Temp          TotEng         PotEng          Pxy           v_sxy         v_strain     v_viscosity  
    760000   431.56898     -37714.577     -48251.685     -1467.4385      0.14110598     190            0.00056442393
    761000   439.64384     -37521.412     -48255.674     -2308.206       0.22766314     190.25         0.00091065257
    762000   433.24793     -37514.036     -48092.138     -2139.8854      0.20596303     190.5          0.00082385211
    763000   434.22781     -37610.759     -48212.785     -1729.0743      0.17021835     190.75         0.0006808734 
    764000   433.07446     -37628.795     -48202.661     -2285.6788      0.22154199     191            0.00088616794
    765000   433.3325      -37635.009     -48215.175     -2185.506       0.21462506     191.25         0.00085850023
    766000   429.59309     -37872.092     -48360.957     -2557.3838      0.25502781     191.5          0.0010201112 
    767000   431.33332     -37654.535     -48185.89      -2155.9546      0.2128663      191.75         0.00085146519
    768000   431.40557     -37614.117     -48147.236     -2248.7684      0.21931649     192            0.00087726597
    769000   430.76279     -37634.028     -48151.452     -2482.1135      0.24201518     192.25         0.00096806071
    770000   432.76848     -37488.811     -48055.206     -1977.6033      0.18991319     192.5          0.00075965275
Loop time of 44.6909 on 56 procs for 10000 steps with 12288 atoms

Performance: 19.333 ns/day, 1.241 hours/ns, 223.759 timesteps/s, 2.750 Matom-step/s
99.8% CPU use with 56 MPI tasks x no OpenMP threads

MPI task timing breakdown:
Section |  min time  |  avg time  |  max time  |%varavg| %total
---------------------------------------------------------------
Pair    | 18.651     | 19.713     | 21.112     |  12.2 | 44.11
Bond    | 0.0012082  | 0.0023855  | 0.0038497  |   1.0 |  0.01
Kspace  | 10.632     | 11.868     | 12.863     |  15.2 | 26.56
Neigh   | 4.5135     | 4.5172     | 4.5202     |   0.1 | 10.11
Comm    | 1.5266     | 1.6372     | 1.7981     |   4.6 |  3.66
Output  | 0.023122   | 0.040263   | 0.056671   |   5.0 |  0.09
Modify  | 5.1423     | 5.6475     | 6.6457     |  14.7 | 12.64
Other   |            | 1.265      |            |       |  2.83

Nlocal:        219.429 ave         237 max         198 min
Histogram: 1 1 4 6 11 9 12 7 2 3
Nghost:        7288.61 ave        7357 max        7214 min
Histogram: 1 2 8 7 6 10 10 6 5 1
Neighs:        96063.2 ave      105199 max       85765 min
Histogram: 1 1 5 6 12 11 12 3 2 3

Total # of neighbors = 5379538
Ave neighs/atom = 437.78792
Ave special neighs/atom = 2
Neighbor list builds = 381
Dangerous builds = 0
kspace_style pppm/tip4p 1.0e-5
next nloop
jump SELF loop_start
run 10000 # 10ps
PPPM initialization ...
  extracting TIP4P info from pair style
  using 12-bit tables for long-range coulomb
  G vector (1/distance) = 0.32815664
  grid = 50 75 50
  stencil order = 5
  estimated absolute RMS force accuracy = 0.0035802102
  estimated relative force accuracy = 1.0781697e-05
  using double precision KISS FFT
  3d grid and FFT values/proc = 15776 4000
Generated 0 of 1 mixed pair_coeff terms from geometric mixing rule
Per MPI rank memory allocation (min/avg/max) = 11.21 | 11.35 | 11.45 Mbytes
   Step          Temp          TotEng         PotEng          Pxy           v_sxy         v_strain     v_viscosity  
    770000   432.67904     -37487.689     -48051.9       -1446.7997      0.13509135     192.5          0.00054036541
    771000   429.94609     -37759.503     -48256.987     -1926.8053      0.18769354     192.75         0.00075077415
    772000   436.77514     -37531.456     -48195.677     -2091.5114      0.19954539     193            0.00079818156
    773000   437.38182     -37583.404     -48262.438     -1992.9085      0.18934764     193.25         0.00075739057
    774000   430.63439     -37547.263     -48061.553     -2353.2769      0.23336832     193.5          0.00093347327
    775000   431.98917     -37524.748     -48072.116     -2073.3814      0.20312814     193.75         0.00081251254
    776000   429.08439     -37609.886     -48086.331     -2189.0956      0.21743298     194            0.00086973191
    777000   432.03255     -37631.293     -48179.72      -1826.0673      0.178409       194.25         0.00071363601
    778000   428.15342     -37804.434     -48258.149     -2455.6357      0.24227328     194.5          0.00096909311
    779000   431.88724     -37659.133     -48204.013     -1929.287       0.18590254     194.75         0.00074361017
    780000   430.71387     -37651.478     -48167.709     -1991.6453      0.1978819      195            0.00079152759
Loop time of 52.1264 on 56 procs for 10000 steps with 12288 atoms

Performance: 16.575 ns/day, 1.448 hours/ns, 191.841 timesteps/s, 2.357 Matom-step/s
99.8% CPU use with 56 MPI tasks x no OpenMP threads

MPI task timing breakdown:
Section |  min time  |  avg time  |  max time  |%varavg| %total
---------------------------------------------------------------
Pair    | 18.787     | 19.979     | 20.984     |  12.9 | 38.33
Bond    | 0.0016122  | 0.0027941  | 0.0046457  |   1.2 |  0.01
Kspace  | 15.154     | 16.134     | 17.257     |  13.6 | 30.95
Neigh   | 4.4743     | 4.4785     | 4.4812     |   0.1 |  8.59
Comm    | 1.6702     | 1.8172     | 1.9979     |   6.5 |  3.49
Output  | 0.023067   | 0.040173   | 0.05666    |   5.0 |  0.08
Modify  | 7.3378     | 8.0508     | 9.4149     |  17.6 | 15.44
Other   |            | 1.624      |            |       |  3.12

Nlocal:        219.429 ave         244 max         199 min
Histogram: 2 4 8 7 12 7 10 3 2 1
Nghost:        6839.73 ave        6901 max        6783 min
Histogram: 2 7 3 6 11 8 8 7 2 2
Neighs:          96072 ave      106485 max       86258 min
Histogram: 2 4 6 10 11 5 7 7 1 3

Total # of neighbors = 5380030
Ave neighs/atom = 437.82796
Ave special neighs/atom = 2
Neighbor list builds = 380
Dangerous builds = 0
kspace_style pppm/tip4p 1.0e-5
next nloop
jump SELF loop_start
run 10000 # 10ps
PPPM initialization ...
  extracting TIP4P info from pair style
  using 12-bit tables for long-range coulomb
  G vector (1/distance) = 0.32815664
  grid = 50 50 50
  stencil order = 5
  estimated absolute RMS force accuracy = 0.0035802102
  estimated relative force accuracy = 1.0781697e-05
  using double precision KISS FFT
  3d grid and FFT values/proc = 11424 2800
Generated 0 of 1 mixed pair_coeff terms from geometric mixing rule
Per MPI rank memory allocation (min/avg/max) = 10.92 | 11.04 | 11.13 Mbytes
   Step          Temp          TotEng         PotEng          Pxy           v_sxy         v_strain     v_viscosity  
    780000   430.51573     -37655.999     -48167.392     -1418.4083      0.13958086     195            0.00055832346
    781000   430.63197     -37655.479     -48169.709     -2270.7192      0.225461       195.25         0.00090184399
    782000   432.01427     -37591.704     -48139.685     -1968.5851      0.19560622     195.5          0.00078242488
    783000   430.61733     -37650.679     -48164.552     -2074.851       0.20478253     195.75         0.00081913011
    784000   429.82637     -37602.651     -48097.212     -1894.4615      0.18082584     196            0.00072330335
    785000   432.02711     -37685.502     -48233.796     -1896.4995      0.18888781     196.25         0.00075555126
    786000   434.21791     -37618.664     -48220.449     -2037.0936      0.19808732     196.5          0.00079234927
    787000   433.30567     -37700.609     -48280.12      -2074.4393      0.20570081     196.75         0.00082280325
    788000   435.25411     -37605.75      -48232.834     -2163.8702      0.21241441     197            0.00084965764
    789000   431.33664     -37701.231     -48232.667     -2183.5179      0.21517034     197.25         0.00086068136
    790000   431.08391     -37670.023     -48195.288     -2083.0474      0.20911713     197.5          0.00083646852
Loop time of 44.815 on 56 procs for 10000 steps with 12288 atoms

Performance: 19.279 ns/day, 1.245 hours/ns, 223.140 timesteps/s, 2.742 Matom-step/s
99.8% CPU use with 56 MPI tasks x no OpenMP threads

MPI task timing breakdown:
Section |  min time  |  avg time  |  max time  |%varavg| %total
---------------------------------------------------------------
Pair    | 18.698     | 19.705     | 21.074     |  12.9 | 43.97
Bond    | 0.0012185  | 0.0023666  | 0.0038694  |   1.0 |  0.01
Kspace  | 10.556     | 11.972     | 12.886     |  15.9 | 26.71
Neigh   | 4.4764     | 4.4804     | 4.4835     |   0.1 | 10.00
Comm    | 1.5413     | 1.6525     | 1.8365     |   5.1 |  3.69
Output  | 0.03862    | 0.059832   | 0.07755    |   4.8 |  0.13
Modify  | 5.1242     | 5.6583     | 6.6786     |  14.8 | 12.63
Other   |            | 1.284      |            |       |  2.86

Nlocal:        219.429 ave         240 max         197 min
Histogram: 1 2 2 13 10 7 9 8 1 3
Nghost:        7280.11 ave        7347 max        7217 min
Histogram: 3 4 5 10 10 5 6 8 0 5
Neighs:        96061.2 ave      106647 max       85986 min
Histogram: 1 2 11 9 9 8 5 6 2 3

Total # of neighbors = 5379428
Ave neighs/atom = 437.77897
Ave special neighs/atom = 2
Neighbor list builds = 377
Dangerous builds = 0
kspace_style pppm/tip4p 1.0e-5
next nloop
jump SELF loop_start
run 10000 # 10ps
PPPM initialization ...
  extracting TIP4P info from pair style
  using 12-bit tables for long-range coulomb
  G vector (1/distance) = 0.32815664
  grid = 50 75 50
  stencil order = 5
  estimated absolute RMS force accuracy = 0.0035802102
  estimated relative force accuracy = 1.0781697e-05
  using double precision KISS FFT
  3d grid and FFT values/proc = 15776 4000
Generated 0 of 1 mixed pair_coeff terms from geometric mixing rule
Per MPI rank memory allocation (min/avg/max) = 11.21 | 11.35 | 11.45 Mbytes
   Step          Temp          TotEng         PotEng          Pxy           v_sxy         v_strain     v_viscosity  
    790000   431.0534      -37668.952     -48193.472     -1551.4367      0.15504276     197.5          0.00062017104
    791000   429.09732     -37531.849     -48008.61      -2426.3139      0.23777302     197.75         0.00095109208
    792000   431.99357     -37692.384     -48239.859     -2009.4974      0.19708948     198            0.00078835791
    793000   432.44206     -37697.254     -48255.679     -2261.3898      0.22451443     198.25         0.00089805773
    794000   433.98441     -37688.758     -48284.841     -2194.2533      0.21050673     198.5          0.0008420269 
    795000   435.21022     -37671.066     -48297.078     -2183.744       0.21003242     198.75         0.00084012967
    796000   429.25007     -37726.777     -48207.268     -2015.8007      0.1989631      199            0.00079585238
    797000   428.66161     -37840.036     -48306.159     -2079.712       0.20169662     199.25         0.00080678649
    798000   434.57508     -37801.99      -48412.495     -2008.1667      0.19390472     199.5          0.00077561889
    799000   430.89129     -37852.585     -48373.147     -2161.5934      0.21727888     199.75         0.00086911551
    800000   435.96985     -37567.823     -48212.382     -2116.9435      0.20823893     200            0.00083295571
Loop time of 52.1989 on 56 procs for 10000 steps with 12288 atoms

Performance: 16.552 ns/day, 1.450 hours/ns, 191.575 timesteps/s, 2.354 Matom-step/s
99.8% CPU use with 56 MPI tasks x no OpenMP threads

MPI task timing breakdown:
Section |  min time  |  avg time  |  max time  |%varavg| %total
---------------------------------------------------------------
Pair    | 18.924     | 19.973     | 21.222     |  11.9 | 38.26
Bond    | 0.001497   | 0.0027535  | 0.0042173  |   1.2 |  0.01
Kspace  | 14.964     | 16.148     | 17.129     |  12.3 | 30.94
Neigh   | 4.5022     | 4.5064     | 4.5096     |   0.1 |  8.63
Comm    | 1.6639     | 1.8241     | 2.0224     |   6.2 |  3.49
Output  | 0.02361    | 0.040722   | 0.057126   |   4.9 |  0.08
Modify  | 7.3377     | 8.048      | 9.4204     |  17.8 | 15.42
Other   |            | 1.656      |            |       |  3.17

Nlocal:        219.429 ave         236 max         203 min
Histogram: 3 2 0 14 11 6 12 6 0 2
Nghost:        6854.66 ave        6941 max        6750 min
Histogram: 2 3 4 6 5 9 13 6 6 2
Neighs:        96067.5 ave      103591 max       88100 min
Histogram: 2 2 4 8 12 10 5 7 4 2

Total # of neighbors = 5379781
Ave neighs/atom = 437.8077
Ave special neighs/atom = 2
Neighbor list builds = 382
Dangerous builds = 0
kspace_style pppm/tip4p 1.0e-5
next nloop
jump SELF loop_start
run 10000 # 10ps
PPPM initialization ...
  extracting TIP4P info from pair style
  using 12-bit tables for long-range coulomb
  G vector (1/distance) = 0.32815664
  grid = 50 50 50
  stencil order = 5
  estimated absolute RMS force accuracy = 0.0035802102
  estimated relative force accuracy = 1.0781697e-05
  using double precision KISS FFT
  3d grid and FFT values/proc = 11424 2800
Generated 0 of 1 mixed pair_coeff terms from geometric mixing rule
Per MPI rank memory allocation (min/avg/max) = 10.92 | 11.04 | 11.13 Mbytes
   Step          Temp          TotEng         PotEng          Pxy           v_sxy         v_strain     v_viscosity  
    800000   435.96985     -37568.498     -48213.057     -1622.143       0.15810327     200            0.00063241306
    801000   431.16673     -37457.001     -47984.288     -2550.7174      0.2496757      200.25         0.00099870281
    802000   431.30096     -37517.919     -48048.483     -2527.9842      0.2505812      200.5          0.0010023248 
    803000   433.23506     -37664.753     -48242.54      -1835.6903      0.17998938     200.75         0.00071995751
    804000   433.36533     -37558.539     -48139.507     -2605.1716      0.25489927     201            0.0010195971 
    805000   434.84573     -37666.16      -48283.273     -1967.7282      0.19816637     201.25         0.0007926655 
    806000   431.8687      -37580.359     -48124.785     -2332.2495      0.22828402     201.5          0.00091313609
    807000   434.93565     -37455.29      -48074.599     -2550.6089      0.25118276     201.75         0.001004731  
    808000   435.34891     -37642.534     -48271.932     -2122.9145      0.20915714     202            0.00083662855
    809000   429.1632      -37796.286     -48274.655     -2296.4095      0.23209761     202.25         0.00092839044
    810000   431.78528     -37684.503     -48226.892     -2126.4601      0.20866617     202.5          0.0008346647 
Loop time of 44.8057 on 56 procs for 10000 steps with 12288 atoms

Performance: 19.283 ns/day, 1.245 hours/ns, 223.186 timesteps/s, 2.743 Matom-step/s
99.8% CPU use with 56 MPI tasks x no OpenMP threads

MPI task timing breakdown:
Section |  min time  |  avg time  |  max time  |%varavg| %total
---------------------------------------------------------------
Pair    | 18.421     | 19.687     | 20.84      |  11.2 | 43.94
Bond    | 0.0011791  | 0.0023628  | 0.0036007  |   1.0 |  0.01
Kspace  | 10.953     | 11.981     | 13.163     |  13.6 | 26.74
Neigh   | 4.532      | 4.5358     | 4.5386     |   0.1 | 10.12
Comm    | 1.5446     | 1.649      | 1.8344     |   4.8 |  3.68
Output  | 0.024615   | 0.04176    | 0.058294   |   4.9 |  0.09
Modify  | 5.1298     | 5.6441     | 6.6487     |  14.7 | 12.60
Other   |            | 1.264      |            |       |  2.82

Nlocal:        219.429 ave         234 max         200 min
Histogram: 2 0 5 4 5 15 8 12 2 3
Nghost:        7284.32 ave        7369 max        7224 min
Histogram: 2 6 15 5 12 6 3 2 2 3
Neighs:        96075.9 ave      103872 max       85991 min
Histogram: 1 1 3 6 8 12 13 8 2 2

Total # of neighbors = 5380251
Ave neighs/atom = 437.84595
Ave special neighs/atom = 2
Neighbor list builds = 382
Dangerous builds = 0
kspace_style pppm/tip4p 1.0e-5
next nloop
jump SELF loop_start
run 10000 # 10ps
PPPM initialization ...
  extracting TIP4P info from pair style
  using 12-bit tables for long-range coulomb
  G vector (1/distance) = 0.32815664
  grid = 50 75 50
  stencil order = 5
  estimated absolute RMS force accuracy = 0.0035802102
  estimated relative force accuracy = 1.0781697e-05
  using double precision KISS FFT
  3d grid and FFT values/proc = 15776 4000
Generated 0 of 1 mixed pair_coeff terms from geometric mixing rule
Per MPI rank memory allocation (min/avg/max) = 11.21 | 11.35 | 11.45 Mbytes
   Step          Temp          TotEng         PotEng          Pxy           v_sxy         v_strain     v_viscosity  
    810000   431.47397     -37691.825     -48226.614     -1613.1149      0.15572456     202.5          0.00062289825
    811000   426.37924     -37768.547     -48178.944     -2012.9937      0.19758236     202.75         0.00079032946
    812000   432.60548     -37635.324     -48197.74      -2253.5081      0.2205593      203            0.00088223721
    813000   428.99086     -37819.199     -48293.36      -1779.8127      0.17745012     203.25         0.00070980047
    814000   433.21602     -37727.626     -48304.948     -1937.52        0.19111422     203.5          0.00076445687
    815000   428.31066     -37669.691     -48127.245     -2416.5581      0.23926576     203.75         0.00095706305
    816000   435.41085     -37607.634     -48238.545     -2086.2474      0.20652513     204            0.0008261005 
    817000   433.28029     -37611.871     -48190.762     -2130.8082      0.20599102     204.25         0.0008239641 
    818000   429.48675     -37720.024     -48206.294     -2617.64        0.26125667     204.5          0.0010450267 
    819000   431.5454      -37752.709     -48289.242     -2199.5839      0.21112799     204.75         0.00084451196
    820000   432.80867     -37569.7       -48137.076     -2293.8536      0.22494234     205            0.00089976937
Loop time of 52.3877 on 56 procs for 10000 steps with 12288 atoms

Performance: 16.492 ns/day, 1.455 hours/ns, 190.884 timesteps/s, 2.346 Matom-step/s
99.8% CPU use with 56 MPI tasks x no OpenMP threads

MPI task timing breakdown:
Section |  min time  |  avg time  |  max time  |%varavg| %total
---------------------------------------------------------------
Pair    | 18.944     | 19.956     | 21.248     |  13.0 | 38.09
Bond    | 0.001555   | 0.0027695  | 0.0042817  |   1.2 |  0.01
Kspace  | 15.085     | 16.301     | 17.334     |  13.7 | 31.12
Neigh   | 4.5759     | 4.58       | 4.5825     |   0.1 |  8.74
Comm    | 1.6565     | 1.8204     | 2.0507     |   6.6 |  3.47
Output  | 0.022889   | 0.039922   | 0.056269   |   5.0 |  0.08
Modify  | 7.3315     | 8.0328     | 9.4288     |  17.7 | 15.33
Other   |            | 1.655      |            |       |  3.16

Nlocal:        219.429 ave         239 max         203 min
Histogram: 3 4 9 9 3 10 13 2 1 2
Nghost:        6836.77 ave        6903 max        6779 min
Histogram: 2 4 7 8 10 10 9 2 3 1
Neighs:        96065.2 ave      105211 max       88036 min
Histogram: 2 5 6 11 8 8 9 4 1 2

Total # of neighbors = 5379650
Ave neighs/atom = 437.79704
Ave special neighs/atom = 2
Neighbor list builds = 383
Dangerous builds = 0
kspace_style pppm/tip4p 1.0e-5
next nloop
jump SELF loop_start
run 10000 # 10ps
PPPM initialization ...
  extracting TIP4P info from pair style
  using 12-bit tables for long-range coulomb
  G vector (1/distance) = 0.32815664
  grid = 50 50 50
  stencil order = 5
  estimated absolute RMS force accuracy = 0.0035802102
  estimated relative force accuracy = 1.0781697e-05
  using double precision KISS FFT
  3d grid and FFT values/proc = 11424 2800
Generated 0 of 1 mixed pair_coeff terms from geometric mixing rule
Per MPI rank memory allocation (min/avg/max) = 10.92 | 11.04 | 11.13 Mbytes
   Step          Temp          TotEng         PotEng          Pxy           v_sxy         v_strain     v_viscosity  
    820000   432.93043     -37564.956     -48135.305     -1766.51        0.17124824     205            0.00068499295
    821000   432.1691      -37574.176     -48125.937     -2313.4885      0.22627403     205.25         0.00090509611
    822000   434.14077     -37622.104     -48222.005     -2157.6214      0.21759654     205.5          0.00087038618
    823000   434.35602     -37682.86      -48288.016     -2075.1481      0.20603907     205.75         0.00082415626
    824000   432.32745     -37740.21      -48295.837     -2463.1625      0.24071128     206            0.00096284513
    825000   432.86968     -37612.62      -48181.487     -2327.6921      0.22865783     206.25         0.0009146313 
    826000   430.7608      -37646.728     -48164.104     -1915.0883      0.18969767     206.5          0.00075879066
    827000   434.08363     -37584.331     -48182.837     -1829.208       0.17661706     206.75         0.00070646825
    828000   427.28731     -37765.465     -48198.033     -2240.2586      0.21461492     207            0.00085845967
    829000   430.77167     -37561.579     -48079.221     -2008.1892      0.20080189     207.25         0.00080320754
    830000   429.12361     -37804.86      -48282.263     -1842.281       0.18205063     207.5          0.0007282025 
Loop time of 44.6502 on 56 procs for 10000 steps with 12288 atoms

Performance: 19.350 ns/day, 1.240 hours/ns, 223.963 timesteps/s, 2.752 Matom-step/s
99.8% CPU use with 56 MPI tasks x no OpenMP threads

MPI task timing breakdown:
Section |  min time  |  avg time  |  max time  |%varavg| %total
---------------------------------------------------------------
Pair    | 18.553     | 19.685     | 21.089     |  13.2 | 44.09
Bond    | 0.0012449  | 0.0023643  | 0.0038765  |   1.0 |  0.01
Kspace  | 10.615     | 11.886     | 12.981     |  16.4 | 26.62
Neigh   | 4.512      | 4.5155     | 4.5182     |   0.1 | 10.11
Comm    | 1.5466     | 1.6308     | 1.7824     |   4.6 |  3.65
Output  | 0.023114   | 0.040153   | 0.056461   |   4.9 |  0.09
Modify  | 5.1121     | 5.6416     | 6.6283     |  14.7 | 12.64
Other   |            | 1.249      |            |       |  2.80

Nlocal:        219.429 ave         237 max         197 min
Histogram: 2 2 3 6 6 9 11 8 5 4
Nghost:        7288.12 ave        7385 max        7222 min
Histogram: 3 9 11 9 7 5 4 1 3 4
Neighs:        96084.1 ave      104996 max       85338 min
Histogram: 3 2 4 6 3 14 9 8 5 2

Total # of neighbors = 5380707
Ave neighs/atom = 437.88306
Ave special neighs/atom = 2
Neighbor list builds = 382
Dangerous builds = 0
kspace_style pppm/tip4p 1.0e-5
next nloop
jump SELF loop_start
run 10000 # 10ps
PPPM initialization ...
  extracting TIP4P info from pair style
  using 12-bit tables for long-range coulomb
  G vector (1/distance) = 0.32815664
  grid = 50 75 50
  stencil order = 5
  estimated absolute RMS force accuracy = 0.0035802102
  estimated relative force accuracy = 1.0781697e-05
  using double precision KISS FFT
  3d grid and FFT values/proc = 15776 4000
Generated 0 of 1 mixed pair_coeff terms from geometric mixing rule
Per MPI rank memory allocation (min/avg/max) = 11.21 | 11.35 | 11.45 Mbytes
   Step          Temp          TotEng         PotEng          Pxy           v_sxy         v_strain     v_viscosity  
    830000   429.12562     -37801.327     -48278.779     -1320.0213      0.12865485     207.5          0.00051461939
    831000   431.49714     -37688.296     -48223.651     -1876.0139      0.19134604     207.75         0.00076538417
    832000   433.10576     -37649.81      -48224.44      -2323.9354      0.2284655      208            0.000913862  
    833000   428.73465     -37788.596     -48256.502     -2214.0222      0.21287314     208.25         0.00085149258
    834000   426.89122     -37648.891     -48071.788     -2034.3711      0.20117298     208.5          0.00080469193
    835000   427.67052     -38020.478     -48462.402     -2270.3597      0.22702922     208.75         0.00090811689
    836000   436.32344     -37605.031     -48258.224     -2217.3543      0.21986146     209            0.00087944583
    837000   432.05824     -37747.415     -48296.469     -1942.0098      0.19433062     209.25         0.00077732249
    838000   430.58238     -37705.682     -48218.701     -1962.43        0.19405451     209.5          0.00077621805
    839000   433.36034     -37762.47      -48343.316     -2166.9577      0.2151447      209.75         0.00086057881
    840000   431.68761     -37657.636     -48197.641     -2319.1303      0.22715596     210            0.00090862384
Loop time of 52.0706 on 56 procs for 10000 steps with 12288 atoms

Performance: 16.593 ns/day, 1.446 hours/ns, 192.047 timesteps/s, 2.360 Matom-step/s
99.8% CPU use with 56 MPI tasks x no OpenMP threads

MPI task timing breakdown:
Section |  min time  |  avg time  |  max time  |%varavg| %total
---------------------------------------------------------------
Pair    | 18.726     | 19.971     | 21.088     |  13.6 | 38.35
Bond    | 0.001555   | 0.0027637  | 0.0046525  |   1.2 |  0.01
Kspace  | 14.835     | 16.04      | 17.238     |  14.5 | 30.80
Neigh   | 4.4866     | 4.4904     | 4.493      |   0.1 |  8.62
Comm    | 1.7076     | 1.8481     | 2.1007     |   6.3 |  3.55
Output  | 0.023559   | 0.040658   | 0.05709    |   4.9 |  0.08
Modify  | 7.2898     | 8.0478     | 9.4775     |  17.9 | 15.46
Other   |            | 1.63       |            |       |  3.13

Nlocal:        219.429 ave         245 max         203 min
Histogram: 4 4 11 10 12 8 4 1 0 2
Nghost:        6843.66 ave        6877 max        6806 min
Histogram: 5 2 7 6 2 12 3 8 5 6
Neighs:        96067.4 ave      109021 max       88690 min
Histogram: 4 4 14 14 9 6 3 0 0 2

Total # of neighbors = 5379777
Ave neighs/atom = 437.80737
Ave special neighs/atom = 2
Neighbor list builds = 381
Dangerous builds = 0
kspace_style pppm/tip4p 1.0e-5
next nloop
jump SELF loop_start
run 10000 # 10ps
PPPM initialization ...
  extracting TIP4P info from pair style
  using 12-bit tables for long-range coulomb
  G vector (1/distance) = 0.32815664
  grid = 50 50 50
  stencil order = 5
  estimated absolute RMS force accuracy = 0.0035802102
  estimated relative force accuracy = 1.0781697e-05
  using double precision KISS FFT
  3d grid and FFT values/proc = 11424 2800
Generated 0 of 1 mixed pair_coeff terms from geometric mixing rule
Per MPI rank memory allocation (min/avg/max) = 10.92 | 11.04 | 11.13 Mbytes
   Step          Temp          TotEng         PotEng          Pxy           v_sxy         v_strain     v_viscosity  
    840000   431.56548     -37659.758     -48196.781     -1831.8197      0.17747464     210            0.00070989854
    841000   428.10382     -37829.199     -48281.703     -2007.5143      0.19821712     210.25         0.00079286847
    842000   434.72048     -37707.719     -48321.774     -2253.0217      0.2208331      210.5          0.00088333238
    843000   434.5611      -37351.177     -47961.34      -2139.9957      0.20889177     210.75         0.00083556708
    844000   428.91014     -37617.44      -48089.631     -1800.5219      0.18311778     211            0.00073247114
    845000   428.91675     -37740.081     -48212.433     -2097.894       0.20689448     211.25         0.00082757791
    846000   426.33802     -37779.606     -48188.996     -2076.4735      0.20797256     211.5          0.00083189026
    847000   432.09468     -37514.12      -48064.063     -2245.4246      0.22268801     211.75         0.00089075203
    848000   426.3107      -37861.134     -48269.857     -2194.7878      0.21996988     212            0.00087987953
    849000   431.68591     -37672.592     -48212.556     -2446.4625      0.24054108     212.25         0.00096216433
    850000   433.82925     -37668.451     -48260.746     -2148.3751      0.21583734     212.5          0.00086334936
Loop time of 44.8761 on 56 procs for 10000 steps with 12288 atoms

Performance: 19.253 ns/day, 1.247 hours/ns, 222.836 timesteps/s, 2.738 Matom-step/s
99.8% CPU use with 56 MPI tasks x no OpenMP threads

MPI task timing breakdown:
Section |  min time  |  avg time  |  max time  |%varavg| %total
---------------------------------------------------------------
Pair    | 18.436     | 19.695     | 21.089     |  11.4 | 43.89
Bond    | 0.0011976  | 0.0023353  | 0.0036203  |   1.0 |  0.01
Kspace  | 10.573     | 11.994     | 13.281     |  14.2 | 26.73
Neigh   | 4.5501     | 4.5538     | 4.5563     |   0.1 | 10.15
Comm    | 1.546      | 1.6581     | 1.8293     |   4.9 |  3.69
Output  | 0.02401    | 0.041094   | 0.057438   |   4.9 |  0.09
Modify  | 5.1275     | 5.664      | 6.6705     |  14.6 | 12.62
Other   |            | 1.268      |            |       |  2.83

Nlocal:        219.429 ave         236 max         188 min
Histogram: 1 0 3 1 4 10 11 13 9 4
Nghost:        7272.45 ave        7375 max        7127 min
Histogram: 1 1 2 4 8 15 11 6 5 3
Neighs:        96056.6 ave      104477 max       80943 min
Histogram: 1 1 1 2 5 12 9 13 9 3

Total # of neighbors = 5379170
Ave neighs/atom = 437.75798
Ave special neighs/atom = 2
Neighbor list builds = 384
Dangerous builds = 0
kspace_style pppm/tip4p 1.0e-5
next nloop
jump SELF loop_start
run 10000 # 10ps
PPPM initialization ...
  extracting TIP4P info from pair style
  using 12-bit tables for long-range coulomb
  G vector (1/distance) = 0.32815664
  grid = 50 75 50
  stencil order = 5
  estimated absolute RMS force accuracy = 0.0035802102
  estimated relative force accuracy = 1.0781697e-05
  using double precision KISS FFT
  3d grid and FFT values/proc = 15776 4000
Generated 0 of 1 mixed pair_coeff terms from geometric mixing rule
Per MPI rank memory allocation (min/avg/max) = 11.21 | 11.35 | 11.45 Mbytes
   Step          Temp          TotEng         PotEng          Pxy           v_sxy         v_strain     v_viscosity  
    850000   433.93025     -37667.045     -48261.806     -1754.8948      0.17513609     212.5          0.00070054435
    851000   435.07667     -37574.832     -48197.583     -1976.1225      0.20007179     212.75         0.00080028716
    852000   432.79065     -37544.507     -48111.443     -2047.7798      0.20164335     213            0.0008065734 
    853000   438.88456     -37356.254     -48071.978     -1973.3321      0.19001489     213.25         0.00076005955
    854000   432.57497     -37632.253     -48193.924     -2097.9054      0.20798425     213.5          0.000831937  
    855000   435.25781     -37693.102     -48320.276     -2322.1107      0.22263705     213.75         0.00089054818
    856000   434.28801     -37494.947     -48098.443     -2010.94        0.19471219     214            0.00077884877
    857000   439.41632     -37422.969     -48151.676     -2335.673       0.22823448     214.25         0.00091293793
    858000   429.99739     -37599         -48097.737     -2028.8743      0.20020376     214.5          0.00080081505
    859000   438.58373     -37453.714     -48162.093     -2019.1812      0.19733579     214.75         0.00078934317
    860000   433.08706     -37583.026     -48157.2       -1945.0896      0.18865054     215            0.00075460216
Loop time of 52.2119 on 56 procs for 10000 steps with 12288 atoms

Performance: 16.548 ns/day, 1.450 hours/ns, 191.527 timesteps/s, 2.353 Matom-step/s
99.8% CPU use with 56 MPI tasks x no OpenMP threads

MPI task timing breakdown:
Section |  min time  |  avg time  |  max time  |%varavg| %total
---------------------------------------------------------------
Pair    | 19.096     | 19.927     | 21.109     |  11.5 | 38.16
Bond    | 0.0015713  | 0.002743   | 0.0042647  |   1.2 |  0.01
Kspace  | 15.041     | 16.193     | 16.968     |  12.1 | 31.01
Neigh   | 4.5449     | 4.549      | 4.5513     |   0.1 |  8.71
Comm    | 1.6626     | 1.8225     | 1.9932     |   6.3 |  3.49
Output  | 0.02296    | 0.040075   | 0.056449   |   5.0 |  0.08
Modify  | 7.3743     | 8.0376     | 9.4145     |  17.8 | 15.39
Other   |            | 1.641      |            |       |  3.14

Nlocal:        219.429 ave         238 max         202 min
Histogram: 4 2 6 6 11 11 8 2 5 1
Nghost:        6841.11 ave        6895 max        6805 min
Histogram: 6 8 7 9 5 9 3 3 4 2
Neighs:        96064.9 ave      106036 max       87802 min
Histogram: 4 4 6 7 9 13 6 4 2 1

Total # of neighbors = 5379636
Ave neighs/atom = 437.7959
Ave special neighs/atom = 2
Neighbor list builds = 383
Dangerous builds = 0
kspace_style pppm/tip4p 1.0e-5
next nloop
jump SELF loop_start
run 10000 # 10ps
PPPM initialization ...
  extracting TIP4P info from pair style
  using 12-bit tables for long-range coulomb
  G vector (1/distance) = 0.32815664
  grid = 50 50 50
  stencil order = 5
  estimated absolute RMS force accuracy = 0.0035802102
  estimated relative force accuracy = 1.0781697e-05
  using double precision KISS FFT
  3d grid and FFT values/proc = 11424 2800
Generated 0 of 1 mixed pair_coeff terms from geometric mixing rule
Per MPI rank memory allocation (min/avg/max) = 10.92 | 11.04 | 11.13 Mbytes
   Step          Temp          TotEng         PotEng          Pxy           v_sxy         v_strain     v_viscosity  
    860000   433.06348     -37584.417     -48158.015     -1527.5364      0.14619317     215            0.00058477266
    861000   438.65497     -37364.081     -48074.199     -2406.3713      0.23386562     215.25         0.00093546247
    862000   421.64562     -37988.058     -48282.879     -2235.7154      0.21814356     215.5          0.00087257426
    863000   433.60772     -37609.352     -48196.237     -2122.1531      0.21157512     215.75         0.00084630048
    864000   432.72555     -37675.689     -48241.037     -2141.756       0.20808002     216            0.00083232009
    865000   429.49744     -37832.102     -48318.633     -1834.3933      0.18313242     216.25         0.00073252967
    866000   439.21612     -37371.379     -48095.198     -2506.9273      0.24167645     216.5          0.00096670582
    867000   430.65028     -37550.383     -48065.061     -1959.6308      0.18684845     216.75         0.00074739378
    868000   434.07099     -37620.445     -48218.642     -2044.6032      0.20265136     217            0.00081060545
    869000   432.84521     -37606.445     -48174.714     -2316.5193      0.23244365     217.25         0.00092977461
    870000   435.85398     -37544.657     -48186.387     -2155.1528      0.21128693     217.5          0.00084514773
Loop time of 44.568 on 56 procs for 10000 steps with 12288 atoms

Performance: 19.386 ns/day, 1.238 hours/ns, 224.376 timesteps/s, 2.757 Matom-step/s
99.8% CPU use with 56 MPI tasks x no OpenMP threads

MPI task timing breakdown:
Section |  min time  |  avg time  |  max time  |%varavg| %total
---------------------------------------------------------------
Pair    | 18.36      | 19.66      | 20.686     |  12.5 | 44.11
Bond    | 0.0011869  | 0.002352   | 0.0037426  |   1.0 |  0.01
Kspace  | 10.755     | 11.806     | 13.038     |  15.3 | 26.49
Neigh   | 4.505      | 4.5087     | 4.5111     |   0.1 | 10.12
Comm    | 1.53       | 1.6413     | 1.8271     |   4.8 |  3.68
Output  | 0.023885   | 0.041155   | 0.057654   |   4.9 |  0.09
Modify  | 5.1137     | 5.6495     | 6.6592     |  14.8 | 12.68
Other   |            | 1.259      |            |       |  2.83

Nlocal:        219.429 ave         236 max         202 min
Histogram: 3 0 9 5 8 14 5 6 3 3
Nghost:        7281.29 ave        7320 max        7235 min
Histogram: 4 1 5 3 10 11 8 5 2 7
Neighs:        96066.4 ave      104462 max       87402 min
Histogram: 2 2 7 5 10 11 10 4 2 3

Total # of neighbors = 5379718
Ave neighs/atom = 437.80257
Ave special neighs/atom = 2
Neighbor list builds = 383
Dangerous builds = 0
kspace_style pppm/tip4p 1.0e-5
next nloop
jump SELF loop_start
run 10000 # 10ps
PPPM initialization ...
  extracting TIP4P info from pair style
  using 12-bit tables for long-range coulomb
  G vector (1/distance) = 0.32815664
  grid = 50 75 50
  stencil order = 5
  estimated absolute RMS force accuracy = 0.0035802102
  estimated relative force accuracy = 1.0781697e-05
  using double precision KISS FFT
  3d grid and FFT values/proc = 15776 4000
Generated 0 of 1 mixed pair_coeff terms from geometric mixing rule
Per MPI rank memory allocation (min/avg/max) = 11.21 | 11.35 | 11.45 Mbytes
   Step          Temp          TotEng         PotEng          Pxy           v_sxy         v_strain     v_viscosity  
    870000   435.89025     -37544.278     -48186.894     -1686.5693      0.16369685     217.5          0.00065478739
    871000   436.90552     -37430.588     -48097.992     -2122.7235      0.20928116     217.75         0.00083712463
    872000   434.07205     -37645.419     -48243.642     -2254.4339      0.22110873     218            0.00088443491
    873000   435.79045     -37443.505     -48083.684     -2106.3367      0.20434447     218.25         0.00081737787
    874000   434.95444     -37335.883     -47955.651     -2379.6149      0.23303805     218.5          0.00093215222
    875000   429.46332     -37600.099     -48085.796     -2229.9779      0.21813084     218.75         0.00087252334
    876000   437.25324     -37452.217     -48128.112     -2066.7266      0.20519199     219            0.00082076795
    877000   430.77803     -37862.459     -48380.256     -1712.5204      0.17844748     219.25         0.00071378992
    878000   432.69478     -37567.606     -48132.202     -2159.0334      0.2065848      219.5          0.00082633921
    879000   428.3698      -37795.285     -48254.283     -2071.1416      0.20504489     219.75         0.00082017957
    880000   437.15997     -37620.003     -48293.62      -1962.8431      0.19156068     220            0.00076624271
Loop time of 52.0672 on 56 procs for 10000 steps with 12288 atoms

Performance: 16.594 ns/day, 1.446 hours/ns, 192.059 timesteps/s, 2.360 Matom-step/s
99.8% CPU use with 56 MPI tasks x no OpenMP threads

MPI task timing breakdown:
Section |  min time  |  avg time  |  max time  |%varavg| %total
---------------------------------------------------------------
Pair    | 18.781     | 19.927     | 21.273     |  12.7 | 38.27
Bond    | 0.0016505  | 0.0027459  | 0.0039517  |   1.2 |  0.01
Kspace  | 14.901     | 16.087     | 17.181     |  13.6 | 30.90
Neigh   | 4.5278     | 4.5314     | 4.5339     |   0.1 |  8.70
Comm    | 1.6593     | 1.8057     | 1.9942     |   5.7 |  3.47
Output  | 0.02375    | 0.040759   | 0.057111   |   4.9 |  0.08
Modify  | 7.2828     | 8.0381     | 9.4252     |  18.0 | 15.44
Other   |            | 1.635      |            |       |  3.14

Nlocal:        219.429 ave         237 max         201 min
Histogram: 1 5 3 9 9 8 10 2 7 2
Nghost:        6838.16 ave        6925 max        6723 min
Histogram: 1 0 3 8 10 8 10 10 3 3
Neighs:        96061.2 ave      103440 max       86896 min
Histogram: 1 4 3 6 12 6 8 6 4 6

Total # of neighbors = 5379426
Ave neighs/atom = 437.77881
Ave special neighs/atom = 2
Neighbor list builds = 383
Dangerous builds = 0
kspace_style pppm/tip4p 1.0e-5
next nloop
jump SELF loop_start
run 10000 # 10ps
PPPM initialization ...
  extracting TIP4P info from pair style
  using 12-bit tables for long-range coulomb
  G vector (1/distance) = 0.32815664
  grid = 50 50 50
  stencil order = 5
  estimated absolute RMS force accuracy = 0.0035802102
  estimated relative force accuracy = 1.0781697e-05
  using double precision KISS FFT
  3d grid and FFT values/proc = 11424 2800
Generated 0 of 1 mixed pair_coeff terms from geometric mixing rule
Per MPI rank memory allocation (min/avg/max) = 10.92 | 11.04 | 11.13 Mbytes
   Step          Temp          TotEng         PotEng          Pxy           v_sxy         v_strain     v_viscosity  
    880000   437.24003     -37619.123     -48294.695     -1501.9745      0.14467088     220            0.00057868351
    881000   427.49663     -37763.119     -48200.797     -1988.378       0.19783914     220.25         0.00079135655
    882000   430.74486     -37789.77      -48306.757     -2138.2979      0.21377092     220.5          0.00085508367
    883000   436.29829     -37699.097     -48351.676     -2211.1882      0.22151117     220.75         0.00088604466
    884000   433.68979     -37671.42      -48260.309     -2364.5579      0.23301684     221            0.00093206736
    885000   428.00837     -37815.768     -48265.941     -2437.5482      0.24154185     221.25         0.00096616738
    886000   428.78732     -37698.006     -48167.198     -2373.8671      0.23606745     221.5          0.00094426978
    887000   428.77244     -37881.865     -48350.693     -2156.8254      0.20823722     221.75         0.00083294886
    888000   431.68726     -37799.932     -48339.929     -2104.6411      0.20887869     222            0.00083551476
    889000   431.85661     -37444.406     -47988.537     -2159.8042      0.21768882     222.25         0.0008707553 
    890000   430.60678     -37798.529     -48312.144     -2270.9903      0.22234252     222.5          0.00088937007
Loop time of 44.6409 on 56 procs for 10000 steps with 12288 atoms

Performance: 19.354 ns/day, 1.240 hours/ns, 224.010 timesteps/s, 2.753 Matom-step/s
99.8% CPU use with 56 MPI tasks x no OpenMP threads

MPI task timing breakdown:
Section |  min time  |  avg time  |  max time  |%varavg| %total
---------------------------------------------------------------
Pair    | 18.371     | 19.647     | 21.224     |  12.0 | 44.01
Bond    | 0.0012048  | 0.0023294  | 0.0039759  |   1.1 |  0.01
Kspace  | 10.256     | 11.864     | 13.009     |  15.3 | 26.58
Neigh   | 4.5189     | 4.5225     | 4.5245     |   0.1 | 10.13
Comm    | 1.5355     | 1.638      | 1.8075     |   4.6 |  3.67
Output  | 0.023114   | 0.040311   | 0.056791   |   5.0 |  0.09
Modify  | 5.1687     | 5.6674     | 6.6691     |  14.7 | 12.70
Other   |            | 1.259      |            |       |  2.82

Nlocal:        219.429 ave         238 max         199 min
Histogram: 1 4 6 10 7 3 12 6 5 2
Nghost:        7297.29 ave        7366 max        7242 min
Histogram: 5 4 9 9 6 7 6 4 3 3
Neighs:        96051.1 ave      104933 max       86758 min
Histogram: 3 2 6 9 6 6 13 4 5 2

Total # of neighbors = 5378864
Ave neighs/atom = 437.73307
Ave special neighs/atom = 2
Neighbor list builds = 380
Dangerous builds = 0
kspace_style pppm/tip4p 1.0e-5
next nloop
jump SELF loop_start
run 10000 # 10ps
PPPM initialization ...
  extracting TIP4P info from pair style
  using 12-bit tables for long-range coulomb
  G vector (1/distance) = 0.32815664
  grid = 50 75 50
  stencil order = 5
  estimated absolute RMS force accuracy = 0.0035802102
  estimated relative force accuracy = 1.0781697e-05
  using double precision KISS FFT
  3d grid and FFT values/proc = 15776 4000
Generated 0 of 1 mixed pair_coeff terms from geometric mixing rule
Per MPI rank memory allocation (min/avg/max) = 11.21 | 11.35 | 11.45 Mbytes
   Step          Temp          TotEng         PotEng          Pxy           v_sxy         v_strain     v_viscosity  
    890000   430.73929     -37796.681     -48313.531     -1712.2939      0.16465767     222.5          0.00065863069
    891000   433.55937     -37517.904     -48103.609     -2207.0947      0.21817599     222.75         0.00087270398
    892000   430.5856      -37777.321     -48290.419     -2077.3947      0.20535107     223            0.00082140428
    893000   433.32232     -37586.076     -48165.994     -2241.2278      0.21820715     223.25         0.00087282862
    894000   431.74227     -37776.556     -48317.896     -1989.245       0.1892038      223.5          0.00075681519
    895000   431.36171     -37767.035     -48299.082     -2311.7472      0.22633955     223.75         0.0009053582 
    896000   437.03141     -37292.297     -47962.776     -2677.2925      0.2645213      224            0.0010580852 
    897000   433.71236     -37681.632     -48271.073     -2230.8119      0.21767957     224.25         0.00087071829
    898000   433.13554     -37515.89      -48091.247     -2317.8918      0.22461229     224.5          0.00089844918
    899000   434.01027     -37510.284     -48106.998     -1993.6184      0.19634169     224.75         0.00078536678
    900000   428.45306     -37768.504     -48229.535     -1855.8809      0.18189712     225            0.00072758848
Loop time of 52.0654 on 56 procs for 10000 steps with 12288 atoms

Performance: 16.595 ns/day, 1.446 hours/ns, 192.066 timesteps/s, 2.360 Matom-step/s
99.8% CPU use with 56 MPI tasks x no OpenMP threads

MPI task timing breakdown:
Section |  min time  |  avg time  |  max time  |%varavg| %total
---------------------------------------------------------------
Pair    | 18.944     | 19.933     | 21.218     |  11.0 | 38.28
Bond    | 0.0015642  | 0.0027425  | 0.0044075  |   1.2 |  0.01
Kspace  | 14.831     | 16.054     | 16.942     |  11.6 | 30.83
Neigh   | 4.5391     | 4.5431     | 4.5453     |   0.1 |  8.73
Comm    | 1.6764     | 1.8151     | 1.9705     |   5.8 |  3.49
Output  | 0.023071   | 0.040132   | 0.056457   |   4.9 |  0.08
Modify  | 7.3473     | 8.0492     | 9.4188     |  17.8 | 15.46
Other   |            | 1.628      |            |       |  3.13

Nlocal:        219.429 ave         234 max         200 min
Histogram: 1 0 7 6 9 8 5 10 7 3
Nghost:        6835.25 ave        6915 max        6771 min
Histogram: 3 6 5 10 10 10 3 6 2 1
Neighs:          96068 ave      103066 max       86376 min
Histogram: 1 0 8 5 8 8 6 5 12 3

Total # of neighbors = 5379809
Ave neighs/atom = 437.80998
Ave special neighs/atom = 2
Neighbor list builds = 386
Dangerous builds = 0
kspace_style pppm/tip4p 1.0e-5
next nloop
jump SELF loop_start
run 10000 # 10ps
PPPM initialization ...
  extracting TIP4P info from pair style
  using 12-bit tables for long-range coulomb
  G vector (1/distance) = 0.32815664
  grid = 50 50 50
  stencil order = 5
  estimated absolute RMS force accuracy = 0.0035802102
  estimated relative force accuracy = 1.0781697e-05
  using double precision KISS FFT
  3d grid and FFT values/proc = 11424 2800
Generated 0 of 1 mixed pair_coeff terms from geometric mixing rule
Per MPI rank memory allocation (min/avg/max) = 10.92 | 11.04 | 11.13 Mbytes
   Step          Temp          TotEng         PotEng          Pxy           v_sxy         v_strain     v_viscosity  
    900000   428.55984     -37766.862     -48230.5       -1263.0344      0.12103233     225            0.00048412933
    901000   436.77618     -37453.505     -48117.751     -2112.4098      0.20821095     225.25         0.0008328438 
    902000   430.93156     -37771.132     -48292.678     -2075.2761      0.20656853     225.5          0.00082627413
    903000   429.14082     -37801.236     -48279.059     -2201.169       0.21169842     225.75         0.0008467937 
    904000   432.06995     -37703.268     -48252.608     -2371.5368      0.23345229     226            0.00093380917
    905000   435.64757     -37503.969     -48140.66      -2114.5734      0.20632589     226.25         0.00082530355
    906000   429.27531     -37873.166     -48354.273     -2024.9725      0.20040322     226.5          0.00080161287
    907000   432.22099     -37584.006     -48137.034     -2117.3523      0.20555377     226.75         0.00082221507
    908000   433.71015     -37663.198     -48252.585     -2400.7189      0.24155108     227            0.00096620434
    909000   426.47572     -37707.249     -48120.001     -2362.514       0.230992       227.25         0.00092396799
    910000   431.37284     -37596.008     -48128.328     -2302.2345      0.22923689     227.5          0.00091694758
Loop time of 44.7026 on 56 procs for 10000 steps with 12288 atoms

Performance: 19.328 ns/day, 1.242 hours/ns, 223.700 timesteps/s, 2.749 Matom-step/s
99.8% CPU use with 56 MPI tasks x no OpenMP threads

MPI task timing breakdown:
Section |  min time  |  avg time  |  max time  |%varavg| %total
---------------------------------------------------------------
Pair    | 18.757     | 19.629     | 20.918     |  11.4 | 43.91
Bond    | 0.0012433  | 0.0023189  | 0.0036359  |   1.0 |  0.01
Kspace  | 10.663     | 12.03      | 12.859     |  14.7 | 26.91
Neigh   | 4.4564     | 4.4598     | 4.462      |   0.1 |  9.98
Comm    | 1.5402     | 1.6303     | 1.7811     |   4.3 |  3.65
Output  | 0.023323   | 0.040569   | 0.056993   |   5.0 |  0.09
Modify  | 5.1386     | 5.6506     | 6.655      |  14.8 | 12.64
Other   |            | 1.26       |            |       |  2.82

Nlocal:        219.429 ave         238 max         202 min
Histogram: 3 4 5 10 8 12 3 3 4 4
Nghost:        7271.62 ave        7307 max        7222 min
Histogram: 1 5 2 4 6 9 6 13 6 4
Neighs:        96076.3 ave      105777 max       87481 min
Histogram: 3 5 5 9 10 10 4 2 5 3

Total # of neighbors = 5380273
Ave neighs/atom = 437.84774
Ave special neighs/atom = 2
Neighbor list builds = 380
Dangerous builds = 0
kspace_style pppm/tip4p 1.0e-5
next nloop
jump SELF loop_start
run 10000 # 10ps
PPPM initialization ...
  extracting TIP4P info from pair style
  using 12-bit tables for long-range coulomb
  G vector (1/distance) = 0.32815664
  grid = 50 75 50
  stencil order = 5
  estimated absolute RMS force accuracy = 0.0035802102
  estimated relative force accuracy = 1.0781697e-05
  using double precision KISS FFT
  3d grid and FFT values/proc = 15776 4000
Generated 0 of 1 mixed pair_coeff terms from geometric mixing rule
Per MPI rank memory allocation (min/avg/max) = 11.21 | 11.35 | 11.45 Mbytes
   Step          Temp          TotEng         PotEng          Pxy           v_sxy         v_strain     v_viscosity  
    910000   431.3597      -37595.914     -48127.913     -1755.5548      0.17378315     227.5          0.00069513262
    911000   425.88974     -37708.356     -48106.801     -2115.0305      0.21243764     227.75         0.00084975054
    912000   436.09537     -37542.37      -48189.994     -2538.4204      0.24866041     228            0.00099464162
    913000   431.70817     -37621.332     -48161.839     -2124.2858      0.20961818     228.25         0.00083847271
    914000   437.42317     -37570.575     -48250.619     -2253.2857      0.22756722     228.5          0.00091026886
    915000   438.38967     -37311.345     -48014.986     -2360.7302      0.23216949     228.75         0.00092867794
    916000   435.77455     -37711.152     -48350.943     -2097.8221      0.20549309     229            0.00082197236
    917000   435.36223     -37556.008     -48185.732     -2031.3998      0.203746       229.25         0.00081498401
    918000   432.15452     -37703.438     -48254.843     -2249.2816      0.2196572      229.5          0.00087862881
    919000   439.57745     -37317.274     -48049.916     -1974.5147      0.19146112     229.75         0.00076584447
    920000   435.23496     -37599.054     -48225.67      -1858.4291      0.17882232     230            0.00071528929
Loop time of 52.1304 on 56 procs for 10000 steps with 12288 atoms

Performance: 16.574 ns/day, 1.448 hours/ns, 191.827 timesteps/s, 2.357 Matom-step/s
99.8% CPU use with 56 MPI tasks x no OpenMP threads

MPI task timing breakdown:
Section |  min time  |  avg time  |  max time  |%varavg| %total
---------------------------------------------------------------
Pair    | 19.07      | 19.923     | 20.982     |  10.4 | 38.22
Bond    | 0.0016088  | 0.0026995  | 0.0043903  |   1.2 |  0.01
Kspace  | 14.966     | 16.131     | 16.895     |  11.3 | 30.94
Neigh   | 4.5368     | 4.5403     | 4.5426     |   0.1 |  8.71
Comm    | 1.6723     | 1.8154     | 2.0097     |   6.1 |  3.48
Output  | 0.023537   | 0.040549   | 0.056951   |   4.9 |  0.08
Modify  | 7.3536     | 8.0537     | 9.4241     |  17.8 | 15.45
Other   |            | 1.625      |            |       |  3.12

Nlocal:        219.429 ave         237 max         192 min
Histogram: 1 1 4 3 3 11 14 8 7 4
Nghost:        6831.95 ave        6915 max        6726 min
Histogram: 1 0 3 9 8 15 5 6 7 2
Neighs:          96065 ave      105944 max       82575 min
Histogram: 1 2 2 3 11 11 12 8 4 2

Total # of neighbors = 5379640
Ave neighs/atom = 437.79622
Ave special neighs/atom = 2
Neighbor list builds = 384
Dangerous builds = 0
kspace_style pppm/tip4p 1.0e-5
next nloop
jump SELF loop_start
run 10000 # 10ps
PPPM initialization ...
  extracting TIP4P info from pair style
  using 12-bit tables for long-range coulomb
  G vector (1/distance) = 0.32815664
  grid = 50 50 50
  stencil order = 5
  estimated absolute RMS force accuracy = 0.0035802102
  estimated relative force accuracy = 1.0781697e-05
  using double precision KISS FFT
  3d grid and FFT values/proc = 11424 2800
Generated 0 of 1 mixed pair_coeff terms from geometric mixing rule
Per MPI rank memory allocation (min/avg/max) = 10.92 | 11.04 | 11.13 Mbytes
   Step          Temp          TotEng         PotEng          Pxy           v_sxy         v_strain     v_viscosity  
    920000   435.05067     -37605.743     -48227.86      -1193.1895      0.11098901     230            0.00044395603
    921000   442.17986     -37286.725     -48082.907     -2306.5104      0.22964023     230.25         0.00091856094
    922000   439.31252     -37482.524     -48208.697     -2012.8618      0.19940455     230.5          0.0007976182 
    923000   432.89148     -37609.959     -48179.357     -2172.8071      0.21032491     230.75         0.00084129964
    924000   436.05691     -37465.776     -48112.461     -1949.2552      0.19297902     231            0.00077191609
    925000   434.34115     -37609.863     -48214.657     -2047.5075      0.20776357     231.25         0.00083105428
    926000   434.97768     -37407.424     -48027.758     -2234.7416      0.21835837     231.5          0.00087343349
    927000   437.67048     -37556.142     -48242.223     -2014.0961      0.19760294     231.75         0.00079041176
    928000   434.2421      -37492.447     -48094.822     -2431.3193      0.24126075     232            0.00096504301
    929000   436.19999     -37616.31      -48266.488     -2074.947       0.20262386     232.25         0.00081049545
    930000   435.51403     -37620.994     -48254.424     -2280.927       0.22463717     232.5          0.00089854867
Loop time of 44.551 on 56 procs for 10000 steps with 12288 atoms

Performance: 19.394 ns/day, 1.238 hours/ns, 224.462 timesteps/s, 2.758 Matom-step/s
99.8% CPU use with 56 MPI tasks x no OpenMP threads

MPI task timing breakdown:
Section |  min time  |  avg time  |  max time  |%varavg| %total
---------------------------------------------------------------
Pair    | 18.68      | 19.645     | 20.783     |  11.0 | 44.10
Bond    | 0.0012338  | 0.0023196  | 0.0035499  |   1.0 |  0.01
Kspace  | 10.724     | 11.813     | 12.817     |  14.0 | 26.52
Neigh   | 4.4828     | 4.4865     | 4.4888     |   0.1 | 10.07
Comm    | 1.5239     | 1.6303     | 1.7988     |   4.3 |  3.66
Output  | 0.023291   | 0.040468   | 0.056904   |   5.0 |  0.09
Modify  | 5.1476     | 5.665      | 6.6926     |  14.7 | 12.72
Other   |            | 1.268      |            |       |  2.85

Nlocal:        219.429 ave         236 max         201 min
Histogram: 3 1 8 7 4 6 13 7 5 2
Nghost:        7265.93 ave        7314 max        7214 min
Histogram: 2 3 7 5 7 10 11 5 2 4
Neighs:        96075.4 ave      104204 max       86449 min
Histogram: 3 2 6 3 8 9 9 10 4 2

Total # of neighbors = 5380223
Ave neighs/atom = 437.84367
Ave special neighs/atom = 2
Neighbor list builds = 382
Dangerous builds = 0
kspace_style pppm/tip4p 1.0e-5
next nloop
jump SELF loop_start
run 10000 # 10ps
PPPM initialization ...
  extracting TIP4P info from pair style
  using 12-bit tables for long-range coulomb
  G vector (1/distance) = 0.32815664
  grid = 50 75 50
  stencil order = 5
  estimated absolute RMS force accuracy = 0.0035802102
  estimated relative force accuracy = 1.0781697e-05
  using double precision KISS FFT
  3d grid and FFT values/proc = 15776 4000
Generated 0 of 1 mixed pair_coeff terms from geometric mixing rule
Per MPI rank memory allocation (min/avg/max) = 11.21 | 11.35 | 11.45 Mbytes
   Step          Temp          TotEng         PotEng          Pxy           v_sxy         v_strain     v_viscosity  
    930000   435.90666     -37610.679     -48253.696     -1751.658       0.17014673     232.5          0.00068058691
    931000   436.21168     -37588.029     -48238.493     -2316.1035      0.22567726     232.75         0.00090270904
    932000   433.32798     -37498.846     -48078.902     -2161.6434      0.21690977     233            0.0008676391 
    933000   432.54874     -37686.606     -48247.636     -1847.4879      0.18068691     233.25         0.00072274763
    934000   435.17954     -37748.585     -48373.848     -2040.285       0.20831497     233.5          0.00083325988
    935000   431.34319     -37645.312     -48176.907     -2271.9525      0.22456518     233.75         0.00089826071
    936000   434.03041     -37649.502     -48246.708     -2089.8566      0.20629469     234            0.00082517874
    937000   436.17354     -37471.903     -48121.435     -2070.2834      0.20052509     234.25         0.00080210037
    938000   429.29875     -37657.452     -48139.131     -2263.4926      0.21887783     234.5          0.00087551131
    939000   434.49775     -37499.882     -48108.499     -2334.6112      0.22984984     234.75         0.00091939935
    940000   431.52961     -37594.071     -48130.219     -1838.9663      0.18260007     235            0.00073040027
Loop time of 52.1915 on 56 procs for 10000 steps with 12288 atoms

Performance: 16.554 ns/day, 1.450 hours/ns, 191.602 timesteps/s, 2.354 Matom-step/s
99.8% CPU use with 56 MPI tasks x no OpenMP threads

MPI task timing breakdown:
Section |  min time  |  avg time  |  max time  |%varavg| %total
---------------------------------------------------------------
Pair    | 18.581     | 19.905     | 21.308     |  13.9 | 38.14
Bond    | 0.0015612  | 0.0026737  | 0.0047767  |   1.2 |  0.01
Kspace  | 14.695     | 16.219     | 17.433     |  14.6 | 31.08
Neigh   | 4.5157     | 4.5192     | 4.5214     |   0.1 |  8.66
Comm    | 1.6499     | 1.8315     | 2.0472     |   6.2 |  3.51
Output  | 0.023156   | 0.04009    | 0.05633    |   4.9 |  0.08
Modify  | 7.3417     | 8.0356     | 9.4228     |  17.8 | 15.40
Other   |            | 1.638      |            |       |  3.14

Nlocal:        219.429 ave         245 max         199 min
Histogram: 1 8 3 11 10 15 4 2 1 1
Nghost:        6854.07 ave        6918 max        6791 min
Histogram: 3 3 9 7 7 4 6 10 6 1
Neighs:        96055.3 ave      109262 max       87394 min
Histogram: 5 5 6 11 12 11 3 2 0 1

Total # of neighbors = 5379097
Ave neighs/atom = 437.75203
Ave special neighs/atom = 2
Neighbor list builds = 382
Dangerous builds = 0
kspace_style pppm/tip4p 1.0e-5
next nloop
jump SELF loop_start
run 10000 # 10ps
PPPM initialization ...
  extracting TIP4P info from pair style
  using 12-bit tables for long-range coulomb
  G vector (1/distance) = 0.32815664
  grid = 50 50 50
  stencil order = 5
  estimated absolute RMS force accuracy = 0.0035802102
  estimated relative force accuracy = 1.0781697e-05
  using double precision KISS FFT
  3d grid and FFT values/proc = 11424 2800
Generated 0 of 1 mixed pair_coeff terms from geometric mixing rule
Per MPI rank memory allocation (min/avg/max) = 10.92 | 11.04 | 11.13 Mbytes
   Step          Temp          TotEng         PotEng          Pxy           v_sxy         v_strain     v_viscosity  
    940000   431.77288     -37589.802     -48131.889     -1371.7261      0.13405027     235            0.00053620109
    941000   427.39825     -37765.608     -48200.885     -2233.3482      0.22132389     235.25         0.00088529554
    942000   429.52545     -37596.688     -48083.902     -2335.6488      0.22908707     235.5          0.00091634828
    943000   429.78435     -37778.916     -48272.451     -2346.3044      0.22699685     235.75         0.00090798739
    944000   430.81837     -37724.639     -48243.42      -2066.7684      0.20117354     236            0.00080469417
    945000   429.27226     -37679.609     -48160.641     -2137.7055      0.21035573     236.25         0.00084142292
    946000   432.56855     -37677.262     -48238.775     -2315.7525      0.23063866     236.5          0.00092255463
    947000   432.4852      -37613.018     -48172.496     -2077.7058      0.20215028     236.75         0.00080860111
    948000   431.36832     -37647.512     -48179.721     -2434.5448      0.24528594     237            0.00098114377
    949000   426.9539      -37784.238     -48208.665     -2153.4774      0.21438402     237.25         0.00085753607
    950000   428.64552     -37484.016     -47949.746     -2160.3374      0.21369921     237.5          0.00085479684
Loop time of 44.8681 on 56 procs for 10000 steps with 12288 atoms

Performance: 19.256 ns/day, 1.246 hours/ns, 222.876 timesteps/s, 2.739 Matom-step/s
99.8% CPU use with 56 MPI tasks x no OpenMP threads

MPI task timing breakdown:
Section |  min time  |  avg time  |  max time  |%varavg| %total
---------------------------------------------------------------
Pair    | 18.692     | 19.637     | 21.201     |  13.7 | 43.77
Bond    | 0.0012649  | 0.0023214  | 0.0038974  |   1.1 |  0.01
Kspace  | 10.527     | 12.106     | 13.049     |  17.3 | 26.98
Neigh   | 4.5157     | 4.519      | 4.5212     |   0.1 | 10.07
Comm    | 1.5336     | 1.6406     | 1.8192     |   4.9 |  3.66
Output  | 0.023071   | 0.040294   | 0.056781   |   5.0 |  0.09
Modify  | 5.151      | 5.6693     | 6.6639     |  14.6 | 12.64
Other   |            | 1.253      |            |       |  2.79

Nlocal:        219.429 ave         245 max         197 min
Histogram: 3 2 6 14 6 13 3 6 2 1
Nghost:        7281.64 ave        7358 max        7157 min
Histogram: 1 2 1 4 6 11 9 9 8 5
Neighs:        96076.5 ave      108834 max       85221 min
Histogram: 4 1 3 15 13 9 2 7 1 1

Total # of neighbors = 5380285
Ave neighs/atom = 437.84871
Ave special neighs/atom = 2
Neighbor list builds = 381
Dangerous builds = 0
kspace_style pppm/tip4p 1.0e-5
next nloop
jump SELF loop_start
run 10000 # 10ps
PPPM initialization ...
  extracting TIP4P info from pair style
  using 12-bit tables for long-range coulomb
  G vector (1/distance) = 0.32815664
  grid = 50 75 50
  stencil order = 5
  estimated absolute RMS force accuracy = 0.0035802102
  estimated relative force accuracy = 1.0781697e-05
  using double precision KISS FFT
  3d grid and FFT values/proc = 15776 4000
Generated 0 of 1 mixed pair_coeff terms from geometric mixing rule
Per MPI rank memory allocation (min/avg/max) = 11.21 | 11.35 | 11.45 Mbytes
   Step          Temp          TotEng         PotEng          Pxy           v_sxy         v_strain     v_viscosity  
    950000   428.37022     -37489.466     -47948.474     -1711.4627      0.1679605      237.5          0.00067184199
    951000   425.62482     -37813.944     -48205.921     -2176.7438      0.21246627     237.75         0.00084986506
    952000   427.58564     -37807.28      -48247.132     -2273.6952      0.22102902     238            0.00088411607
    953000   432.03726     -37552.163     -48100.705     -2427.4895      0.23852532     238.25         0.00095410129
    954000   435.06558     -37536.826     -48159.306     -2325.1174      0.22678262     238.5          0.00090713048
    955000   436.76403     -37573.069     -48237.019     -2136.9653      0.20586526     238.75         0.00082346105
    956000   432.34815     -37750.838     -48306.971     -2120.7034      0.21029947     239            0.0008411979 
    957000   428.93606     -37806.684     -48279.508     -2640.8988      0.26154427     239.25         0.0010461771 
    958000   436.53479     -37556.949     -48215.301     -1918.1101      0.18871399     239.5          0.00075485597
    959000   430.66726     -37712.76      -48227.852     -2348.5904      0.22779592     239.75         0.00091118369
    960000   431.44777     -37565.514     -48099.663     -2268.2645      0.22733975     240            0.000909359  
Loop time of 52.0016 on 56 procs for 10000 steps with 12288 atoms

Performance: 16.615 ns/day, 1.444 hours/ns, 192.302 timesteps/s, 2.363 Matom-step/s
99.8% CPU use with 56 MPI tasks x no OpenMP threads

MPI task timing breakdown:
Section |  min time  |  avg time  |  max time  |%varavg| %total
---------------------------------------------------------------
Pair    | 18.928     | 19.897     | 21.082     |  11.2 | 38.26
Bond    | 0.0016009  | 0.002684   | 0.0045207  |   1.2 |  0.01
Kspace  | 14.789     | 16.031     | 17.04      |  12.2 | 30.83
Neigh   | 4.5112     | 4.5146     | 4.5168     |   0.1 |  8.68
Comm    | 1.6746     | 1.8199     | 2.0043     |   5.9 |  3.50
Output  | 0.023675   | 0.040893   | 0.057441   |   5.0 |  0.08
Modify  | 7.3488     | 8.0472     | 9.4294     |  17.8 | 15.47
Other   |            | 1.647      |            |       |  3.17

Nlocal:        219.429 ave         233 max         203 min
Histogram: 3 4 2 3 8 6 14 7 6 3
Nghost:         6843.7 ave        6915 max        6757 min
Histogram: 2 2 8 1 8 10 11 8 3 3
Neighs:          96072 ave      103523 max       86982 min
Histogram: 3 2 5 3 9 7 13 7 5 2

Total # of neighbors = 5380034
Ave neighs/atom = 437.82829
Ave special neighs/atom = 2
Neighbor list builds = 383
Dangerous builds = 0
kspace_style pppm/tip4p 1.0e-5
next nloop
jump SELF loop_start
run 10000 # 10ps
PPPM initialization ...
  extracting TIP4P info from pair style
  using 12-bit tables for long-range coulomb
  G vector (1/distance) = 0.32815664
  grid = 50 50 50
  stencil order = 5
  estimated absolute RMS force accuracy = 0.0035802102
  estimated relative force accuracy = 1.0781697e-05
  using double precision KISS FFT
  3d grid and FFT values/proc = 11424 2800
Generated 0 of 1 mixed pair_coeff terms from geometric mixing rule
Per MPI rank memory allocation (min/avg/max) = 10.92 | 11.04 | 11.13 Mbytes
   Step          Temp          TotEng         PotEng          Pxy           v_sxy         v_strain     v_viscosity  
    960000   431.34744     -37568.958     -48100.657     -1693.0212      0.16839822     240            0.00067359288
    961000   435.30263     -37561.039     -48189.308     -2207.5459      0.21880484     240.25         0.00087521935
    962000   430.581       -37655.876     -48168.862     -2448.9275      0.24552077     240.5          0.0009820831 
    963000   433.25034     -37462.388     -48040.548     -2191.5692      0.21759273     240.75         0.00087037093
    964000   433.44663     -37557.401     -48140.354     -2338.9101      0.2299791      241            0.00091991638
    965000   433.14412     -37692.697     -48268.263     -1762.5988      0.17430924     241.25         0.00069723696
    966000   435.75706     -37557.287     -48196.651     -2095.2056      0.20427999     241.5          0.00081711997
    967000   434.98018     -37388.796     -48009.192     -1706.1114      0.16598002     241.75         0.00066392009
    968000   432.88287     -37615.378     -48184.566     -2423.0998      0.23720095     242            0.0009488038 
    969000   429.78037     -37692.815     -48186.253     -1741.8351      0.16869285     242.25         0.00067477139
    970000   429.04534     -37833.619     -48309.111     -2115.1193      0.21486419     242.5          0.00085945678
Loop time of 44.4773 on 56 procs for 10000 steps with 12288 atoms

Performance: 19.426 ns/day, 1.235 hours/ns, 224.834 timesteps/s, 2.763 Matom-step/s
99.8% CPU use with 56 MPI tasks x no OpenMP threads

MPI task timing breakdown:
Section |  min time  |  avg time  |  max time  |%varavg| %total
---------------------------------------------------------------
Pair    | 18.609     | 19.61      | 20.778     |  12.4 | 44.09
Bond    | 0.0012551  | 0.0023079  | 0.003525   |   1.1 |  0.01
Kspace  | 10.588     | 11.785     | 12.734     |  15.6 | 26.50
Neigh   | 4.5041     | 4.5077     | 4.51       |   0.1 | 10.13
Comm    | 1.5264     | 1.629      | 1.7896     |   4.4 |  3.66
Output  | 0.02317    | 0.040305   | 0.056659   |   5.0 |  0.09
Modify  | 5.1556     | 5.6495     | 6.6342     |  14.6 | 12.70
Other   |            | 1.254      |            |       |  2.82

Nlocal:        219.429 ave         239 max         195 min
Histogram: 1 1 3 6 5 16 13 7 3 1
Nghost:        7273.64 ave        7356 max        7212 min
Histogram: 4 6 6 8 10 12 4 4 0 2
Neighs:        96068.3 ave      105634 max       84195 min
Histogram: 1 1 2 7 5 20 7 9 3 1

Total # of neighbors = 5379826
Ave neighs/atom = 437.81136
Ave special neighs/atom = 2
Neighbor list builds = 382
Dangerous builds = 0
kspace_style pppm/tip4p 1.0e-5
next nloop
jump SELF loop_start
run 10000 # 10ps
PPPM initialization ...
  extracting TIP4P info from pair style
  using 12-bit tables for long-range coulomb
  G vector (1/distance) = 0.32815664
  grid = 50 75 50
  stencil order = 5
  estimated absolute RMS force accuracy = 0.0035802102
  estimated relative force accuracy = 1.0781697e-05
  using double precision KISS FFT
  3d grid and FFT values/proc = 15776 4000
Generated 0 of 1 mixed pair_coeff terms from geometric mixing rule
Per MPI rank memory allocation (min/avg/max) = 11.21 | 11.35 | 11.45 Mbytes
   Step          Temp          TotEng         PotEng          Pxy           v_sxy         v_strain     v_viscosity  
    970000   429.23576     -37829.881     -48310.022     -1693.8152      0.1715181      242.5          0.00068607242
    971000   429.42753     -37728.884     -48213.708     -2066.7737      0.20669425     242.75         0.00082677701
    972000   431.94661     -37588.115     -48134.444     -2158.9914      0.20678106     243            0.00082712423
    973000   427.68087     -37625.511     -48067.688     -1876.1807      0.19102977     243.25         0.0007641191 
    974000   427.7376      -37862.551     -48306.114     -1785.6563      0.17846577     243.5          0.00071386308
    975000   431.76813     -37642.25      -48184.221     -2354.4389      0.22869774     243.75         0.00091479095
    976000   436.61399     -37320.408     -47980.694     -1951.4495      0.19154397     244            0.00076617588
    977000   435.03984     -37811.326     -48433.179     -2331.6983      0.23049832     244.25         0.00092199329
    978000   428.60487     -37827.667     -48292.404     -2163.5918      0.2077397      244.5          0.00083095882
    979000   431.29094     -37660.71      -48191.03      -1870.8856      0.18227808     244.75         0.00072911232
    980000   428.22695     -37703.819     -48159.329     -2293.9336      0.22526714     245            0.00090106858
Loop time of 51.7247 on 56 procs for 10000 steps with 12288 atoms

Performance: 16.704 ns/day, 1.437 hours/ns, 193.331 timesteps/s, 2.376 Matom-step/s
99.8% CPU use with 56 MPI tasks x no OpenMP threads

MPI task timing breakdown:
Section |  min time  |  avg time  |  max time  |%varavg| %total
---------------------------------------------------------------
Pair    | 18.683     | 19.892     | 20.93      |  11.9 | 38.46
Bond    | 0.0015966  | 0.0026983  | 0.0047962  |   1.3 |  0.01
Kspace  | 14.884     | 15.833     | 16.965     |  13.0 | 30.61
Neigh   | 4.4684     | 4.4719     | 4.4744     |   0.1 |  8.65
Comm    | 1.6406     | 1.8182     | 2.0602     |   6.0 |  3.52
Output  | 0.023313   | 0.040156   | 0.056379   |   4.9 |  0.08
Modify  | 7.324      | 8.0435     | 9.4033     |  17.9 | 15.55
Other   |            | 1.623      |            |       |  3.14

Nlocal:        219.429 ave         236 max         192 min
Histogram: 1 1 1 5 5 9 13 12 6 3
Nghost:        6864.09 ave        6967 max        6789 min
Histogram: 6 3 8 7 11 7 8 4 1 1
Neighs:        96064.8 ave      103888 max       82242 min
Histogram: 1 1 0 3 8 9 13 11 4 6

Total # of neighbors = 5379627
Ave neighs/atom = 437.79517
Ave special neighs/atom = 2
Neighbor list builds = 380
Dangerous builds = 0
kspace_style pppm/tip4p 1.0e-5
next nloop
jump SELF loop_start
run 10000 # 10ps
PPPM initialization ...
  extracting TIP4P info from pair style
  using 12-bit tables for long-range coulomb
  G vector (1/distance) = 0.32815664
  grid = 50 50 50
  stencil order = 5
  estimated absolute RMS force accuracy = 0.0035802102
  estimated relative force accuracy = 1.0781697e-05
  using double precision KISS FFT
  3d grid and FFT values/proc = 11424 2800
Generated 0 of 1 mixed pair_coeff terms from geometric mixing rule
Per MPI rank memory allocation (min/avg/max) = 10.92 | 11.04 | 11.13 Mbytes
   Step          Temp          TotEng         PotEng          Pxy           v_sxy         v_strain     v_viscosity  
    980000   428.20626     -37704.725     -48159.729     -1801.8328      0.17439205     245            0.00069756819
    981000   431.47914     -37713.453     -48248.368     -2499.6797      0.24884876     245.25         0.00099539505
    982000   430.88382     -37517.392     -48037.771     -1918.1433      0.18388394     245.5          0.00073553574
    983000   429.95745     -37689.55      -48187.311     -2097.9931      0.21078753     245.75         0.00084315013
    984000   432.92815     -37632.702     -48202.995     -2328.3718      0.2262877      246            0.00090515082
    985000   430.62371     -37799.286     -48313.315     -2449.2665      0.2469479      246.25         0.0009877916 
    986000   433.12353     -37733.319     -48308.383     -2436.3032      0.24051429     246.5          0.00096205717
    987000   434.64954     -37650.943     -48263.266     -2128.5132      0.20948597     246.75         0.00083794387
    988000   432.33281     -37543.48      -48099.238     -1905.4655      0.18748895     247            0.00074995579
    989000   434.88614     -37601.197     -48219.297     -2071.1397      0.20735881     247.25         0.00082943525
    990000   433.82918     -37516.987     -48109.28      -2105.138       0.20442561     247.5          0.00081770244
Loop time of 44.6483 on 56 procs for 10000 steps with 12288 atoms

Performance: 19.351 ns/day, 1.240 hours/ns, 223.972 timesteps/s, 2.752 Matom-step/s
99.8% CPU use with 56 MPI tasks x no OpenMP threads

MPI task timing breakdown:
Section |  min time  |  avg time  |  max time  |%varavg| %total
---------------------------------------------------------------
Pair    | 18.616     | 19.6       | 21.065     |  10.8 | 43.90
Bond    | 0.0012941  | 0.0022836  | 0.0036636  |   1.1 |  0.01
Kspace  | 10.453     | 11.929     | 12.739     |  13.3 | 26.72
Neigh   | 4.5123     | 4.5153     | 4.5179     |   0.1 | 10.11
Comm    | 1.5426     | 1.6312     | 1.8282     |   4.7 |  3.65
Output  | 0.023383   | 0.040626   | 0.057094   |   5.0 |  0.09
Modify  | 5.1173     | 5.6547     | 6.6691     |  14.7 | 12.66
Other   |            | 1.275      |            |       |  2.86

Nlocal:        219.429 ave         249 max         199 min
Histogram: 1 6 11 4 13 14 5 1 0 1
Nghost:        7288.45 ave        7368 max        7210 min
Histogram: 4 6 10 5 2 3 12 4 5 5
Neighs:        96083.3 ave      111461 max       85872 min
Histogram: 2 6 9 12 12 8 5 1 0 1

Total # of neighbors = 5380663
Ave neighs/atom = 437.87948
Ave special neighs/atom = 2
Neighbor list builds = 381
Dangerous builds = 0
kspace_style pppm/tip4p 1.0e-5
next nloop
jump SELF loop_start
run 10000 # 10ps
PPPM initialization ...
  extracting TIP4P info from pair style
  using 12-bit tables for long-range coulomb
  G vector (1/distance) = 0.32815664
  grid = 50 75 50
  stencil order = 5
  estimated absolute RMS force accuracy = 0.0035802102
  estimated relative force accuracy = 1.0781697e-05
  using double precision KISS FFT
  3d grid and FFT values/proc = 15776 4000
Generated 0 of 1 mixed pair_coeff terms from geometric mixing rule
Per MPI rank memory allocation (min/avg/max) = 11.21 | 11.35 | 11.45 Mbytes
   Step          Temp          TotEng         PotEng          Pxy           v_sxy         v_strain     v_viscosity  
    990000   433.99347     -37515.18      -48111.485     -1477.3351      0.14071945     247.5          0.00056287781
    991000   433.97108     -37701.289     -48297.046     -2075.9082      0.2089118      247.75         0.0008356472 
    992000   434.80388     -37486.315     -48102.406     -2335.6263      0.22871545     248            0.00091486179
    993000   431.54197     -37639.917     -48176.366     -1784.9853      0.17345219     248.25         0.00069380877
    994000   436.13348     -37745.622     -48394.176     -2141.7632      0.20940662     248.5          0.00083762649
    995000   429.75925     -37684.26      -48177.183     -1744.2915      0.17365305     248.75         0.0006946122 
    996000   431.58187     -37613.636     -48151.059     -2087.2411      0.20923158     249            0.00083692632
    997000   438.80053     -37388.026     -48101.698     -2376.7914      0.23996447     249.25         0.00095985788
    998000   431.2635      -37627.717     -48157.367     -1829.5864      0.18247484     249.5          0.00072989937
    999000   435.03439     -37526.621     -48148.34      -2297.0458      0.22102913     249.75         0.00088411651
   1000000   433.0767      -37773.749     -48347.67      -2050.0153      0.2037198      250            0.0008148792 
Loop time of 51.8271 on 56 procs for 10000 steps with 12288 atoms

Performance: 16.671 ns/day, 1.440 hours/ns, 192.949 timesteps/s, 2.371 Matom-step/s
99.8% CPU use with 56 MPI tasks x no OpenMP threads

MPI task timing breakdown:
Section |  min time  |  avg time  |  max time  |%varavg| %total
---------------------------------------------------------------
Pair    | 18.889     | 19.859     | 21.038     |  11.0 | 38.32
Bond    | 0.0015632  | 0.0026759  | 0.0044715  |   1.2 |  0.01
Kspace  | 14.628     | 15.966     | 16.811     |  11.9 | 30.81
Neigh   | 4.4984     | 4.5021     | 4.5048     |   0.1 |  8.69
Comm    | 1.623      | 1.8052     | 2.064      |   6.6 |  3.48
Output  | 0.02344    | 0.040468   | 0.056792   |   4.9 |  0.08
Modify  | 7.3028     | 8.0343     | 9.3866     |  17.8 | 15.50
Other   |            | 1.618      |            |       |  3.12

Nlocal:        219.429 ave         242 max         200 min
Histogram: 5 3 9 3 7 14 8 4 1 2
Nghost:        6842.14 ave        6931 max        6775 min
Histogram: 5 4 7 11 6 10 7 3 2 1
Neighs:          96060 ave      107378 max       85151 min
Histogram: 4 1 9 4 6 10 15 5 1 1

Total # of neighbors = 5379362
Ave neighs/atom = 437.7736
Ave special neighs/atom = 2
Neighbor list builds = 381
Dangerous builds = 0
kspace_style pppm/tip4p 1.0e-5
next nloop
jump SELF loop_start
run 10000 # 10ps
PPPM initialization ...
  extracting TIP4P info from pair style
  using 12-bit tables for long-range coulomb
  G vector (1/distance) = 0.32815664
  grid = 50 50 50
  stencil order = 5
  estimated absolute RMS force accuracy = 0.0035802102
  estimated relative force accuracy = 1.0781697e-05
  using double precision KISS FFT
  3d grid and FFT values/proc = 11424 2800
Generated 0 of 1 mixed pair_coeff terms from geometric mixing rule
Per MPI rank memory allocation (min/avg/max) = 10.92 | 11.04 | 11.13 Mbytes
   Step          Temp          TotEng         PotEng          Pxy           v_sxy         v_strain     v_viscosity  
   1000000   433.27041     -37768.369     -48347.02      -1465.5035      0.14387902     250            0.00057551609
   1001000   430.94178     -37557.898     -48079.693     -2490.1177      0.24541414     250.25         0.00098165657
   1002000   434.95167     -37532.984     -48152.683     -2050.0098      0.20555188     250.5          0.00082220751
   1003000   437.03578     -37503.511     -48174.096     -2094.7959      0.20653701     250.75         0.00082614804
   1004000   430.31737     -37675.145     -48181.695     -2356.487       0.22889363     251            0.00091557452
   1005000   432.44575     -37693.461     -48251.977     -1990.8882      0.19657607     251.25         0.00078630428
   1006000   433.94773     -37560.367     -48155.554     -2164.5486      0.214836       251.5          0.00085934398
   1007000   436.40001     -37618.776     -48273.838     -1883.6524      0.18388046     251.75         0.00073552183
   1008000   434.19141     -37686.033     -48287.17      -2455.1371      0.24072219     252            0.00096288875
   1009000   432.76208     -37421.335     -47987.574     -1915.4578      0.1933015      252.25         0.00077320601
   1010000   433.77175     -37463.778     -48054.668     -2390.2171      0.23422958     252.5          0.0009369183 
Loop time of 44.7068 on 56 procs for 10000 steps with 12288 atoms

Performance: 19.326 ns/day, 1.242 hours/ns, 223.680 timesteps/s, 2.749 Matom-step/s
99.8% CPU use with 56 MPI tasks x no OpenMP threads

MPI task timing breakdown:
Section |  min time  |  avg time  |  max time  |%varavg| %total
---------------------------------------------------------------
Pair    | 18.489     | 19.582     | 21.034     |  12.5 | 43.80
Bond    | 0.0012683  | 0.0022997  | 0.0040747  |   1.1 |  0.01
Kspace  | 10.556     | 11.994     | 13.004     |  15.6 | 26.83
Neigh   | 4.4875     | 4.4907     | 4.493      |   0.1 | 10.04
Comm    | 1.5477     | 1.6428     | 1.8224     |   4.7 |  3.67
Output  | 0.023217   | 0.040521   | 0.057103   |   5.0 |  0.09
Modify  | 5.1766     | 5.6803     | 6.7016     |  14.6 | 12.71
Other   |            | 1.274      |            |       |  2.85

Nlocal:        219.429 ave         239 max         201 min
Histogram: 3 5 4 10 7 7 10 3 5 2
Nghost:        7272.88 ave        7319 max        7190 min
Histogram: 1 0 0 4 10 8 9 13 6 5
Neighs:        96082.4 ave      105986 max       87020 min
Histogram: 5 3 8 5 8 8 9 4 4 2

Total # of neighbors = 5380617
Ave neighs/atom = 437.87573
Ave special neighs/atom = 2
Neighbor list builds = 380
Dangerous builds = 0
kspace_style pppm/tip4p 1.0e-5
next nloop
jump SELF loop_start
run 10000 # 10ps
PPPM initialization ...
  extracting TIP4P info from pair style
  using 12-bit tables for long-range coulomb
  G vector (1/distance) = 0.32815664
  grid = 50 75 50
  stencil order = 5
  estimated absolute RMS force accuracy = 0.0035802102
  estimated relative force accuracy = 1.0781697e-05
  using double precision KISS FFT
  3d grid and FFT values/proc = 15776 4000
Generated 0 of 1 mixed pair_coeff terms from geometric mixing rule
Per MPI rank memory allocation (min/avg/max) = 11.21 | 11.35 | 11.45 Mbytes
   Step          Temp          TotEng         PotEng          Pxy           v_sxy         v_strain     v_viscosity  
   1010000   433.42743     -37472.588     -48055.072     -1757.3249      0.1690432      252.5          0.00067617278
   1011000   431.81598     -37615.979     -48159.118     -2156.651       0.20950695     252.75         0.00083802779
   1012000   433.77396     -37707.387     -48298.332     -1993.746       0.20033139     253            0.00080132555
   1013000   427.92128     -37866.606     -48314.653     -2210.239       0.21231292     253.25         0.00084925167
   1014000   431.00737     -37407.613     -47931.01      -2107.6606      0.20661976     253.5          0.00082647905
   1015000   437.21536     -37555.044     -48230.013     -2156.0718      0.21283331     253.75         0.00085133324
   1016000   432.03746     -37788.612     -48337.159     -2266.3277      0.22249802     254            0.00088999209
   1017000   430.83323     -37652.462     -48171.606     -2017.6994      0.20169443     254.25         0.00080677772
   1018000   437.12218     -37517.453     -48190.147     -2128.8975      0.21331516     254.5          0.00085326062
   1019000   439.16339     -37506.516     -48229.048     -2040.1161      0.20274108     254.75         0.00081096434
   1020000   432.98668     -37682.868     -48254.591     -1895.4926      0.18764534     255            0.00075058136
Loop time of 51.8801 on 56 procs for 10000 steps with 12288 atoms

Performance: 16.654 ns/day, 1.441 hours/ns, 192.752 timesteps/s, 2.369 Matom-step/s
99.8% CPU use with 56 MPI tasks x no OpenMP threads

MPI task timing breakdown:
Section |  min time  |  avg time  |  max time  |%varavg| %total
---------------------------------------------------------------
Pair    | 18.669     | 19.837     | 20.987     |  12.2 | 38.24
Bond    | 0.0015769  | 0.0026655  | 0.0043412  |   1.2 |  0.01
Kspace  | 14.881     | 16.002     | 17.011     |  13.1 | 30.84
Neigh   | 4.504      | 4.5081     | 4.5107     |   0.1 |  8.69
Comm    | 1.6638     | 1.8055     | 2.0123     |   6.2 |  3.48
Output  | 0.023143   | 0.040084   | 0.056395   |   4.9 |  0.08
Modify  | 7.2834     | 8.0352     | 9.4263     |  17.9 | 15.49
Other   |            | 1.65       |            |       |  3.18

Nlocal:        219.429 ave         242 max         197 min
Histogram: 1 2 6 4 18 7 9 4 4 1
Nghost:        6847.45 ave        6907 max        6767 min
Histogram: 3 3 5 3 5 9 8 9 4 7
Neighs:        96050.7 ave      108190 max       84799 min
Histogram: 2 1 4 13 12 10 6 6 1 1

Total # of neighbors = 5378841
Ave neighs/atom = 437.7312
Ave special neighs/atom = 2
Neighbor list builds = 380
Dangerous builds = 0
kspace_style pppm/tip4p 1.0e-5
next nloop
jump SELF loop_start
run 10000 # 10ps
PPPM initialization ...
  extracting TIP4P info from pair style
  using 12-bit tables for long-range coulomb
  G vector (1/distance) = 0.32815664
  grid = 50 50 50
  stencil order = 5
  estimated absolute RMS force accuracy = 0.0035802102
  estimated relative force accuracy = 1.0781697e-05
  using double precision KISS FFT
  3d grid and FFT values/proc = 11424 2800
Generated 0 of 1 mixed pair_coeff terms from geometric mixing rule
Per MPI rank memory allocation (min/avg/max) = 10.92 | 11.04 | 11.13 Mbytes
   Step          Temp          TotEng         PotEng          Pxy           v_sxy         v_strain     v_viscosity  
   1020000   433.02097     -37680.187     -48252.746     -1396.5876      0.13623923     255            0.00054495693
   1021000   432.56396     -37613.423     -48174.824     -2232.4959      0.22386154     255.25         0.00089544615
   1022000   432.65014     -37488.62      -48052.125     -2034.0015      0.19797228     255.5          0.00079188913
   1023000   433.56101     -37492.901     -48078.647     -2052.9147      0.20188268     255.75         0.00080753071
   1024000   431.07079     -37758.621     -48283.566     -1997.9615      0.1939217      256            0.00077568681
   1025000   433.94717     -37601.673     -48196.847     -2387.0495      0.23340271     256.25         0.00093361085
   1026000   433.90848     -37664.671     -48258.9       -2110.46        0.21103246     256.5          0.00084412985
   1027000   433.59425     -37652.88      -48239.438     -2136.8516      0.2096757      256.75         0.00083870281
   1028000   433.52504     -37551.362     -48136.23      -2113.0297      0.20883762     257            0.00083535049
   1029000   435.23523     -37649.769     -48276.392     -1624.5583      0.15788175     257.25         0.00063152701
   1030000   433.46328     -37482.327     -48065.687     -2415.2298      0.23796092     257.5          0.00095184368
Loop time of 44.3596 on 56 procs for 10000 steps with 12288 atoms

Performance: 19.477 ns/day, 1.232 hours/ns, 225.430 timesteps/s, 2.770 Matom-step/s
99.8% CPU use with 56 MPI tasks x no OpenMP threads

MPI task timing breakdown:
Section |  min time  |  avg time  |  max time  |%varavg| %total
---------------------------------------------------------------
Pair    | 18.551     | 19.58      | 20.628     |  11.8 | 44.14
Bond    | 0.0012454  | 0.0022954  | 0.0039666  |   1.1 |  0.01
Kspace  | 10.7       | 11.765     | 12.678     |  14.6 | 26.52
Neigh   | 4.425      | 4.4282     | 4.4305     |   0.1 |  9.98
Comm    | 1.5243     | 1.6309     | 1.8055     |   4.6 |  3.68
Output  | 0.023296   | 0.040417   | 0.056826   |   5.0 |  0.09
Modify  | 5.13       | 5.6479     | 6.6527     |  14.6 | 12.73
Other   |            | 1.265      |            |       |  2.85

Nlocal:        219.429 ave         240 max         197 min
Histogram: 1 3 3 7 14 7 11 4 5 1
Nghost:        7282.77 ave        7346 max        7210 min
Histogram: 2 5 8 5 5 7 6 4 7 7
Neighs:        96062.5 ave      105919 max       85326 min
Histogram: 1 3 3 8 13 9 10 3 4 2

Total # of neighbors = 5379501
Ave neighs/atom = 437.78491
Ave special neighs/atom = 2
Neighbor list builds = 378
Dangerous builds = 0
kspace_style pppm/tip4p 1.0e-5
next nloop
jump SELF loop_start
run 10000 # 10ps
PPPM initialization ...
  extracting TIP4P info from pair style
  using 12-bit tables for long-range coulomb
  G vector (1/distance) = 0.32815664
  grid = 50 75 50
  stencil order = 5
  estimated absolute RMS force accuracy = 0.0035802102
  estimated relative force accuracy = 1.0781697e-05
  using double precision KISS FFT
  3d grid and FFT values/proc = 15776 4000
Generated 0 of 1 mixed pair_coeff terms from geometric mixing rule
Per MPI rank memory allocation (min/avg/max) = 11.21 | 11.35 | 11.45 Mbytes
   Step          Temp          TotEng         PotEng          Pxy           v_sxy         v_strain     v_viscosity  
   1030000   432.71665     -37501.301     -48066.43      -1800.7826      0.17410595     257.5          0.00069642381
   1031000   431.65046     -37547.005     -48086.103     -2004.9784      0.19660255     257.75         0.00078641018
   1032000   428.16165     -37703.41      -48157.325     -2111.1485      0.21104795     258            0.00084419178
   1033000   430.46267     -37500.126     -48010.223     -2032.343       0.20065434     258.25         0.00080261738
   1034000   436.79027     -37482.538     -48147.128     -2197.9354      0.21753559     258.5          0.00087014235
   1035000   433.54633     -37551.57      -48136.957     -2466.9908      0.24004455     258.75         0.00096017818
   1036000   431.84292     -37610.501     -48154.298     -1828.6905      0.17732788     259            0.00070931152
   1037000   435.4242      -37511.927     -48143.164     -2143.4101      0.21726599     259.25         0.00086906397
   1038000   430.95719     -37639.756     -48161.927     -2176.3174      0.20993612     259.5          0.00083974447
   1039000   429.42372     -37487.693     -47972.423     -2218.4639      0.2146645      259.75         0.00085865801
   1040000   432.98021     -37516.776     -48088.341     -2442.6154      0.24447287     260            0.00097789148
Loop time of 51.9007 on 56 procs for 10000 steps with 12288 atoms

Performance: 16.647 ns/day, 1.442 hours/ns, 192.676 timesteps/s, 2.368 Matom-step/s
99.8% CPU use with 56 MPI tasks x no OpenMP threads

MPI task timing breakdown:
Section |  min time  |  avg time  |  max time  |%varavg| %total
---------------------------------------------------------------
Pair    | 18.458     | 19.848     | 20.738     |  11.4 | 38.24
Bond    | 0.0015575  | 0.0026539  | 0.004411   |   1.2 |  0.01
Kspace  | 15.204     | 16.033     | 17.276     |  12.2 | 30.89
Neigh   | 4.5128     | 4.5169     | 4.5198     |   0.1 |  8.70
Comm    | 1.6541     | 1.8091     | 2.0358     |   6.4 |  3.49
Output  | 0.023554   | 0.040801   | 0.057217   |   4.9 |  0.08
Modify  | 7.3027     | 8.0285     | 9.3859     |  17.9 | 15.47
Other   |            | 1.621      |            |       |  3.12

Nlocal:        219.429 ave         235 max         201 min
Histogram: 3 1 3 9 5 11 8 10 3 3
Nghost:         6853.5 ave        6906 max        6809 min
Histogram: 4 5 7 11 7 4 4 8 3 3
Neighs:        96037.8 ave      102906 max       87779 min
Histogram: 3 3 1 9 7 7 12 6 4 4

Total # of neighbors = 5378114
Ave neighs/atom = 437.67204
Ave special neighs/atom = 2
Neighbor list builds = 382
Dangerous builds = 0
kspace_style pppm/tip4p 1.0e-5
next nloop
jump SELF loop_start
run 10000 # 10ps
PPPM initialization ...
  extracting TIP4P info from pair style
  using 12-bit tables for long-range coulomb
  G vector (1/distance) = 0.32815664
  grid = 50 50 50
  stencil order = 5
  estimated absolute RMS force accuracy = 0.0035802102
  estimated relative force accuracy = 1.0781697e-05
  using double precision KISS FFT
  3d grid and FFT values/proc = 11424 2800
Generated 0 of 1 mixed pair_coeff terms from geometric mixing rule
Per MPI rank memory allocation (min/avg/max) = 10.92 | 11.04 | 11.13 Mbytes
   Step          Temp          TotEng         PotEng          Pxy           v_sxy         v_strain     v_viscosity  
   1040000   433.24927     -37510.702     -48088.836     -1962.1856      0.1954789      260            0.00078191562
   1041000   434.90433     -37629.84      -48248.383     -2206.806       0.21774029     260.25         0.00087096114
   1042000   432.78458     -37582.253     -48149.041     -2468.173       0.24265152     260.5          0.00097060608
   1043000   426.18383     -37727.225     -48132.851     -2228.3006      0.21601942     260.75         0.00086407766
   1044000   427.46208     -37905.053     -48341.888     -2017.8376      0.20224827     261            0.00080899307
   1045000   432.03186     -37829.632     -48378.042     -2176.8472      0.2154643      261.25         0.00086185719
   1046000   434.30888     -37675.224     -48279.23      -2106.0042      0.20342047     261.5          0.00081368187
   1047000   434.04635     -37653.922     -48251.518     -2080.9899      0.20152738     261.75         0.0008061095 
   1048000   430.98962     -37648.074     -48171.037     -2109.9393      0.20412892     262            0.00081651568
   1049000   432.93349     -37699.077     -48269.501     -2080.848       0.2098125      262.25         0.00083925001
   1050000   429.65607     -37737.541     -48227.944     -2378.2406      0.23324088     262.5          0.00093296353
Loop time of 44.6498 on 56 procs for 10000 steps with 12288 atoms

Performance: 19.351 ns/day, 1.240 hours/ns, 223.965 timesteps/s, 2.752 Matom-step/s
99.7% CPU use with 56 MPI tasks x no OpenMP threads

MPI task timing breakdown:
Section |  min time  |  avg time  |  max time  |%varavg| %total
---------------------------------------------------------------
Pair    | 18.502     | 19.556     | 21.013     |  12.4 | 43.80
Bond    | 0.0011936  | 0.002263   | 0.0036769  |   1.0 |  0.01
Kspace  | 10.403     | 11.907     | 12.904     |  16.1 | 26.67
Neigh   | 4.5658     | 4.5694     | 4.5717     |   0.1 | 10.23
Comm    | 1.5406     | 1.6402     | 1.7893     |   4.4 |  3.67
Output  | 0.023271   | 0.04062    | 0.057236   |   5.0 |  0.09
Modify  | 5.1353     | 5.6691     | 6.6672     |  14.9 | 12.70
Other   |            | 1.265      |            |       |  2.83

Nlocal:        219.429 ave         240 max         205 min
Histogram: 6 6 5 11 10 4 10 1 1 2
Nghost:           7270 ave        7341 max        7204 min
Histogram: 3 7 4 10 5 9 6 4 5 3
Neighs:        96059.5 ave      108200 max       88515 min
Histogram: 4 10 4 14 9 6 6 2 0 1

Total # of neighbors = 5379334
Ave neighs/atom = 437.77132
Ave special neighs/atom = 2
Neighbor list builds = 385
Dangerous builds = 0
kspace_style pppm/tip4p 1.0e-5
next nloop
jump SELF loop_start
run 10000 # 10ps
PPPM initialization ...
  extracting TIP4P info from pair style
  using 12-bit tables for long-range coulomb
  G vector (1/distance) = 0.32815664
  grid = 50 75 50
  stencil order = 5
  estimated absolute RMS force accuracy = 0.0035802102
  estimated relative force accuracy = 1.0781697e-05
  using double precision KISS FFT
  3d grid and FFT values/proc = 15776 4000
Generated 0 of 1 mixed pair_coeff terms from geometric mixing rule
Per MPI rank memory allocation (min/avg/max) = 11.21 | 11.35 | 11.45 Mbytes
   Step          Temp          TotEng         PotEng          Pxy           v_sxy         v_strain     v_viscosity  
   1050000   429.63526     -37738.878     -48228.773     -1874.6903      0.18154836     262.5          0.00072619342
   1051000   434.45944     -37615.077     -48222.759     -2310.4414      0.2246247      262.75         0.00089849879
   1052000   434.2609      -37593.865     -48196.699     -2288.6896      0.22321616     263            0.00089286463
   1053000   429.76039     -37720.9       -48213.851     -2056.7197      0.20060168     263.25         0.0008024067 
   1054000   430.02402     -37738.942     -48238.329     -2035.0673      0.20254258     263.5          0.00081017031
   1055000   430.89155     -37640.706     -48161.274     -2173.2679      0.21582215     263.75         0.0008632886 
   1056000   432.46911     -37585.692     -48144.778     -2485.7616      0.23772019     264            0.00095088074
   1057000   434.59247     -37565.752     -48176.681     -2208.0195      0.21985205     264.25         0.00087940818
   1058000   429.27508     -37731.973     -48213.074     -2163.8681      0.20879034     264.5          0.00083516135
   1059000   430.58461     -37693.802     -48206.876     -2061.115       0.20592235     264.75         0.00082368941
   1060000   426.3593      -37850.166     -48260.076     -2130.0029      0.2114145      265            0.00084565802
Loop time of 51.9923 on 56 procs for 10000 steps with 12288 atoms

Performance: 16.618 ns/day, 1.444 hours/ns, 192.336 timesteps/s, 2.363 Matom-step/s
99.8% CPU use with 56 MPI tasks x no OpenMP threads

MPI task timing breakdown:
Section |  min time  |  avg time  |  max time  |%varavg| %total
---------------------------------------------------------------
Pair    | 18.773     | 19.844     | 20.791     |  11.4 | 38.17
Bond    | 0.0015481  | 0.002643   | 0.0046303  |   1.2 |  0.01
Kspace  | 15.237     | 16.087     | 17.033     |  11.9 | 30.94
Neigh   | 4.5194     | 4.5231     | 4.5258     |   0.1 |  8.70
Comm    | 1.6463     | 1.8217     | 1.9959     |   5.8 |  3.50
Output  | 0.023746   | 0.040777   | 0.057117   |   4.9 |  0.08
Modify  | 7.3033     | 8.0229     | 9.4012     |  17.9 | 15.43
Other   |            | 1.65       |            |       |  3.17

Nlocal:        219.429 ave         239 max         196 min
Histogram: 2 1 3 5 11 14 9 6 2 3
Nghost:        6859.39 ave        6932 max        6797 min
Histogram: 4 3 8 4 15 5 8 5 2 2
Neighs:        96071.1 ave      105667 max       84290 min
Histogram: 1 1 3 3 12 18 7 5 3 3

Total # of neighbors = 5379982
Ave neighs/atom = 437.82406
Ave special neighs/atom = 2
Neighbor list builds = 384
Dangerous builds = 0
kspace_style pppm/tip4p 1.0e-5
next nloop
jump SELF loop_start
run 10000 # 10ps
PPPM initialization ...
  extracting TIP4P info from pair style
  using 12-bit tables for long-range coulomb
  G vector (1/distance) = 0.32815664
  grid = 50 50 50
  stencil order = 5
  estimated absolute RMS force accuracy = 0.0035802102
  estimated relative force accuracy = 1.0781697e-05
  using double precision KISS FFT
  3d grid and FFT values/proc = 11424 2800
Generated 0 of 1 mixed pair_coeff terms from geometric mixing rule
Per MPI rank memory allocation (min/avg/max) = 10.92 | 11.04 | 11.13 Mbytes
   Step          Temp          TotEng         PotEng          Pxy           v_sxy         v_strain     v_viscosity  
   1060000   426.67958     -37842.685     -48260.415     -1543.4239      0.15111582     265            0.0006044633 
   1061000   432.91831     -37626.156     -48196.209     -2197.8364      0.21395485     265.25         0.00085581938
   1062000   431.33351     -37780.443     -48311.802     -2089.6554      0.20654452     265.5          0.00082617807
   1063000   437.36129     -37450.801     -48129.333     -2319.3107      0.23338422     265.75         0.00093353687
   1064000   432.30239     -37807.749     -48362.764     -2009.0295      0.19794387     266            0.00079177549
   1065000   433.92723     -37548.883     -48143.57      -2192.6177      0.21210036     266.25         0.00084840146
   1066000   429.77796     -37726.211     -48219.59      -2120.5406      0.20267982     266.5          0.00081071928
   1067000   434.68512     -37615.369     -48228.561     -2041.2613      0.19981462     266.75         0.00079925848
   1068000   427.38521     -37984.256     -48419.215     -2227.4047      0.21982289     267            0.00087929156
   1069000   432.37116     -37523.513     -48080.207     -2260.2319      0.22353603     267.25         0.00089414411
   1070000   436.83908     -37461.794     -48127.576     -2277.9673      0.22440829     267.5          0.00089763315
Loop time of 44.3935 on 56 procs for 10000 steps with 12288 atoms

Performance: 19.462 ns/day, 1.233 hours/ns, 225.258 timesteps/s, 2.768 Matom-step/s
99.8% CPU use with 56 MPI tasks x no OpenMP threads

MPI task timing breakdown:
Section |  min time  |  avg time  |  max time  |%varavg| %total
---------------------------------------------------------------
Pair    | 18.318     | 19.55      | 20.638     |  12.1 | 44.04
Bond    | 0.0012079  | 0.002263   | 0.0038078  |   1.1 |  0.01
Kspace  | 10.713     | 11.817     | 12.955     |  14.8 | 26.62
Neigh   | 4.4419     | 4.4448     | 4.447      |   0.1 | 10.01
Comm    | 1.5259     | 1.6289     | 1.8103     |   4.7 |  3.67
Output  | 0.023291   | 0.040563   | 0.057058   |   5.0 |  0.09
Modify  | 5.1268     | 5.6503     | 6.6786     |  14.9 | 12.73
Other   |            | 1.26       |            |       |  2.84

Nlocal:        219.429 ave         236 max         196 min
Histogram: 1 1 3 4 8 8 12 11 5 3
Nghost:        7253.93 ave        7322 max        7169 min
Histogram: 5 1 5 4 9 5 10 7 5 5
Neighs:        96086.1 ave      104797 max       85064 min
Histogram: 1 2 3 7 7 9 12 10 4 1

Total # of neighbors = 5380824
Ave neighs/atom = 437.89258
Ave special neighs/atom = 2
Neighbor list builds = 379
Dangerous builds = 0
kspace_style pppm/tip4p 1.0e-5
next nloop
jump SELF loop_start
run 10000 # 10ps
PPPM initialization ...
  extracting TIP4P info from pair style
  using 12-bit tables for long-range coulomb
  G vector (1/distance) = 0.32815664
  grid = 50 75 50
  stencil order = 5
  estimated absolute RMS force accuracy = 0.0035802102
  estimated relative force accuracy = 1.0781697e-05
  using double precision KISS FFT
  3d grid and FFT values/proc = 15776 4000
Generated 0 of 1 mixed pair_coeff terms from geometric mixing rule
Per MPI rank memory allocation (min/avg/max) = 11.21 | 11.35 | 11.45 Mbytes
   Step          Temp          TotEng         PotEng          Pxy           v_sxy         v_strain     v_viscosity  
   1070000   436.83812     -37460.546     -48126.305     -1792.621       0.17496663     267.5          0.00069986653
   1071000   429.31148     -37770.98      -48252.97      -2447.9951      0.24349198     267.75         0.00097396791
   1072000   429.59338     -37625.936     -48114.808     -2250.6624      0.22085938     268            0.00088343752
   1073000   429.91809     -37608.16      -48104.961     -2135.3929      0.20902571     268.25         0.00083610282
   1074000   431.54485     -37536.029     -48072.548     -2185.3319      0.21509304     268.5          0.00086037218
   1075000   433.90482     -37540.602     -48134.742     -2183.2761      0.22065377     268.75         0.0008826151 
   1076000   432.11155     -37686.963     -48237.319     -2064.0578      0.19970247     269            0.0007988099 
   1077000   433.08683     -37659.038     -48233.206     -2216.7241      0.21975192     269.25         0.0008790077 
   1078000   429.60976     -37663.853     -48153.125     -2406.3462      0.24007226     269.5          0.00096028902
   1079000   428.87073     -37822.878     -48294.107     -2259.4253      0.21912766     269.75         0.00087651066
   1080000   424.00748     -38011.445     -48363.933     -2071.4995      0.20416429     270            0.00081665716
Loop time of 52.0116 on 56 procs for 10000 steps with 12288 atoms

Performance: 16.612 ns/day, 1.445 hours/ns, 192.265 timesteps/s, 2.363 Matom-step/s
99.8% CPU use with 56 MPI tasks x no OpenMP threads

MPI task timing breakdown:
Section |  min time  |  avg time  |  max time  |%varavg| %total
---------------------------------------------------------------
Pair    | 18.609     | 19.849     | 20.944     |  11.2 | 38.16
Bond    | 0.0015467  | 0.0026367  | 0.0045165  |   1.2 |  0.01
Kspace  | 14.828     | 16.086     | 17.36      |  12.6 | 30.93
Neigh   | 4.5118     | 4.5153     | 4.5177     |   0.1 |  8.68
Comm    | 1.6579     | 1.8004     | 2.0184     |   6.0 |  3.46
Output  | 0.023663   | 0.04073    | 0.057091   |   4.9 |  0.08
Modify  | 7.3417     | 8.0525     | 9.4437     |  17.7 | 15.48
Other   |            | 1.666      |            |       |  3.20

Nlocal:        219.429 ave         238 max         200 min
Histogram: 3 2 6 6 6 14 8 6 2 3
Nghost:         6848.7 ave        6947 max        6771 min
Histogram: 5 7 2 8 12 10 5 1 4 2
Neighs:        96071.6 ave      105591 max       87147 min
Histogram: 4 4 3 9 6 13 10 3 2 2

Total # of neighbors = 5380011
Ave neighs/atom = 437.82642
Ave special neighs/atom = 2
Neighbor list builds = 382
Dangerous builds = 0
kspace_style pppm/tip4p 1.0e-5
next nloop
jump SELF loop_start
run 10000 # 10ps
PPPM initialization ...
  extracting TIP4P info from pair style
  using 12-bit tables for long-range coulomb
  G vector (1/distance) = 0.32815664
  grid = 50 50 50
  stencil order = 5
  estimated absolute RMS force accuracy = 0.0035802102
  estimated relative force accuracy = 1.0781697e-05
  using double precision KISS FFT
  3d grid and FFT values/proc = 11424 2800
Generated 0 of 1 mixed pair_coeff terms from geometric mixing rule
Per MPI rank memory allocation (min/avg/max) = 10.92 | 11.04 | 11.13 Mbytes
   Step          Temp          TotEng         PotEng          Pxy           v_sxy         v_strain     v_viscosity  
   1080000   423.91912     -38014.963     -48365.294     -1563.5761      0.15209708     270            0.00060838832
   1081000   426.77065     -37655.509     -48075.462     -2223.6917      0.22053267     270.25         0.00088213069
   1082000   427.33544     -37633.636     -48067.379     -2266.9198      0.22441962     270.5          0.00089767847
   1083000   430.11963     -37743.717     -48245.438     -2255.8453      0.21312192     270.75         0.00085248769
   1084000   428.40267     -37794.169     -48253.969     -2200.509       0.22452205     271            0.00089808819
   1085000   428.20042     -37910.222     -48365.084     -2241.9412      0.21088242     271.25         0.00084352966
   1086000   425.23835     -37855.024     -48237.564     -2217.2371      0.22166172     271.5          0.0008866469 
   1087000   428.57983     -37720.334     -48184.46      -1939.5717      0.19157104     271.75         0.00076628415
   1088000   433.10705     -37670.487     -48245.149     -2085.3752      0.20685757     272            0.00082743027
   1089000   425.97917     -37734.203     -48134.832     -2120.8725      0.20924411     272.25         0.00083697644
   1090000   432.42162     -37597.713     -48155.639     -1941.7572      0.19290094     272.5          0.00077160377
Loop time of 44.5885 on 56 procs for 10000 steps with 12288 atoms

Performance: 19.377 ns/day, 1.239 hours/ns, 224.273 timesteps/s, 2.756 Matom-step/s
99.8% CPU use with 56 MPI tasks x no OpenMP threads

MPI task timing breakdown:
Section |  min time  |  avg time  |  max time  |%varavg| %total
---------------------------------------------------------------
Pair    | 18.458     | 19.566     | 21.131     |  11.7 | 43.88
Bond    | 0.0012136  | 0.0022789  | 0.0041131  |   1.1 |  0.01
Kspace  | 10.438     | 11.95      | 12.93      |  14.6 | 26.80
Neigh   | 4.4867     | 4.4902     | 4.4924     |   0.1 | 10.07
Comm    | 1.5358     | 1.6377     | 1.8109     |   4.7 |  3.67
Output  | 0.023343   | 0.040643   | 0.057232   |   5.0 |  0.09
Modify  | 5.1278     | 5.6588     | 6.6342     |  14.7 | 12.69
Other   |            | 1.243      |            |       |  2.79

Nlocal:        219.429 ave         234 max         200 min
Histogram: 1 3 6 0 10 8 12 7 8 1
Nghost:        7251.04 ave        7313 max        7200 min
Histogram: 5 4 7 11 4 10 6 3 4 2
Neighs:        96060.8 ave      102016 max       86030 min
Histogram: 1 0 4 5 6 7 9 11 6 7

Total # of neighbors = 5379405
Ave neighs/atom = 437.7771
Ave special neighs/atom = 2
Neighbor list builds = 381
Dangerous builds = 0
kspace_style pppm/tip4p 1.0e-5
next nloop
jump SELF loop_start
run 10000 # 10ps
PPPM initialization ...
  extracting TIP4P info from pair style
  using 12-bit tables for long-range coulomb
  G vector (1/distance) = 0.32815664
  grid = 50 75 50
  stencil order = 5
  estimated absolute RMS force accuracy = 0.0035802102
  estimated relative force accuracy = 1.0781697e-05
  using double precision KISS FFT
  3d grid and FFT values/proc = 15776 4000
Generated 0 of 1 mixed pair_coeff terms from geometric mixing rule
Per MPI rank memory allocation (min/avg/max) = 11.21 | 11.35 | 11.45 Mbytes
   Step          Temp          TotEng         PotEng          Pxy           v_sxy         v_strain     v_viscosity  
   1090000   432.38997     -37597.312     -48154.465     -1448.3879      0.14253522     272.5          0.0005701409 
   1091000   431.06521     -37811.148     -48335.956     -2275.086       0.21995251     272.75         0.00087981004
   1092000   426.63496     -37714.682     -48131.322     -2327.5856      0.23092712     273            0.0009237085 
   1093000   429.92849     -37705.81      -48202.864     -2308.9869      0.22511623     273.25         0.0009004649 
   1094000   435.27333     -37600.107     -48227.661     -2106.3016      0.20185474     273.5          0.00080741895
   1095000   431.09276     -37674.397     -48199.878     -1786.8959      0.17959234     273.75         0.00071836936
   1096000   432.13934     -37652.43      -48203.464     -2175.3884      0.2131838      274            0.00085273521
   1097000   429.54437     -37595.312     -48082.988     -2493.7051      0.24542163     274.25         0.0009816865 
   1098000   433.80713     -37557.895     -48149.649     -2052.6512      0.1980363      274.5          0.0007921452 
   1099000   431.9284      -37548.771     -48094.655     -1907.6775      0.19023569     274.75         0.00076094276
   1100000   426.13552     -37731.031     -48135.477     -2098.8352      0.20834643     275            0.00083338572
Loop time of 51.9318 on 56 procs for 10000 steps with 12288 atoms

Performance: 16.637 ns/day, 1.443 hours/ns, 192.560 timesteps/s, 2.366 Matom-step/s
99.8% CPU use with 56 MPI tasks x no OpenMP threads

MPI task timing breakdown:
Section |  min time  |  avg time  |  max time  |%varavg| %total
---------------------------------------------------------------
Pair    | 18.992     | 19.816     | 21.554     |  11.1 | 38.16
Bond    | 0.0015784  | 0.0026167  | 0.0045982  |   1.2 |  0.01
Kspace  | 14.319     | 16.034     | 16.952     |  12.3 | 30.88
Neigh   | 4.5563     | 4.5603     | 4.5627     |   0.1 |  8.78
Comm    | 1.6579     | 1.8077     | 2.0101     |   6.4 |  3.48
Output  | 0.023386   | 0.040476   | 0.056893   |   4.9 |  0.08
Modify  | 7.3451     | 8.0457     | 9.4081     |  17.7 | 15.49
Other   |            | 1.625      |            |       |  3.13

Nlocal:        219.429 ave         240 max         192 min
Histogram: 1 2 3 6 4 11 15 7 4 3
Nghost:        6857.43 ave        6934 max        6792 min
Histogram: 1 3 11 10 7 10 6 4 3 1
Neighs:        96065.6 ave      106994 max       84674 min
Histogram: 3 1 4 9 7 14 7 6 4 1

Total # of neighbors = 5379671
Ave neighs/atom = 437.79875
Ave special neighs/atom = 2
Neighbor list builds = 385
Dangerous builds = 0
kspace_style pppm/tip4p 1.0e-5
next nloop
jump SELF loop_start
run 10000 # 10ps
PPPM initialization ...
  extracting TIP4P info from pair style
  using 12-bit tables for long-range coulomb
  G vector (1/distance) = 0.32815664
  grid = 50 50 50
  stencil order = 5
  estimated absolute RMS force accuracy = 0.0035802102
  estimated relative force accuracy = 1.0781697e-05
  using double precision KISS FFT
  3d grid and FFT values/proc = 11424 2800
Generated 0 of 1 mixed pair_coeff terms from geometric mixing rule
Per MPI rank memory allocation (min/avg/max) = 10.92 | 11.04 | 11.13 Mbytes
   Step          Temp          TotEng         PotEng          Pxy           v_sxy         v_strain     v_viscosity  
   1100000   426.52765     -37721.622     -48135.642     -1484.8336      0.14503344     275            0.00058013376
   1101000   436.643       -37374.145     -48035.14      -2290.8888      0.22422323     275.25         0.0008968929 
   1102000   434.49236     -37562.758     -48171.244     -2307.2857      0.226698       275.5          0.00090679201
   1103000   428.44104     -37663.811     -48124.548     -1975.0282      0.19433308     275.75         0.00077733232
   1104000   434.89485     -37433.408     -48051.72      -1985.459       0.19830033     276            0.00079320132
   1105000   430.57819     -37669.746     -48182.664     -2328.0574      0.23465546     276.25         0.00093862185
   1106000   437.73792     -37509.245     -48196.973     -2798.6687      0.27365791     276.5          0.0010946316 
   1107000   429.39969     -37692.523     -48176.666     -2392.7777      0.23366762     276.75         0.00093467046
   1108000   428.34436     -37596.249     -48054.626     -1973.6928      0.19652011     277            0.00078608044
   1109000   425.88131     -37778.053     -48176.293     -1804.7083      0.17195722     277.25         0.00068782887
   1110000   433.14474     -37577.494     -48153.076     -2087.9922      0.2100108      277.5          0.00084004321
Loop time of 44.7892 on 56 procs for 10000 steps with 12288 atoms

Performance: 19.290 ns/day, 1.244 hours/ns, 223.268 timesteps/s, 2.744 Matom-step/s
99.8% CPU use with 56 MPI tasks x no OpenMP threads

MPI task timing breakdown:
Section |  min time  |  avg time  |  max time  |%varavg| %total
---------------------------------------------------------------
Pair    | 18.345     | 19.545     | 21.001     |  13.3 | 43.64
Bond    | 0.0012156  | 0.0022657  | 0.0034743  |   1.0 |  0.01
Kspace  | 10.588     | 12.047     | 13.148     |  16.8 | 26.90
Neigh   | 4.5794     | 4.5826     | 4.5848     |   0.1 | 10.23
Comm    | 1.5492     | 1.641      | 1.8043     |   4.8 |  3.66
Output  | 0.024341   | 0.05161    | 0.078657   |   8.4 |  0.12
Modify  | 5.1337     | 5.6615     | 6.6525     |  14.6 | 12.64
Other   |            | 1.259      |            |       |  2.81

Nlocal:        219.429 ave         237 max         190 min
Histogram: 1 1 1 6 6 9 9 8 12 3
Nghost:        7289.04 ave        7363 max        7197 min
Histogram: 1 2 3 10 7 7 11 9 3 3
Neighs:        96077.2 ave      105196 max       80545 min
Histogram: 1 0 1 5 8 6 13 11 8 3

Total # of neighbors = 5380323
Ave neighs/atom = 437.85181
Ave special neighs/atom = 2
Neighbor list builds = 385
Dangerous builds = 0
kspace_style pppm/tip4p 1.0e-5
next nloop
jump SELF loop_start
run 10000 # 10ps
PPPM initialization ...
  extracting TIP4P info from pair style
  using 12-bit tables for long-range coulomb
  G vector (1/distance) = 0.32815664
  grid = 50 75 50
  stencil order = 5
  estimated absolute RMS force accuracy = 0.0035802102
  estimated relative force accuracy = 1.0781697e-05
  using double precision KISS FFT
  3d grid and FFT values/proc = 15776 4000
Generated 0 of 1 mixed pair_coeff terms from geometric mixing rule
Per MPI rank memory allocation (min/avg/max) = 11.21 | 11.35 | 11.45 Mbytes
   Step          Temp          TotEng         PotEng          Pxy           v_sxy         v_strain     v_viscosity  
   1110000   433.36389     -37573.157     -48154.09      -1485.4576      0.14843913     277.5          0.00059375654
   1111000   432.66553     -37520.258     -48084.139     -2150.4176      0.21452467     277.75         0.00085809868
   1112000   427.06158     -37694.381     -48121.438     -1799.7326      0.17623884     278            0.00070495536
   1113000   429.08743     -37708.768     -48185.287     -1939.8256      0.18806598     278.25         0.00075226391
   1114000   430.542       -37590.15      -48102.184     -2410.6792      0.23761595     278.5          0.00095046379
   1115000   424.91576     -37880.677     -48255.341     -2315.4599      0.22569577     278.75         0.00090278306
   1116000   429.57037     -37670.058     -48158.369     -2203.1961      0.21853833     279            0.00087415334
   1117000   431.82461     -37724.866     -48268.215     -2342.6241      0.23166077     279.25         0.00092664308
   1118000   435.0813      -37645.347     -48268.211     -2318.9799      0.22367334     279.5          0.00089469334
   1119000   432.83632     -37701.031     -48269.083     -2260.8737      0.22135384     279.75         0.00088541537
   1120000   430.07894     -37646.127     -48146.855     -2117.1628      0.20501153     280            0.00082004614
Loop time of 51.7964 on 56 procs for 10000 steps with 12288 atoms

Performance: 16.681 ns/day, 1.439 hours/ns, 193.064 timesteps/s, 2.372 Matom-step/s
99.8% CPU use with 56 MPI tasks x no OpenMP threads

MPI task timing breakdown:
Section |  min time  |  avg time  |  max time  |%varavg| %total
---------------------------------------------------------------
Pair    | 18.92      | 19.825     | 21.096     |  12.6 | 38.27
Bond    | 0.0015568  | 0.0026058  | 0.0044802  |   1.1 |  0.01
Kspace  | 14.712     | 15.932     | 16.855     |  13.4 | 30.76
Neigh   | 4.5087     | 4.512      | 4.5148     |   0.1 |  8.71
Comm    | 1.6683     | 1.8065     | 2.0565     |   6.1 |  3.49
Output  | 0.023599   | 0.040821   | 0.057486   |   5.0 |  0.08
Modify  | 7.2825     | 8.032      | 9.4098     |  17.8 | 15.51
Other   |            | 1.645      |            |       |  3.18

Nlocal:        219.429 ave         240 max         199 min
Histogram: 3 5 5 7 6 10 5 10 4 1
Nghost:        6852.62 ave        6956 max        6773 min
Histogram: 3 3 7 12 10 10 6 4 0 1
Neighs:        96066.6 ave      106964 max       86400 min
Histogram: 3 5 8 5 8 10 7 6 3 1

Total # of neighbors = 5379729
Ave neighs/atom = 437.80347
Ave special neighs/atom = 2
Neighbor list builds = 382
Dangerous builds = 0
kspace_style pppm/tip4p 1.0e-5
next nloop
jump SELF loop_start
run 10000 # 10ps
PPPM initialization ...
  extracting TIP4P info from pair style
  using 12-bit tables for long-range coulomb
  G vector (1/distance) = 0.32815664
  grid = 50 50 50
  stencil order = 5
  estimated absolute RMS force accuracy = 0.0035802102
  estimated relative force accuracy = 1.0781697e-05
  using double precision KISS FFT
  3d grid and FFT values/proc = 11424 2800
Generated 0 of 1 mixed pair_coeff terms from geometric mixing rule
Per MPI rank memory allocation (min/avg/max) = 10.92 | 11.04 | 11.13 Mbytes
   Step          Temp          TotEng         PotEng          Pxy           v_sxy         v_strain     v_viscosity  
   1120000   430.09674     -37647.079     -48148.241     -1589.3995      0.1508474      280            0.00060338961
   1121000   431.08691     -37665.245     -48190.583     -2239.7848      0.21975411     280.25         0.00087901645
   1122000   435.59022     -37506.273     -48141.564     -2099.2213      0.20981757     280.5          0.00083927027
   1123000   426.12803     -37851.22      -48255.483     -1971.0586      0.1937265      280.75         0.000774906  
   1124000   430.76008     -37727.883     -48245.242     -2175.6223      0.21401601     281            0.00085606402
   1125000   435.00324     -37555.39      -48176.348     -1964.8894      0.19353488     281.25         0.00077413953
   1126000   431.50007     -37608.196     -48143.622     -1871.7083      0.1874969      281.5          0.00074998761
   1127000   431.26189     -37798.142     -48327.753     -2268.6247      0.21843813     281.75         0.00087375253
   1128000   433.96519     -37641.828     -48237.442     -2421.8703      0.23583059     282            0.00094332238
   1129000   430.54717     -37758.834     -48270.994     -2286.5884      0.2268689      282.25         0.0009074756 
   1130000   435.79296     -37618.767     -48259.007     -2103.429       0.20728984     282.5          0.00082915938
Loop time of 44.592 on 56 procs for 10000 steps with 12288 atoms

Performance: 19.376 ns/day, 1.239 hours/ns, 224.256 timesteps/s, 2.756 Matom-step/s
99.8% CPU use with 56 MPI tasks x no OpenMP threads

MPI task timing breakdown:
Section |  min time  |  avg time  |  max time  |%varavg| %total
---------------------------------------------------------------
Pair    | 18.366     | 19.552     | 21.007     |  12.1 | 43.85
Bond    | 0.0012848  | 0.0022731  | 0.003726   |   1.0 |  0.01
Kspace  | 10.547     | 11.991     | 13.128     |  15.1 | 26.89
Neigh   | 4.4783     | 4.4815     | 4.4838     |   0.1 | 10.05
Comm    | 1.5126     | 1.6366     | 1.8034     |   4.5 |  3.67
Output  | 0.023127   | 0.040376   | 0.056893   |   5.0 |  0.09
Modify  | 5.1386     | 5.6465     | 6.6184     |  14.6 | 12.66
Other   |            | 1.242      |            |       |  2.79

Nlocal:        219.429 ave         239 max         194 min
Histogram: 1 0 3 7 14 8 5 10 6 2
Nghost:        7282.84 ave        7338 max        7190 min
Histogram: 1 0 2 2 11 8 8 15 3 6
Neighs:        96063.9 ave      105640 max       83472 min
Histogram: 1 0 3 6 15 9 5 10 3 4

Total # of neighbors = 5379580
Ave neighs/atom = 437.79134
Ave special neighs/atom = 2
Neighbor list builds = 380
Dangerous builds = 0
kspace_style pppm/tip4p 1.0e-5
next nloop
jump SELF loop_start
run 10000 # 10ps
PPPM initialization ...
  extracting TIP4P info from pair style
  using 12-bit tables for long-range coulomb
  G vector (1/distance) = 0.32815664
  grid = 50 75 50
  stencil order = 5
  estimated absolute RMS force accuracy = 0.0035802102
  estimated relative force accuracy = 1.0781697e-05
  using double precision KISS FFT
  3d grid and FFT values/proc = 15776 4000
Generated 0 of 1 mixed pair_coeff terms from geometric mixing rule
Per MPI rank memory allocation (min/avg/max) = 11.21 | 11.35 | 11.45 Mbytes
   Step          Temp          TotEng         PotEng          Pxy           v_sxy         v_strain     v_viscosity  
   1130000   435.78315     -37618.571     -48258.572     -1555.4068      0.15172581     282.5          0.00060690326
   1131000   436.69825     -37375.912     -48038.255     -2363.8262      0.23236441     282.75         0.00092945763
   1132000   431.44493     -37746.862     -48280.942     -2377.9421      0.23344562     283            0.00093378246
   1133000   431.7629      -37627.141     -48168.984     -2428.5696      0.24001193     283.25         0.00096004773
   1134000   427.889       -37851.004     -48298.263     -2433.0761      0.23856286     283.5          0.00095425144
   1135000   424.46407     -37688.069     -48051.705     -2294.208       0.22140193     283.75         0.00088560774
   1136000   428.70715     -37633.406     -48100.64      -2011.1369      0.19650497     284            0.00078601989
   1137000   424.88308     -37780.846     -48154.713     -2002.7557      0.19462865     284.25         0.00077851462
   1138000   432.54981     -37578.219     -48139.275     -1835.6585      0.18311107     284.5          0.00073244427
   1139000   431.08973     -37622.688     -48148.095     -2175.1343      0.21427469     284.75         0.00085709878
   1140000   431.02198     -37649.68      -48173.433     -2068.5935      0.20680259     285            0.00082721036
Loop time of 51.7269 on 56 procs for 10000 steps with 12288 atoms

Performance: 16.703 ns/day, 1.437 hours/ns, 193.323 timesteps/s, 2.376 Matom-step/s
99.8% CPU use with 56 MPI tasks x no OpenMP threads

MPI task timing breakdown:
Section |  min time  |  avg time  |  max time  |%varavg| %total
---------------------------------------------------------------
Pair    | 19.086     | 19.805     | 21.126     |  10.2 | 38.29
Bond    | 0.0015832  | 0.0026273  | 0.0046443  |   1.1 |  0.01
Kspace  | 14.647     | 15.915     | 16.652     |  11.3 | 30.77
Neigh   | 4.482      | 4.4854     | 4.488      |   0.1 |  8.67
Comm    | 1.6404     | 1.7999     | 2.0088     |   5.9 |  3.48
Output  | 0.023435   | 0.040532   | 0.056933   |   4.9 |  0.08
Modify  | 7.336      | 8.0344     | 9.4104     |  17.8 | 15.53
Other   |            | 1.644      |            |       |  3.18

Nlocal:        219.429 ave         239 max         202 min
Histogram: 3 3 5 9 8 16 6 3 2 1
Nghost:        6861.39 ave        6931 max        6791 min
Histogram: 5 1 4 7 9 9 9 9 0 3
Neighs:        96055.2 ave      106781 max       87036 min
Histogram: 3 2 4 12 11 16 3 2 2 1

Total # of neighbors = 5379094
Ave neighs/atom = 437.75179
Ave special neighs/atom = 2
Neighbor list builds = 381
Dangerous builds = 0
kspace_style pppm/tip4p 1.0e-5
next nloop
jump SELF loop_start
run 10000 # 10ps
PPPM initialization ...
  extracting TIP4P info from pair style
  using 12-bit tables for long-range coulomb
  G vector (1/distance) = 0.32815664
  grid = 50 50 50
  stencil order = 5
  estimated absolute RMS force accuracy = 0.0035802102
  estimated relative force accuracy = 1.0781697e-05
  using double precision KISS FFT
  3d grid and FFT values/proc = 11424 2800
Generated 0 of 1 mixed pair_coeff terms from geometric mixing rule
Per MPI rank memory allocation (min/avg/max) = 10.92 | 11.04 | 11.13 Mbytes
   Step          Temp          TotEng         PotEng          Pxy           v_sxy         v_strain     v_viscosity  
   1140000   431.06738     -37647.193     -48172.054     -1401.7347      0.13876145     285            0.00055504581
   1141000   426.66327     -37638.241     -48055.572     -2238.0253      0.2189429      285.25         0.00087577162
   1142000   426.26012     -37830.779     -48238.267     -1976.3111      0.19604504     285.5          0.00078418016
   1143000   432.7365      -37677.175     -48242.79      -2027.483       0.19745528     285.75         0.00078982114
   1144000   428.34121     -37742.266     -48200.565     -2090.9825      0.20363687     286            0.00081454749
   1145000   431.50779     -37636.909     -48172.523     -1978.9553      0.19424254     286.25         0.00077697015
   1146000   430.4916      -37775.311     -48286.114     -1862.6028      0.1810575      286.5          0.00072422999
   1147000   432.63599     -37577.11      -48140.27      -2173.816       0.2162529      286.75         0.00086501161
   1148000   429.59767     -37758.242     -48247.219     -2513.0187      0.24777218     287            0.00099108872
   1149000   433.98648     -37345.968     -47942.101     -2359.2839      0.22871851     287.25         0.00091487404
   1150000   437.07559     -37468.538     -48140.095     -2142.7596      0.2104448      287.5          0.00084177919
Loop time of 44.7185 on 56 procs for 10000 steps with 12288 atoms

Performance: 19.321 ns/day, 1.242 hours/ns, 223.621 timesteps/s, 2.748 Matom-step/s
99.8% CPU use with 56 MPI tasks x no OpenMP threads

MPI task timing breakdown:
Section |  min time  |  avg time  |  max time  |%varavg| %total
---------------------------------------------------------------
Pair    | 18.447     | 19.548     | 20.873     |  12.3 | 43.71
Bond    | 0.0012557  | 0.002206   | 0.0038542  |   1.0 |  0.00
Kspace  | 10.698     | 12.01      | 13.028     |  15.2 | 26.86
Neigh   | 4.5585     | 4.5613     | 4.5637     |   0.1 | 10.20
Comm    | 1.5038     | 1.6467     | 1.8047     |   4.4 |  3.68
Output  | 0.023422   | 0.04069    | 0.057231   |   5.0 |  0.09
Modify  | 5.1155     | 5.6439     | 6.6501     |  14.7 | 12.62
Other   |            | 1.265      |            |       |  2.83

Nlocal:        219.429 ave         240 max         197 min
Histogram: 3 4 4 8 8 6 7 6 7 3
Nghost:        7286.64 ave        7350 max        7206 min
Histogram: 1 0 6 8 3 14 12 6 3 3
Neighs:        96079.9 ave      106238 max       86036 min
Histogram: 4 3 7 6 9 7 6 6 4 4

Total # of neighbors = 5380473
Ave neighs/atom = 437.86401
Ave special neighs/atom = 2
Neighbor list builds = 384
Dangerous builds = 0
kspace_style pppm/tip4p 1.0e-5
next nloop
jump SELF loop_start
run 10000 # 10ps
PPPM initialization ...
  extracting TIP4P info from pair style
  using 12-bit tables for long-range coulomb
  G vector (1/distance) = 0.32815664
  grid = 50 75 50
  stencil order = 5
  estimated absolute RMS force accuracy = 0.0035802102
  estimated relative force accuracy = 1.0781697e-05
  using double precision KISS FFT
  3d grid and FFT values/proc = 15776 4000
Generated 0 of 1 mixed pair_coeff terms from geometric mixing rule
Per MPI rank memory allocation (min/avg/max) = 11.21 | 11.35 | 11.45 Mbytes
   Step          Temp          TotEng         PotEng          Pxy           v_sxy         v_strain     v_viscosity  
   1150000   437.05082     -37469.456     -48140.408     -1696.7019      0.16455694     287.5          0.00065822775
   1151000   434.18753     -37467.925     -48068.967     -2229.2107      0.21257823     287.75         0.00085031291
   1152000   430.17957     -37644.475     -48147.66      -1660.2746      0.16139808     288            0.0006455923 
   1153000   432.97189     -37591.845     -48163.206     -2184.4614      0.21258055     288.25         0.00085032222
   1154000   429.23753     -37740.647     -48220.831     -2122.1417      0.20457971     288.5          0.00081831885
   1155000   435.84997     -37457.068     -48098.701     -2111.1078      0.21643554     288.75         0.00086574216
   1156000   429.28848     -37650.286     -48131.714     -2451.4462      0.2422418      289            0.0009689672 
   1157000   437.03644     -37620.233     -48290.834     -1938.6029      0.19013262     289.25         0.00076053049
   1158000   435.18044     -37432.447     -48057.733     -2508.3345      0.24372046     289.5          0.00097488185
   1159000   431.11239     -37645.589     -48171.55      -2256.0217      0.22127244     289.75         0.00088508976
   1160000   433.41483     -37614.689     -48196.866     -2257.4562      0.22215464     290            0.00088861856
Loop time of 52.1608 on 56 procs for 10000 steps with 12288 atoms

Performance: 16.564 ns/day, 1.449 hours/ns, 191.715 timesteps/s, 2.356 Matom-step/s
99.8% CPU use with 56 MPI tasks x no OpenMP threads

MPI task timing breakdown:
Section |  min time  |  avg time  |  max time  |%varavg| %total
---------------------------------------------------------------
Pair    | 18.832     | 19.807     | 21.465     |  14.1 | 37.97
Bond    | 0.0015302  | 0.0026169  | 0.0044379  |   1.1 |  0.01
Kspace  | 14.648     | 16.292     | 17.248     |  15.4 | 31.23
Neigh   | 4.5421     | 4.5455     | 4.5481     |   0.1 |  8.71
Comm    | 1.6315     | 1.805      | 2.0099     |   5.9 |  3.46
Output  | 0.023612   | 0.040819   | 0.05726    |   4.9 |  0.08
Modify  | 7.3182     | 8.0301     | 9.4019     |  17.8 | 15.39
Other   |            | 1.637      |            |       |  3.14

Nlocal:        219.429 ave         237 max         200 min
Histogram: 2 2 9 5 8 9 5 8 3 5
Nghost:        6843.09 ave        6913 max        6761 min
Histogram: 3 2 3 6 6 14 6 10 5 1
Neighs:        96068.5 ave      106003 max       85237 min
Histogram: 2 0 7 8 11 8 9 4 5 2

Total # of neighbors = 5379837
Ave neighs/atom = 437.81226
Ave special neighs/atom = 2
Neighbor list builds = 383
Dangerous builds = 0
kspace_style pppm/tip4p 1.0e-5
next nloop
jump SELF loop_start
run 10000 # 10ps
PPPM initialization ...
  extracting TIP4P info from pair style
  using 12-bit tables for long-range coulomb
  G vector (1/distance) = 0.32815664
  grid = 50 50 50
  stencil order = 5
  estimated absolute RMS force accuracy = 0.0035802102
  estimated relative force accuracy = 1.0781697e-05
  using double precision KISS FFT
  3d grid and FFT values/proc = 11424 2800
Generated 0 of 1 mixed pair_coeff terms from geometric mixing rule
Per MPI rank memory allocation (min/avg/max) = 10.92 | 11.04 | 11.13 Mbytes
   Step          Temp          TotEng         PotEng          Pxy           v_sxy         v_strain     v_viscosity  
   1160000   433.35884     -37616.804     -48197.613     -1620.376       0.15745706     290            0.00062982826
   1161000   428.57718     -37712.964     -48177.025     -2407.7992      0.23486359     290.25         0.00093945437
   1162000   432.00653     -37603.851     -48151.643     -1875.2841      0.1868765      290.5          0.00074750601
   1163000   434.89191     -37530.252     -48148.492     -2230.6631      0.21939707     290.75         0.00087758829
   1164000   433.49474     -37553.681     -48137.808     -1906.4532      0.18275424     291            0.00073101697
   1165000   426.97577     -37931.877     -48356.838     -1965.6366      0.19133396     291.25         0.00076533584
   1166000   437.50346     -37490.11      -48172.114     -2227.2998      0.21832085     291.5          0.00087328341
   1167000   426.78364     -37741.967     -48162.237     -1843.6617      0.18349199     291.75         0.00073396798
   1168000   430.61779     -37730.045     -48243.929     -2393.2041      0.23762825     292            0.00095051299
   1169000   437.1227      -37556.38      -48229.087     -1912.6938      0.19464751     292.25         0.00077859006
   1170000   432.90409     -37534.144     -48103.85      -2241.599       0.21829611     292.5          0.00087318446
Loop time of 44.7713 on 56 procs for 10000 steps with 12288 atoms

Performance: 19.298 ns/day, 1.244 hours/ns, 223.357 timesteps/s, 2.745 Matom-step/s
99.7% CPU use with 56 MPI tasks x no OpenMP threads

MPI task timing breakdown:
Section |  min time  |  avg time  |  max time  |%varavg| %total
---------------------------------------------------------------
Pair    | 18.617     | 19.546     | 21.088     |  13.2 | 43.66
Bond    | 0.0012881  | 0.0022453  | 0.0038015  |   1.1 |  0.01
Kspace  | 10.581     | 12.129     | 13.039     |  16.5 | 27.09
Neigh   | 4.5101     | 4.5131     | 4.5152     |   0.1 | 10.08
Comm    | 1.5575     | 1.6318     | 1.8005     |   4.2 |  3.64
Output  | 0.023391   | 0.040762   | 0.057407   |   5.0 |  0.09
Modify  | 5.1386     | 5.6514     | 6.6419     |  14.7 | 12.62
Other   |            | 1.257      |            |       |  2.81

Nlocal:        219.429 ave         243 max         189 min
Histogram: 1 0 3 6 7 15 14 7 2 1
Nghost:        7276.18 ave        7346 max        7226 min
Histogram: 4 4 8 6 16 11 3 2 0 2
Neighs:        96075.1 ave      106102 max       82019 min
Histogram: 1 0 3 5 7 9 17 9 4 1

Total # of neighbors = 5380208
Ave neighs/atom = 437.84245
Ave special neighs/atom = 2
Neighbor list builds = 381
Dangerous builds = 0
kspace_style pppm/tip4p 1.0e-5
next nloop
jump SELF loop_start
run 10000 # 10ps
PPPM initialization ...
  extracting TIP4P info from pair style
  using 12-bit tables for long-range coulomb
  G vector (1/distance) = 0.32815664
  grid = 50 75 50
  stencil order = 5
  estimated absolute RMS force accuracy = 0.0035802102
  estimated relative force accuracy = 1.0781697e-05
  using double precision KISS FFT
  3d grid and FFT values/proc = 15776 4000
Generated 0 of 1 mixed pair_coeff terms from geometric mixing rule
Per MPI rank memory allocation (min/avg/max) = 11.21 | 11.35 | 11.45 Mbytes
   Step          Temp          TotEng         PotEng          Pxy           v_sxy         v_strain     v_viscosity  
   1170000   432.92175     -37534.216     -48104.354     -1740.2838      0.16680509     292.5          0.00066722035
   1171000   434.3307      -37549.755     -48154.293     -2260.7626      0.22804741     292.75         0.00091218964
   1172000   435.08438     -37562.589     -48185.528     -2312.8358      0.23006202     293            0.00092024809
   1173000   435.15317     -37622.92      -48247.539     -2259.257       0.22678528     293.25         0.00090714112
   1174000   430.01558     -37785.421     -48284.602     -2233.9605      0.22238529     293.5          0.00088954115
   1175000   434.6062      -37663.643     -48274.907     -2174.7574      0.2135464      293.75         0.00085418561
   1176000   434.68557     -37516.142     -48129.344     -2014.2679      0.1991118      294            0.00079644721
   1177000   436.87833     -37544.63      -48211.371     -2016.2337      0.19485946     294.25         0.00077943782
   1178000   429.62923     -37706.342     -48196.09      -2141.0401      0.21076422     294.5          0.00084305687
   1179000   438.75441     -37571.543     -48284.089     -1987.5217      0.19873309     294.75         0.00079493237
   1180000   433.79361     -37602.825     -48194.25      -2334.1325      0.23583819     295            0.00094335277
Loop time of 52.0157 on 56 procs for 10000 steps with 12288 atoms

Performance: 16.610 ns/day, 1.445 hours/ns, 192.250 timesteps/s, 2.362 Matom-step/s
99.8% CPU use with 56 MPI tasks x no OpenMP threads

MPI task timing breakdown:
Section |  min time  |  avg time  |  max time  |%varavg| %total
---------------------------------------------------------------
Pair    | 18.606     | 19.799     | 20.93      |  12.3 | 38.06
Bond    | 0.0016183  | 0.0026101  | 0.0046134  |   1.2 |  0.01
Kspace  | 15.078     | 16.155     | 17.373     |  13.1 | 31.06
Neigh   | 4.5446     | 4.5482     | 4.5511     |   0.1 |  8.74
Comm    | 1.6462     | 1.801      | 2.0253     |   6.3 |  3.46
Output  | 0.023104   | 0.040224   | 0.056594   |   5.0 |  0.08
Modify  | 7.3322     | 8.0314     | 9.4134     |  17.9 | 15.44
Other   |            | 1.639      |            |       |  3.15

Nlocal:        219.429 ave         237 max         200 min
Histogram: 1 3 7 5 8 10 11 5 3 3
Nghost:        6841.71 ave        6932 max        6756 min
Histogram: 2 9 3 9 9 3 6 8 5 2
Neighs:        96073.5 ave      105402 max       86798 min
Histogram: 2 4 7 5 8 12 8 4 3 3

Total # of neighbors = 5380114
Ave neighs/atom = 437.8348
Ave special neighs/atom = 2
Neighbor list builds = 384
Dangerous builds = 0
kspace_style pppm/tip4p 1.0e-5
next nloop
jump SELF loop_start
run 10000 # 10ps
PPPM initialization ...
  extracting TIP4P info from pair style
  using 12-bit tables for long-range coulomb
  G vector (1/distance) = 0.32815664
  grid = 50 50 50
  stencil order = 5
  estimated absolute RMS force accuracy = 0.0035802102
  estimated relative force accuracy = 1.0781697e-05
  using double precision KISS FFT
  3d grid and FFT values/proc = 11424 2800
Generated 0 of 1 mixed pair_coeff terms from geometric mixing rule
Per MPI rank memory allocation (min/avg/max) = 10.92 | 11.04 | 11.13 Mbytes
   Step          Temp          TotEng         PotEng          Pxy           v_sxy         v_strain     v_viscosity  
   1180000   433.75536     -37605.359     -48195.85      -1762.1892      0.17720174     295            0.00070880698
   1181000   428.78361     -37694.45      -48163.551     -2161.5222      0.2103133      295.25         0.00084125321
   1182000   434.93339     -37544.339     -48163.592     -1982.9995      0.19201873     295.5          0.00076807492
   1183000   432.49314     -37775.66      -48335.332     -2228.2592      0.21969237     295.75         0.0008787695 
   1184000   434.03799     -37581.329     -48178.72      -2321.3206      0.23092301     296            0.00092369204
   1185000   432.47268     -37623.028     -48182.201     -2145.6632      0.20518945     296.25         0.0008207578 
   1186000   431.09227     -37575.891     -48101.36      -2462.912       0.24597832     296.5          0.0009839133 
   1187000   436.09146     -37398.794     -48046.322     -2211.8493      0.21502855     296.75         0.00086011422
   1188000   433.53794     -37574.537     -48159.719     -2156.6585      0.22172644     297            0.00088690577
   1189000   439.54719     -37459.313     -48191.216     -2033.3641      0.20179064     297.25         0.00080716254
   1190000   433.39163     -37659.36      -48240.97      -2171.5182      0.21501423     297.5          0.0008600569 
Loop time of 44.5482 on 56 procs for 10000 steps with 12288 atoms

Performance: 19.395 ns/day, 1.237 hours/ns, 224.476 timesteps/s, 2.758 Matom-step/s
99.8% CPU use with 56 MPI tasks x no OpenMP threads

MPI task timing breakdown:
Section |  min time  |  avg time  |  max time  |%varavg| %total
---------------------------------------------------------------
Pair    | 18.546     | 19.529     | 20.417     |  11.2 | 43.84
Bond    | 0.0012123  | 0.0022228  | 0.0037043  |   1.0 |  0.00
Kspace  | 10.996     | 11.835     | 12.803     |  14.3 | 26.57
Neigh   | 4.548      | 4.5511     | 4.5537     |   0.1 | 10.22
Comm    | 1.5494     | 1.6438     | 1.7778     |   4.3 |  3.69
Output  | 0.023191   | 0.040571   | 0.057207   |   5.0 |  0.09
Modify  | 5.1794     | 5.6827     | 6.6974     |  14.7 | 12.76
Other   |            | 1.264      |            |       |  2.84

Nlocal:        219.429 ave         243 max         201 min
Histogram: 6 4 8 5 8 10 9 4 1 1
Nghost:        7282.48 ave        7389 max        7211 min
Histogram: 6 5 11 11 3 9 5 3 1 2
Neighs:          96084 ave      106914 max       86190 min
Histogram: 2 6 7 10 6 4 9 6 5 1

Total # of neighbors = 5380705
Ave neighs/atom = 437.88289
Ave special neighs/atom = 2
Neighbor list builds = 384
Dangerous builds = 0
kspace_style pppm/tip4p 1.0e-5
next nloop
jump SELF loop_start
run 10000 # 10ps
PPPM initialization ...
  extracting TIP4P info from pair style
  using 12-bit tables for long-range coulomb
  G vector (1/distance) = 0.32815664
  grid = 50 75 50
  stencil order = 5
  estimated absolute RMS force accuracy = 0.0035802102
  estimated relative force accuracy = 1.0781697e-05
  using double precision KISS FFT
  3d grid and FFT values/proc = 15776 4000
Generated 0 of 1 mixed pair_coeff terms from geometric mixing rule
Per MPI rank memory allocation (min/avg/max) = 11.21 | 11.35 | 11.45 Mbytes
   Step          Temp          TotEng         PotEng          Pxy           v_sxy         v_strain     v_viscosity  
   1190000   433.25599     -37664.168     -48242.466     -1567.879       0.15365329     297.5          0.00061461315
   1191000   441.31984     -37498.124     -48273.308     -2447.2378      0.2402817      297.75         0.00096112681
   1192000   439.86005     -37447.671     -48187.213     -1713.7137      0.16607706     298            0.00066430825
   1193000   438.27265     -37606.248     -48307.032     -2163.8302      0.21322097     298.25         0.00085288387
   1194000   433.88749     -37478.698     -48072.415     -2471.7653      0.2455913      298.5          0.00098236521
   1195000   437.03509     -37527.612     -48198.18      -2123.5693      0.20483835     298.75         0.00081935339
   1196000   432.83569     -37522.835     -48090.871     -2547.207       0.24903917     299            0.00099615667
   1197000   435.523       -37485.077     -48118.726     -2049.3783      0.20593041     299.25         0.00082372164
   1198000   440.19369     -37458.278     -48205.966     -2021.6587      0.20317083     299.5          0.00081268332
   1199000   433.28037     -37813.654     -48392.547     -2247.7363      0.22429964     299.75         0.00089719854
   1200000   436.03693     -37505.978     -48152.175     -2058.7207      0.20329007     300            0.00081316028
Loop time of 51.8829 on 56 procs for 10000 steps with 12288 atoms

Performance: 16.653 ns/day, 1.441 hours/ns, 192.742 timesteps/s, 2.368 Matom-step/s
99.8% CPU use with 56 MPI tasks x no OpenMP threads

MPI task timing breakdown:
Section |  min time  |  avg time  |  max time  |%varavg| %total
---------------------------------------------------------------
Pair    | 18.698     | 19.783     | 20.896     |  10.6 | 38.13
Bond    | 0.001614   | 0.0025723  | 0.0044834  |   1.1 |  0.00
Kspace  | 14.897     | 16.043     | 17.041     |  11.8 | 30.92
Neigh   | 4.5193     | 4.5229     | 4.526      |   0.1 |  8.72
Comm    | 1.6578     | 1.8002     | 1.9643     |   5.9 |  3.47
Output  | 0.024054   | 0.04125    | 0.057648   |   4.9 |  0.08
Modify  | 7.357      | 8.0446     | 9.4483     |  17.7 | 15.51
Other   |            | 1.645      |            |       |  3.17

Nlocal:        219.429 ave         235 max         198 min
Histogram: 3 2 3 5 9 7 7 9 5 6
Nghost:        6836.59 ave        6896 max        6778 min
Histogram: 2 2 8 9 7 9 8 7 2 2
Neighs:          96076 ave      102956 max       84684 min
Histogram: 1 3 4 1 10 4 7 13 4 9

Total # of neighbors = 5380257
Ave neighs/atom = 437.84644
Ave special neighs/atom = 2
Neighbor list builds = 384
Dangerous builds = 0
kspace_style pppm/tip4p 1.0e-5
next nloop
jump SELF loop_start
run 10000 # 10ps
PPPM initialization ...
  extracting TIP4P info from pair style
  using 12-bit tables for long-range coulomb
  G vector (1/distance) = 0.32815664
  grid = 50 50 50
  stencil order = 5
  estimated absolute RMS force accuracy = 0.0035802102
  estimated relative force accuracy = 1.0781697e-05
  using double precision KISS FFT
  3d grid and FFT values/proc = 11424 2800
Generated 0 of 1 mixed pair_coeff terms from geometric mixing rule
Per MPI rank memory allocation (min/avg/max) = 10.92 | 11.04 | 11.13 Mbytes
   Step          Temp          TotEng         PotEng          Pxy           v_sxy         v_strain     v_viscosity  
   1200000   435.90644     -37510.446     -48153.457     -1500.2133      0.14620173     300            0.0005848069 
   1201000   436.12851     -37472.894     -48121.327     -2248.7296      0.22118098     300.25         0.00088472392
   1202000   430.3402      -37603.673     -48110.78      -2314.2353      0.23158876     300.5          0.00092635505
   1203000   427.73436     -37836.306     -48279.789     -2139.4096      0.20745633     300.75         0.0008298253 
   1204000   430.80684     -37742.904     -48261.404     -2320.1346      0.22915906     301            0.00091663622
   1205000   432.53802     -37589.219     -48149.988     -1940.6827      0.18892107     301.25         0.00075568429
   1206000   435.0703      -37680.038     -48302.634     -2186.5642      0.21250968     301.5          0.00085003871
   1207000   439.11849     -37795.649     -48517.085     -1941.2976      0.19246112     301.75         0.00076984449
   1208000   438.15305     -37771.352     -48469.216     -2164.0153      0.21500106     302            0.00086000423
   1209000   439.06207     -37513.43      -48233.489     -2201.9543      0.21625777     302.25         0.00086503109
   1210000   432.90051     -37789.266     -48358.885     -2220.6515      0.21585208     302.5          0.00086340831
Loop time of 44.6365 on 56 procs for 10000 steps with 12288 atoms

Performance: 19.356 ns/day, 1.240 hours/ns, 224.032 timesteps/s, 2.753 Matom-step/s
99.8% CPU use with 56 MPI tasks x no OpenMP threads

MPI task timing breakdown:
Section |  min time  |  avg time  |  max time  |%varavg| %total
---------------------------------------------------------------
Pair    | 18.354     | 19.511     | 20.955     |  12.2 | 43.71
Bond    | 0.0012165  | 0.0021794  | 0.0041656  |   1.1 |  0.00
Kspace  | 10.534     | 12.016     | 13.2       |  15.2 | 26.92
Neigh   | 4.5344     | 4.5374     | 4.54       |   0.1 | 10.17
Comm    | 1.5341     | 1.6308     | 1.8079     |   4.8 |  3.65
Output  | 0.023254   | 0.040475   | 0.057037   |   5.0 |  0.09
Modify  | 5.1242     | 5.6433     | 6.6335     |  14.8 | 12.64
Other   |            | 1.256      |            |       |  2.81

Nlocal:        219.429 ave         238 max         194 min
Histogram: 1 1 3 6 6 14 10 9 2 4
Nghost:        7287.21 ave        7364 max        7223 min
Histogram: 2 5 10 7 12 7 4 2 5 2
Neighs:        96038.3 ave      104673 max       83388 min
Histogram: 1 0 5 6 4 9 13 9 6 3

Total # of neighbors = 5378143
Ave neighs/atom = 437.6744
Ave special neighs/atom = 2
Neighbor list builds = 382
Dangerous builds = 0
kspace_style pppm/tip4p 1.0e-5
next nloop
jump SELF loop_start
run 10000 # 10ps
PPPM initialization ...
  extracting TIP4P info from pair style
  using 12-bit tables for long-range coulomb
  G vector (1/distance) = 0.32815664
  grid = 50 75 50
  stencil order = 5
  estimated absolute RMS force accuracy = 0.0035802102
  estimated relative force accuracy = 1.0781697e-05
  using double precision KISS FFT
  3d grid and FFT values/proc = 15776 4000
Generated 0 of 1 mixed pair_coeff terms from geometric mixing rule
Per MPI rank memory allocation (min/avg/max) = 11.21 | 11.35 | 11.45 Mbytes
   Step          Temp          TotEng         PotEng          Pxy           v_sxy         v_strain     v_viscosity  
   1210000   433.11992     -37786.485     -48361.461     -1695.8761      0.1619806      302.5          0.00064792238
   1211000   439.41527     -37490.251     -48218.933     -2375.3423      0.23106297     302.75         0.00092425188
   1212000   434.86951     -37627.308     -48245.001     -2311.8331      0.22780693     303            0.00091122774
   1213000   434.73416     -37688.843     -48303.232     -2320.8142      0.22373794     303.25         0.00089495176
   1214000   435.15847     -37700.076     -48324.825     -2113.9164      0.20944939     303.5          0.00083779755
   1215000   436.41432     -37718.014     -48373.426     -2097.4595      0.20748032     303.75         0.00082992128
   1216000   437.07547     -37544.34      -48215.894     -2254.4738      0.22453423     304            0.00089813694
   1217000   433.1144      -37662.528     -48237.369     -1968.6246      0.19351945     304.25         0.0007740778 
   1218000   434.0974      -37724.587     -48323.428     -2329.6663      0.22871508     304.5          0.00091486031
   1219000   438.20234     -37536.792     -48235.86      -1976.9865      0.19801473     304.75         0.00079205891
   1220000   432.94527     -37681.951     -48252.663     -2365.4163      0.23560489     305            0.00094241956
Loop time of 51.8535 on 56 procs for 10000 steps with 12288 atoms

Performance: 16.662 ns/day, 1.440 hours/ns, 192.851 timesteps/s, 2.370 Matom-step/s
99.8% CPU use with 56 MPI tasks x no OpenMP threads

MPI task timing breakdown:
Section |  min time  |  avg time  |  max time  |%varavg| %total
---------------------------------------------------------------
Pair    | 18.527     | 19.773     | 20.972     |  11.8 | 38.13
Bond    | 0.0015198  | 0.0025453  | 0.0048142  |   1.1 |  0.00
Kspace  | 14.919     | 16.017     | 17.158     |  12.8 | 30.89
Neigh   | 4.5291     | 4.5323     | 4.5351     |   0.1 |  8.74
Comm    | 1.6698     | 1.8025     | 2.0165     |   6.1 |  3.48
Output  | 0.024121   | 0.041297   | 0.057806   |   4.9 |  0.08
Modify  | 7.3557     | 8.0383     | 9.4314     |  18.1 | 15.50
Other   |            | 1.647      |            |       |  3.18

Nlocal:        219.429 ave         242 max         198 min
Histogram: 3 1 7 10 8 11 5 5 5 1
Nghost:        6874.55 ave        6942 max        6778 min
Histogram: 1 0 2 6 11 8 12 9 3 4
Neighs:        96054.3 ave      107041 max       85385 min
Histogram: 1 4 7 7 9 11 7 6 2 2

Total # of neighbors = 5379043
Ave neighs/atom = 437.74764
Ave special neighs/atom = 2
Neighbor list builds = 380
Dangerous builds = 0
kspace_style pppm/tip4p 1.0e-5
next nloop
jump SELF loop_start
run 10000 # 10ps
PPPM initialization ...
  extracting TIP4P info from pair style
  using 12-bit tables for long-range coulomb
  G vector (1/distance) = 0.32815664
  grid = 50 50 50
  stencil order = 5
  estimated absolute RMS force accuracy = 0.0035802102
  estimated relative force accuracy = 1.0781697e-05
  using double precision KISS FFT
  3d grid and FFT values/proc = 11424 2800
Generated 0 of 1 mixed pair_coeff terms from geometric mixing rule
Per MPI rank memory allocation (min/avg/max) = 10.92 | 11.04 | 11.13 Mbytes
   Step          Temp          TotEng         PotEng          Pxy           v_sxy         v_strain     v_viscosity  
   1220000   432.68846     -37686.664     -48251.105     -1854.9496      0.1828793      305            0.00073151719
   1221000   428.9193      -37870.204     -48342.618     -2223.2933      0.22098301     305.25         0.00088393203
   1222000   436.01029     -37559.248     -48204.795     -2209.0484      0.21795138     305.5          0.00087180551
   1223000   434.21541     -37661.798     -48263.521     -2149.8905      0.21171641     305.75         0.00084686564
   1224000   432.02565     -37690.116     -48238.374     -1948.5317      0.19138033     306            0.00076552133
   1225000   427.79068     -37818.784     -48263.642     -1994.0622      0.1992882      306.25         0.00079715281
   1226000   432.40737     -37500.06      -48057.638     -2285.9852      0.22202552     306.5          0.00088810208
   1227000   434.27166     -37487.685     -48090.782     -2177.146       0.2136         306.75         0.0008544    
   1228000   434.6705      -37612.834     -48225.668     -1921.6419      0.19163767     307            0.00076655068
   1229000   437.46932     -37631.128     -48312.298     -2108.8513      0.21106651     307.25         0.00084426604
   1230000   433.45596     -37721.617     -48304.797     -2188.8958      0.21237373     307.5          0.00084949494
Loop time of 44.4985 on 56 procs for 10000 steps with 12288 atoms

Performance: 19.416 ns/day, 1.236 hours/ns, 224.727 timesteps/s, 2.761 Matom-step/s
99.8% CPU use with 56 MPI tasks x no OpenMP threads

MPI task timing breakdown:
Section |  min time  |  avg time  |  max time  |%varavg| %total
---------------------------------------------------------------
Pair    | 18.387     | 19.516     | 20.64      |  11.0 | 43.86
Bond    | 0.0012456  | 0.0021924  | 0.0038526  |   1.0 |  0.00
Kspace  | 10.7       | 11.851     | 12.888     |  14.2 | 26.63
Neigh   | 4.5358     | 4.5388     | 4.5409     |   0.1 | 10.20
Comm    | 1.5388     | 1.6449     | 1.8076     |   5.1 |  3.70
Output  | 0.023176   | 0.040379   | 0.056834   |   5.0 |  0.09
Modify  | 5.0964     | 5.6506     | 6.6529     |  14.9 | 12.70
Other   |            | 1.254      |            |       |  2.82

Nlocal:        219.429 ave         239 max         198 min
Histogram: 3 2 3 9 7 11 12 1 5 3
Nghost:        7286.91 ave        7342 max        7209 min
Histogram: 1 2 1 4 12 7 16 4 6 3
Neighs:        96051.5 ave      105582 max       84734 min
Histogram: 1 4 2 6 8 12 13 4 4 2

Total # of neighbors = 5378884
Ave neighs/atom = 437.7347
Ave special neighs/atom = 2
Neighbor list builds = 383
Dangerous builds = 0
kspace_style pppm/tip4p 1.0e-5
next nloop
jump SELF loop_start
run 10000 # 10ps
PPPM initialization ...
  extracting TIP4P info from pair style
  using 12-bit tables for long-range coulomb
  G vector (1/distance) = 0.32815664
  grid = 50 75 50
  stencil order = 5
  estimated absolute RMS force accuracy = 0.0035802102
  estimated relative force accuracy = 1.0781697e-05
  using double precision KISS FFT
  3d grid and FFT values/proc = 15776 4000
Generated 0 of 1 mixed pair_coeff terms from geometric mixing rule
Per MPI rank memory allocation (min/avg/max) = 11.21 | 11.35 | 11.45 Mbytes
   Step          Temp          TotEng         PotEng          Pxy           v_sxy         v_strain     v_viscosity  
   1230000   433.47178     -37721.855     -48305.422     -1644.4956      0.1571924      307.5          0.00062876959
   1231000   430.9485      -37724.362     -48246.321     -2109.4407      0.20442579     307.75         0.00081770314
   1232000   430.53529     -37688.644     -48200.514     -2246.2197      0.22170737     308            0.00088682949
   1233000   431.52127     -37713.641     -48249.585     -1874.4357      0.18184228     308.25         0.00072736911
   1234000   431.03541     -37765.083     -48289.164     -2541.895       0.25304299     308.5          0.001012172  
   1235000   432.11838     -37641.968     -48192.49      -2157.3851      0.21650588     308.75         0.00086602353
   1236000   437.67556     -37544.103     -48230.309     -1973.683       0.19087031     309            0.00076348124
   1237000   435.07716     -37585.635     -48208.398     -1883.2142      0.18440226     309.25         0.00073760905
   1238000   434.12265     -37637.266     -48236.725     -2042.0589      0.20328682     309.5          0.0008131473 
   1239000   433.72151     -37767.325     -48356.989     -2155.0617      0.21077168     309.75         0.00084308672
   1240000   432.4405      -37699.346     -48257.733     -2519.1476      0.2467779      310            0.00098711159
Loop time of 51.8502 on 56 procs for 10000 steps with 12288 atoms

Performance: 16.663 ns/day, 1.440 hours/ns, 192.863 timesteps/s, 2.370 Matom-step/s
99.8% CPU use with 56 MPI tasks x no OpenMP threads

MPI task timing breakdown:
Section |  min time  |  avg time  |  max time  |%varavg| %total
---------------------------------------------------------------
Pair    | 18.256     | 19.774     | 21.137     |  11.0 | 38.14
Bond    | 0.0016592  | 0.002558   | 0.0042196  |   1.1 |  0.00
Kspace  | 14.709     | 16.024     | 17.646     |  12.1 | 30.90
Neigh   | 4.5129     | 4.516      | 4.5185     |   0.1 |  8.71
Comm    | 1.6559     | 1.8129     | 2.018      |   6.2 |  3.50
Output  | 0.023816   | 0.041083   | 0.057614   |   5.0 |  0.08
Modify  | 7.3266     | 8.0317     | 9.409      |  17.8 | 15.49
Other   |            | 1.648      |            |       |  3.18

Nlocal:        219.429 ave         240 max         202 min
Histogram: 2 4 7 10 7 12 7 3 3 1
Nghost:         6847.5 ave        6903 max        6790 min
Histogram: 2 2 4 10 7 12 9 6 2 2
Neighs:        96079.5 ave      106388 max       87944 min
Histogram: 2 9 4 8 11 7 7 5 2 1

Total # of neighbors = 5380452
Ave neighs/atom = 437.8623
Ave special neighs/atom = 2
Neighbor list builds = 383
Dangerous builds = 0
kspace_style pppm/tip4p 1.0e-5
next nloop
jump SELF loop_start
run 10000 # 10ps
PPPM initialization ...
  extracting TIP4P info from pair style
  using 12-bit tables for long-range coulomb
  G vector (1/distance) = 0.32815664
  grid = 50 50 50
  stencil order = 5
  estimated absolute RMS force accuracy = 0.0035802102
  estimated relative force accuracy = 1.0781697e-05
  using double precision KISS FFT
  3d grid and FFT values/proc = 11424 2800
Generated 0 of 1 mixed pair_coeff terms from geometric mixing rule
Per MPI rank memory allocation (min/avg/max) = 10.92 | 11.04 | 11.13 Mbytes
   Step          Temp          TotEng         PotEng          Pxy           v_sxy         v_strain     v_viscosity  
   1240000   432.11667     -37707.618     -48258.099     -1991.9166      0.19250956     310            0.00077003824
   1241000   435.3225      -37716.304     -48345.057     -2188.0621      0.21374313     310.25         0.00085497252
   1242000   431.10678     -37710.386     -48236.209     -2088.1893      0.21086157     310.5          0.00084344628
   1243000   438.4684      -37596.3       -48301.863     -2348.6117      0.23435996     310.75         0.00093743983
   1244000   430.83969     -37569.514     -48088.816     -2192.5228      0.21870806     311            0.00087483225
   1245000   429.64205     -37758.282     -48248.343     -1723.3487      0.16838201     311.25         0.00067352803
   1246000   436.2732      -37380.022     -48031.988     -2115.1473      0.21389766     311.5          0.00085559065
   1247000   426.54074     -37970.693     -48385.033     -2310.835       0.22804992     311.75         0.00091219968
   1248000   435.54619     -37528.085     -48162.301     -2090.0048      0.1998003      312            0.00079920121
   1249000   436.45118     -37387.299     -48043.61      -2548.4759      0.24697409     312.25         0.00098789636
   1250000   433.40007     -37544.431     -48126.247     -2529.9878      0.25306635     312.5          0.0010122654 
Loop time of 44.3636 on 56 procs for 10000 steps with 12288 atoms

Performance: 19.475 ns/day, 1.232 hours/ns, 225.410 timesteps/s, 2.770 Matom-step/s
99.8% CPU use with 56 MPI tasks x no OpenMP threads

MPI task timing breakdown:
Section |  min time  |  avg time  |  max time  |%varavg| %total
---------------------------------------------------------------
Pair    | 18.639     | 19.495     | 20.986     |  10.2 | 43.94
Bond    | 0.0012323  | 0.0021877  | 0.0032597  |   0.9 |  0.00
Kspace  | 10.284     | 11.779     | 12.496     |  13.3 | 26.55
Neigh   | 4.4809     | 4.484      | 4.4863     |   0.1 | 10.11
Comm    | 1.543      | 1.6411     | 1.8162     |   4.7 |  3.70
Output  | 0.023295   | 0.040662   | 0.057238   |   5.0 |  0.09
Modify  | 5.1527     | 5.6583     | 6.6724     |  14.7 | 12.75
Other   |            | 1.264      |            |       |  2.85

Nlocal:        219.429 ave         238 max         196 min
Histogram: 2 4 2 5 7 10 11 8 4 3
Nghost:        7288.11 ave        7373 max        7196 min
Histogram: 3 2 6 9 7 9 7 3 6 4
Neighs:        96078.8 ave      106598 max       83409 min
Histogram: 2 2 3 6 11 8 13 4 2 5

Total # of neighbors = 5380410
Ave neighs/atom = 437.85889
Ave special neighs/atom = 2
Neighbor list builds = 381
Dangerous builds = 0
kspace_style pppm/tip4p 1.0e-5
next nloop
jump SELF loop_start
run 10000 # 10ps
PPPM initialization ...
  extracting TIP4P info from pair style
  using 12-bit tables for long-range coulomb
  G vector (1/distance) = 0.32815664
  grid = 50 75 50
  stencil order = 5
  estimated absolute RMS force accuracy = 0.0035802102
  estimated relative force accuracy = 1.0781697e-05
  using double precision KISS FFT
  3d grid and FFT values/proc = 15776 4000
Generated 0 of 1 mixed pair_coeff terms from geometric mixing rule
Per MPI rank memory allocation (min/avg/max) = 11.21 | 11.35 | 11.45 Mbytes
   Step          Temp          TotEng         PotEng          Pxy           v_sxy         v_strain     v_viscosity  
   1250000   433.47785     -37542.564     -48126.279     -2017.8377      0.20106203     312.5          0.00080424812
   1251000   430.424       -37626.388     -48135.541     -1826.7285      0.18042134     312.75         0.00072168538
   1252000   431.70965     -37711.301     -48251.844     -1938.3487      0.19258808     313            0.00077035231
   1253000   428.90462     -37577.673     -48049.729     -2541.515       0.24917368     313.25         0.00099669472
   1254000   429.61841     -37772.645     -48262.128     -2115.2201      0.20921512     313.5          0.00083686048
   1255000   431.53498     -37725.693     -48261.971     -1877.3513      0.18639843     313.75         0.00074559373
   1256000   426.03361     -37945.935     -48347.893     -1860.9763      0.17997827     314            0.00071991309
   1257000   436.06574     -37503.126     -48150.027     -1691.079       0.16808502     314.25         0.00067234009
   1258000   433.2345      -37722.756     -48300.53      -2000.3568      0.19727847     314.5          0.0007891139 
   1259000   427.48633     -37757.371     -48194.798     -2296.085       0.23235109     314.75         0.00092940435
   1260000   429.1954      -37866.423     -48345.579     -2064.8087      0.19766558     315            0.00079066232
Loop time of 51.7386 on 56 procs for 10000 steps with 12288 atoms

Performance: 16.699 ns/day, 1.437 hours/ns, 193.279 timesteps/s, 2.375 Matom-step/s
99.8% CPU use with 56 MPI tasks x no OpenMP threads

MPI task timing breakdown:
Section |  min time  |  avg time  |  max time  |%varavg| %total
---------------------------------------------------------------
Pair    | 18.522     | 19.745     | 21.069     |  10.5 | 38.16
Bond    | 0.0015811  | 0.0025472  | 0.0040226  |   1.0 |  0.00
Kspace  | 14.677     | 15.936     | 17.223     |  11.8 | 30.80
Neigh   | 4.5102     | 4.5137     | 4.516      |   0.1 |  8.72
Comm    | 1.6933     | 1.8132     | 1.9856     |   5.5 |  3.50
Output  | 0.02359    | 0.040673   | 0.057117   |   4.9 |  0.08
Modify  | 7.3417     | 8.0582     | 9.4255     |  17.8 | 15.57
Other   |            | 1.629      |            |       |  3.15

Nlocal:        219.429 ave         233 max         199 min
Histogram: 1 1 5 7 3 7 9 14 4 5
Nghost:        6842.84 ave        6885 max        6794 min
Histogram: 5 1 6 9 3 4 8 9 6 5
Neighs:        96058.9 ave      102070 max       86407 min
Histogram: 1 1 6 7 4 6 7 7 10 7

Total # of neighbors = 5379299
Ave neighs/atom = 437.76847
Ave special neighs/atom = 2
Neighbor list builds = 384
Dangerous builds = 0
kspace_style pppm/tip4p 1.0e-5
next nloop
jump SELF loop_start
run 10000 # 10ps
PPPM initialization ...
  extracting TIP4P info from pair style
  using 12-bit tables for long-range coulomb
  G vector (1/distance) = 0.32815664
  grid = 50 50 50
  stencil order = 5
  estimated absolute RMS force accuracy = 0.0035802102
  estimated relative force accuracy = 1.0781697e-05
  using double precision KISS FFT
  3d grid and FFT values/proc = 11424 2800
Generated 0 of 1 mixed pair_coeff terms from geometric mixing rule
Per MPI rank memory allocation (min/avg/max) = 10.92 | 11.04 | 11.13 Mbytes
   Step          Temp          TotEng         PotEng          Pxy           v_sxy         v_strain     v_viscosity  
   1260000   429.17174     -37866.795     -48345.373     -1607.1744      0.15122934     315            0.00060491735
   1261000   430.15755     -37765.132     -48267.779     -2056.4974      0.20279831     315.25         0.00081119325
   1262000   430.78626     -37573.211     -48091.209     -2048.6585      0.19655947     315.5          0.00078623786
   1263000   429.00563     -37606.271     -48080.793     -2021.7034      0.19866222     315.75         0.00079464887
   1264000   430.79138     -37594.462     -48112.584     -2083.4088      0.20019314     316            0.00080077255
   1265000   431.2545      -37749.181     -48278.611     -2401.008       0.23351743     316.25         0.00093406972
   1266000   434.91068     -37665.094     -48283.793     -2101.5554      0.20784689     316.5          0.00083138758
   1267000   431.73807     -37644.814     -48186.051     -2170.2979      0.21509642     316.75         0.0008603857 
   1268000   433.48443     -37568.461     -48152.337     -2132.8362      0.20600567     317            0.00082402267
   1269000   434.52146     -37414.85      -48024.046     -2004.3163      0.19823394     317.25         0.00079293576
   1270000   426.22544     -37868.671     -48275.313     -2197.2472      0.21695705     317.5          0.00086782821
Loop time of 44.3872 on 56 procs for 10000 steps with 12288 atoms

Performance: 19.465 ns/day, 1.233 hours/ns, 225.290 timesteps/s, 2.768 Matom-step/s
99.8% CPU use with 56 MPI tasks x no OpenMP threads

MPI task timing breakdown:
Section |  min time  |  avg time  |  max time  |%varavg| %total
---------------------------------------------------------------
Pair    | 18.631     | 19.491     | 20.797     |  10.6 | 43.91
Bond    | 0.0012729  | 0.0021969  | 0.0036094  |   0.9 |  0.00
Kspace  | 10.473     | 11.789     | 12.593     |  13.5 | 26.56
Neigh   | 4.5077     | 4.5109     | 4.5132     |   0.1 | 10.16
Comm    | 1.5507     | 1.6292     | 1.8146     |   4.4 |  3.67
Output  | 0.024087   | 0.041344   | 0.057941   |   4.9 |  0.09
Modify  | 5.1215     | 5.6559     | 6.672      |  14.8 | 12.74
Other   |            | 1.268      |            |       |  2.86

Nlocal:        219.429 ave         240 max         196 min
Histogram: 1 2 3 8 10 10 9 10 2 1
Nghost:         7286.2 ave        7354 max        7215 min
Histogram: 2 5 3 6 6 12 11 9 1 1
Neighs:        96093.2 ave      106211 max       83294 min
Histogram: 1 0 3 8 9 11 10 10 3 1

Total # of neighbors = 5381221
Ave neighs/atom = 437.92489
Ave special neighs/atom = 2
Neighbor list builds = 382
Dangerous builds = 0
kspace_style pppm/tip4p 1.0e-5
next nloop
jump SELF loop_start
run 10000 # 10ps
PPPM initialization ...
  extracting TIP4P info from pair style
  using 12-bit tables for long-range coulomb
  G vector (1/distance) = 0.32815664
  grid = 50 75 50
  stencil order = 5
  estimated absolute RMS force accuracy = 0.0035802102
  estimated relative force accuracy = 1.0781697e-05
  using double precision KISS FFT
  3d grid and FFT values/proc = 15776 4000
Generated 0 of 1 mixed pair_coeff terms from geometric mixing rule
Per MPI rank memory allocation (min/avg/max) = 11.21 | 11.35 | 11.45 Mbytes
   Step          Temp          TotEng         PotEng          Pxy           v_sxy         v_strain     v_viscosity  
   1270000   425.7193      -37880.882     -48275.166     -1733.5045      0.16941814     317.5          0.00067767256
   1271000   432.53571     -37623.088     -48183.8       -2314.8336      0.23376016     317.75         0.00093504065
   1272000   435.22916     -37632.483     -48258.958     -2359.4245      0.22689035     318            0.00090756141
   1273000   431.40994     -37528.205     -48061.43      -2163.8926      0.22003419     318.25         0.00088013675
   1274000   430.47953     -37648.187     -48158.695     -2151.9251      0.20589594     318.5          0.00082358375
   1275000   434.95259     -37576.19      -48195.912     -2253.2702      0.22403014     318.75         0.00089612055
   1276000   432.70807     -37692.738     -48257.658     -2235.1105      0.21525787     319            0.00086103146
   1277000   432.90693     -37462.406     -48032.181     -2020.8628      0.20029631     319.25         0.00080118523
   1278000   432.63194     -37724.025     -48287.086     -2022.5683      0.20007503     319.5          0.00080030012
   1279000   432.50673     -37772.965     -48332.969     -2008.4624      0.20001625     319.75         0.00080006501
   1280000   426.15155     -37815.421     -48220.258     -1987.401       0.19498245     320            0.00077992978
Loop time of 51.7988 on 56 procs for 10000 steps with 12288 atoms

Performance: 16.680 ns/day, 1.439 hours/ns, 193.055 timesteps/s, 2.372 Matom-step/s
99.8% CPU use with 56 MPI tasks x no OpenMP threads

MPI task timing breakdown:
Section |  min time  |  avg time  |  max time  |%varavg| %total
---------------------------------------------------------------
Pair    | 18.908     | 19.743     | 21.155     |  10.4 | 38.11
Bond    | 0.0016115  | 0.0025571  | 0.0040205  |   1.1 |  0.00
Kspace  | 14.713     | 16.059     | 16.845     |  10.8 | 31.00
Neigh   | 4.4898     | 4.4931     | 4.4959     |   0.1 |  8.67
Comm    | 1.6593     | 1.7988     | 1.9863     |   6.0 |  3.47
Output  | 0.023695   | 0.040825   | 0.057427   |   4.9 |  0.08
Modify  | 7.3226     | 8.0373     | 9.4066     |  17.8 | 15.52
Other   |            | 1.624      |            |       |  3.14

Nlocal:        219.429 ave         235 max         195 min
Histogram: 1 1 1 6 7 10 10 6 8 6
Nghost:        6848.82 ave        6903 max        6812 min
Histogram: 5 7 7 7 13 8 3 4 1 1
Neighs:        96085.1 ave      103344 max       84527 min
Histogram: 1 1 1 8 7 10 7 8 7 6

Total # of neighbors = 5380766
Ave neighs/atom = 437.88786
Ave special neighs/atom = 2
Neighbor list builds = 382
Dangerous builds = 0
kspace_style pppm/tip4p 1.0e-5
next nloop
jump SELF loop_start
run 10000 # 10ps
PPPM initialization ...
  extracting TIP4P info from pair style
  using 12-bit tables for long-range coulomb
  G vector (1/distance) = 0.32815664
  grid = 50 50 50
  stencil order = 5
  estimated absolute RMS force accuracy = 0.0035802102
  estimated relative force accuracy = 1.0781697e-05
  using double precision KISS FFT
  3d grid and FFT values/proc = 11424 2800
Generated 0 of 1 mixed pair_coeff terms from geometric mixing rule
Per MPI rank memory allocation (min/avg/max) = 10.92 | 11.04 | 11.13 Mbytes
   Step          Temp          TotEng         PotEng          Pxy           v_sxy         v_strain     v_viscosity  
   1280000   426.186       -37814.31      -48219.988     -1415.5393      0.13657846     320            0.00054631385
   1281000   425.10393     -37845.8       -48225.059     -1986.0559      0.19682001     320.25         0.00078728004
   1282000   431.79973     -37665.854     -48208.596     -2121.5462      0.20842025     320.5          0.000833681  
   1283000   427.79644     -37765.652     -48210.651     -1866.9517      0.18652576     320.75         0.00074610303
   1284000   430.08015     -37752.124     -48252.881     -1974.2815      0.19127874     321            0.00076511497
   1285000   431.49211     -37760.338     -48295.57      -2333.3157      0.22904275     321.25         0.00091617099
   1286000   431.50638     -37836.562     -48372.142     -1959.0485      0.19733255     321.5          0.0007893302 
   1287000   433.0087      -37643.154     -48215.415     -2106.7021      0.20710667     321.75         0.00082842669
   1288000   427.68147     -37612.233     -48054.424     -1900.8045      0.19028086     322            0.00076112343
   1289000   432.75656     -37642.869     -48208.974     -2260.2456      0.22575709     322.25         0.00090302835
   1290000   434.78998     -37565.894     -48181.645     -2257.3104      0.22082032     322.5          0.00088328129
Loop time of 44.3661 on 56 procs for 10000 steps with 12288 atoms

Performance: 19.474 ns/day, 1.232 hours/ns, 225.397 timesteps/s, 2.770 Matom-step/s
99.8% CPU use with 56 MPI tasks x no OpenMP threads

MPI task timing breakdown:
Section |  min time  |  avg time  |  max time  |%varavg| %total
---------------------------------------------------------------
Pair    | 18.857     | 19.487     | 20.562     |   9.7 | 43.92
Bond    | 0.0012199  | 0.0021722  | 0.003504   |   0.9 |  0.00
Kspace  | 10.679     | 11.754     | 12.406     |  12.2 | 26.49
Neigh   | 4.5159     | 4.5188     | 4.5209     |   0.1 | 10.19
Comm    | 1.541      | 1.6367     | 1.801      |   4.8 |  3.69
Output  | 0.023279   | 0.040682   | 0.05741    |   5.0 |  0.09
Modify  | 5.1037     | 5.6587     | 6.668      |  14.8 | 12.75
Other   |            | 1.268      |            |       |  2.86

Nlocal:        219.429 ave         247 max         199 min
Histogram: 4 5 5 12 9 9 8 1 1 2
Nghost:        7260.05 ave        7359 max        7162 min
Histogram: 1 5 6 8 8 9 9 3 4 3
Neighs:        96086.3 ave      110143 max       85599 min
Histogram: 3 4 6 14 10 9 5 2 1 2

Total # of neighbors = 5380832
Ave neighs/atom = 437.89323
Ave special neighs/atom = 2
Neighbor list builds = 382
Dangerous builds = 0
kspace_style pppm/tip4p 1.0e-5
next nloop
jump SELF loop_start
run 10000 # 10ps
PPPM initialization ...
  extracting TIP4P info from pair style
  using 12-bit tables for long-range coulomb
  G vector (1/distance) = 0.32815664
  grid = 50 75 50
  stencil order = 5
  estimated absolute RMS force accuracy = 0.0035802102
  estimated relative force accuracy = 1.0781697e-05
  using double precision KISS FFT
  3d grid and FFT values/proc = 15776 4000
Generated 0 of 1 mixed pair_coeff terms from geometric mixing rule
Per MPI rank memory allocation (min/avg/max) = 11.21 | 11.35 | 11.45 Mbytes
   Step          Temp          TotEng         PotEng          Pxy           v_sxy         v_strain     v_viscosity  
   1290000   434.52482     -37573.079     -48182.357     -1747.7926      0.16857104     322.5          0.00067428418
   1291000   433.69789     -37650.296     -48239.384     -2146.9593      0.2068116      322.75         0.00082724639
   1292000   430.37237     -37881.923     -48389.815     -1999.1077      0.19709921     323            0.00078839682
   1293000   429.56256     -37708.221     -48196.341     -2199.3044      0.22159068     323.25         0.0008863627 
   1294000   437.21247     -37462.89      -48137.789     -2059.9878      0.19769191     323.5          0.00079076765
   1295000   431.57442     -37622.361     -48159.602     -2095.0505      0.20623993     323.75         0.00082495971
   1296000   433.37681     -37403.798     -47985.046     -2257.1574      0.21551464     324            0.00086205857
   1297000   430.3335      -37530.349     -48037.292     -1861.1982      0.18463447     324.25         0.00073853788
   1298000   431.45828     -37636.018     -48170.424     -1720.8396      0.17503292     324.5          0.00070013169
   1299000   438.49791     -37444.139     -48150.422     -1974.0604      0.19275827     324.75         0.00077103307
   1300000   433.03294     -37666.919     -48239.771     -2462.8098      0.23920495     325            0.00095681979
Loop time of 51.9313 on 56 procs for 10000 steps with 12288 atoms

Performance: 16.637 ns/day, 1.443 hours/ns, 192.562 timesteps/s, 2.366 Matom-step/s
99.7% CPU use with 56 MPI tasks x no OpenMP threads

MPI task timing breakdown:
Section |  min time  |  avg time  |  max time  |%varavg| %total
---------------------------------------------------------------
Pair    | 18.441     | 19.747     | 20.943     |  10.5 | 38.03
Bond    | 0.0016814  | 0.0025227  | 0.0040159  |   1.0 |  0.00
Kspace  | 15.07      | 16.075     | 17.302     |  11.0 | 30.95
Neigh   | 4.5481     | 4.5514     | 4.554      |   0.1 |  8.76
Comm    | 1.6672     | 1.8252     | 2.0359     |   6.8 |  3.51
Output  | 0.023311   | 0.040422   | 0.05696    |   5.0 |  0.08
Modify  | 7.3146     | 8.0273     | 9.426      |  18.1 | 15.46
Other   |            | 1.662      |            |       |  3.20

Nlocal:        219.429 ave         240 max         199 min
Histogram: 4 5 5 7 6 6 7 11 2 3
Nghost:        6829.12 ave        6886 max        6745 min
Histogram: 1 6 2 1 6 7 14 9 4 6
Neighs:          96031 ave      105843 max       85666 min
Histogram: 1 6 5 7 7 9 7 9 2 3

Total # of neighbors = 5377735
Ave neighs/atom = 437.64119
Ave special neighs/atom = 2
Neighbor list builds = 382
Dangerous builds = 0
kspace_style pppm/tip4p 1.0e-5
next nloop
jump SELF loop_start
run 10000 # 10ps
PPPM initialization ...
  extracting TIP4P info from pair style
  using 12-bit tables for long-range coulomb
  G vector (1/distance) = 0.32815664
  grid = 50 50 50
  stencil order = 5
  estimated absolute RMS force accuracy = 0.0035802102
  estimated relative force accuracy = 1.0781697e-05
  using double precision KISS FFT
  3d grid and FFT values/proc = 11424 2800
Generated 0 of 1 mixed pair_coeff terms from geometric mixing rule
Per MPI rank memory allocation (min/avg/max) = 10.92 | 11.04 | 11.13 Mbytes
   Step          Temp          TotEng         PotEng          Pxy           v_sxy         v_strain     v_viscosity  
   1300000   432.47495     -37680.886     -48240.115     -2079.875       0.19940747     325            0.00079762987
   1301000   433.05465     -37724.93      -48298.312     -1878.2964      0.18515664     325.25         0.00074062658
   1302000   434.81201     -37642.567     -48258.856     -2178.6662      0.21698828     325.5          0.00086795311
   1303000   432.3852      -37561.943     -48118.98      -2245.4077      0.21672617     325.75         0.00086690469
   1304000   426.74074     -37845.174     -48264.397     -2377.609       0.2305525      326            0.00092221002
   1305000   428.5589      -37695.632     -48159.246     -2112.5642      0.21241976     326.25         0.00084967905
   1306000   432.42397     -37597.959     -48155.943     -2259.3524      0.22887486     326.5          0.00091549943
   1307000   432.21907     -37785.533     -48338.514     -2344.6798      0.22939174     326.75         0.00091756697
   1308000   435.08975     -37636.022     -48259.093     -2250.3122      0.22164164     327            0.00088656657
   1309000   435.76831     -37480.904     -48120.543     -2243.3138      0.21850851     327.25         0.00087403403
   1310000   434.26642     -37645.867     -48248.836     -1879.8487      0.18395855     327.5          0.00073583421
Loop time of 44.6165 on 56 procs for 10000 steps with 12288 atoms

Performance: 19.365 ns/day, 1.239 hours/ns, 224.132 timesteps/s, 2.754 Matom-step/s
99.8% CPU use with 56 MPI tasks x no OpenMP threads

MPI task timing breakdown:
Section |  min time  |  avg time  |  max time  |%varavg| %total
---------------------------------------------------------------
Pair    | 18.541     | 19.441     | 20.637     |  11.1 | 43.57
Bond    | 0.0012502  | 0.0021627  | 0.0036072  |   0.9 |  0.00
Kspace  | 10.829     | 12.029     | 12.856     |  13.9 | 26.96
Neigh   | 4.5387     | 4.5414     | 4.5435     |   0.1 | 10.18
Comm    | 1.5358     | 1.6485     | 1.8128     |   4.8 |  3.69
Output  | 0.024263   | 0.041461   | 0.058053   |   4.9 |  0.09
Modify  | 5.168      | 5.6482     | 6.6436     |  14.8 | 12.66
Other   |            | 1.264      |            |       |  2.83

Nlocal:        219.429 ave         238 max         202 min
Histogram: 3 6 5 8 7 10 6 2 5 4
Nghost:        7284.59 ave        7352 max        7221 min
Histogram: 5 4 7 6 5 10 7 4 5 3
Neighs:        96041.9 ave      104897 max       86456 min
Histogram: 1 6 2 10 7 11 6 4 5 4

Total # of neighbors = 5378345
Ave neighs/atom = 437.69084
Ave special neighs/atom = 2
Neighbor list builds = 382
Dangerous builds = 0
kspace_style pppm/tip4p 1.0e-5
next nloop
jump SELF loop_start
run 10000 # 10ps
PPPM initialization ...
  extracting TIP4P info from pair style
  using 12-bit tables for long-range coulomb
  G vector (1/distance) = 0.32815664
  grid = 50 75 50
  stencil order = 5
  estimated absolute RMS force accuracy = 0.0035802102
  estimated relative force accuracy = 1.0781697e-05
  using double precision KISS FFT
  3d grid and FFT values/proc = 15776 4000
Generated 0 of 1 mixed pair_coeff terms from geometric mixing rule
Per MPI rank memory allocation (min/avg/max) = 11.21 | 11.35 | 11.45 Mbytes
   Step          Temp          TotEng         PotEng          Pxy           v_sxy         v_strain     v_viscosity  
   1310000   434.17719     -37647.996     -48248.787     -1475.5047      0.1428288      327.5          0.00057131521
   1311000   434.08005     -37692.411     -48290.829     -2241.6811      0.21974162     327.75         0.0008789665 
   1312000   431.68458     -37732.094     -48272.025     -2195.7639      0.21465978     328            0.00085863912
   1313000   439.79366     -37346.268     -48084.188     -2314.6318      0.2265511      328.25         0.00090620439
   1314000   434.57085     -37665.944     -48276.345     -2384.939       0.23338204     328.5          0.00093352815
   1315000   432.2576      -37729.212     -48283.134     -2606.1538      0.25604933     328.75         0.0010241973 
   1316000   435.3333      -37491.593     -48120.61      -1940.2057      0.18943107     329            0.00075772428
   1317000   433.07795     -37694.978     -48268.929     -2450.8943      0.23707168     329.25         0.00094828671
   1318000   437.5889      -37391.679     -48075.768     -2252.7227      0.22298568     329.5          0.00089194274
   1319000   438.27362     -37554.725     -48255.533     -2035.4387      0.2021467      329.75         0.0008085868 
   1320000   433.94127     -37652.922     -48247.952     -2008.0359      0.19808455     330            0.00079233821
Loop time of 51.6264 on 56 procs for 10000 steps with 12288 atoms

Performance: 16.736 ns/day, 1.434 hours/ns, 193.699 timesteps/s, 2.380 Matom-step/s
99.8% CPU use with 56 MPI tasks x no OpenMP threads

MPI task timing breakdown:
Section |  min time  |  avg time  |  max time  |%varavg| %total
---------------------------------------------------------------
Pair    | 18.415     | 19.725     | 20.785     |   9.6 | 38.21
Bond    | 0.0015746  | 0.0025289  | 0.003957   |   1.0 |  0.00
Kspace  | 14.853     | 15.805     | 17.029     |  10.3 | 30.61
Neigh   | 4.5327     | 4.5354     | 4.5384     |   0.1 |  8.79
Comm    | 1.6501     | 1.8071     | 2.0133     |   6.5 |  3.50
Output  | 0.023592   | 0.040843   | 0.057478   |   5.0 |  0.08
Modify  | 7.3198     | 8.0438     | 9.4442     |  18.1 | 15.58
Other   |            | 1.667      |            |       |  3.23

Nlocal:        219.429 ave         238 max         206 min
Histogram: 8 5 6 7 11 5 5 3 3 3
Nghost:        6844.55 ave        6906 max        6771 min
Histogram: 2 1 5 5 10 7 15 4 4 3
Neighs:        96081.5 ave      105353 max       89144 min
Histogram: 6 6 8 7 9 5 8 2 3 2

Total # of neighbors = 5380565
Ave neighs/atom = 437.8715
Ave special neighs/atom = 2
Neighbor list builds = 381
Dangerous builds = 0
kspace_style pppm/tip4p 1.0e-5
next nloop
jump SELF loop_start
run 10000 # 10ps
PPPM initialization ...
  extracting TIP4P info from pair style
  using 12-bit tables for long-range coulomb
  G vector (1/distance) = 0.32815664
  grid = 50 50 50
  stencil order = 5
  estimated absolute RMS force accuracy = 0.0035802102
  estimated relative force accuracy = 1.0781697e-05
  using double precision KISS FFT
  3d grid and FFT values/proc = 11424 2800
Generated 0 of 1 mixed pair_coeff terms from geometric mixing rule
Per MPI rank memory allocation (min/avg/max) = 10.92 | 11.04 | 11.13 Mbytes
   Step          Temp          TotEng         PotEng          Pxy           v_sxy         v_strain     v_viscosity  
   1320000   434.01217     -37651.305     -48248.066     -1482.9057      0.1443271      330            0.00057730842
   1321000   430.6347      -37522.266     -48036.564     -2353.0737      0.23175016     330.25         0.00092700063
   1322000   435.6872      -37583.103     -48220.761     -2526.911       0.24622042     330.5          0.00098488166
   1323000   434.27576     -37473.794     -48076.99      -1974.0759      0.19755668     330.75         0.00079022673
   1324000   437.27292     -37458.611     -48134.985     -2252.0809      0.22171808     331            0.00088687232
   1325000   435.5226      -37575.125     -48208.764     -2236.265       0.21947387     331.25         0.00087789549
   1326000   435.1892      -37522.769     -48148.268     -2118.1742      0.20936443     331.5          0.00083745773
   1327000   432.21345     -37517.934     -48070.778     -2209.3156      0.21568445     331.75         0.0008627378 
   1328000   433.96002     -37446.361     -48041.849     -2221.1417      0.21990505     332            0.00087962021
   1329000   433.18295     -37704.589     -48281.104     -2029.1142      0.20017222     332.25         0.00080068888
   1330000   433.1828      -37639.167     -48215.678     -2062.7902      0.2050888      332.5          0.00082035522
Loop time of 44.3376 on 56 procs for 10000 steps with 12288 atoms

Performance: 19.487 ns/day, 1.232 hours/ns, 225.542 timesteps/s, 2.771 Matom-step/s
99.8% CPU use with 56 MPI tasks x no OpenMP threads

MPI task timing breakdown:
Section |  min time  |  avg time  |  max time  |%varavg| %total
---------------------------------------------------------------
Pair    | 18.589     | 19.446     | 20.353     |   9.2 | 43.86
Bond    | 0.0012291  | 0.0021643  | 0.0037762  |   0.8 |  0.00
Kspace  | 10.878     | 11.785     | 12.685     |  11.6 | 26.58
Neigh   | 4.5051     | 4.5076     | 4.5106     |   0.1 | 10.17
Comm    | 1.5216     | 1.6338     | 1.8008     |   4.4 |  3.68
Output  | 0.023369   | 0.040634   | 0.057331   |   5.0 |  0.09
Modify  | 5.1216     | 5.6488     | 6.6349     |  14.9 | 12.74
Other   |            | 1.273      |            |       |  2.87

Nlocal:        219.429 ave         242 max         201 min
Histogram: 3 5 6 8 11 10 5 5 2 1
Nghost:        7263.66 ave        7322 max        7202 min
Histogram: 2 2 6 8 9 9 7 4 7 2
Neighs:        96066.3 ave      106023 max       86352 min
Histogram: 3 2 7 7 10 10 5 8 2 2

Total # of neighbors = 5379713
Ave neighs/atom = 437.80216
Ave special neighs/atom = 2
Neighbor list builds = 380
Dangerous builds = 0
kspace_style pppm/tip4p 1.0e-5
next nloop
jump SELF loop_start
run 10000 # 10ps
PPPM initialization ...
  extracting TIP4P info from pair style
  using 12-bit tables for long-range coulomb
  G vector (1/distance) = 0.32815664
  grid = 50 75 50
  stencil order = 5
  estimated absolute RMS force accuracy = 0.0035802102
  estimated relative force accuracy = 1.0781697e-05
  using double precision KISS FFT
  3d grid and FFT values/proc = 15776 4000
Generated 0 of 1 mixed pair_coeff terms from geometric mixing rule
Per MPI rank memory allocation (min/avg/max) = 11.21 | 11.35 | 11.45 Mbytes
   Step          Temp          TotEng         PotEng          Pxy           v_sxy         v_strain     v_viscosity  
   1330000   433.14291     -37640.804     -48216.341     -1461.4432      0.14367115     332.5          0.00057468461
   1331000   436.11909     -37657.181     -48305.385     -1944.3711      0.18865686     332.75         0.00075462744
   1332000   436.43758     -37636.821     -48292.801     -2369.9308      0.22725402     333            0.00090901609
   1333000   430.50219     -37779.82      -48290.882     -2114.5418      0.19932565     333.25         0.00079730259
   1334000   431.80669     -37629.777     -48172.69      -2360.5362      0.23248478     333.5          0.00092993913
   1335000   438.113       -37496.778     -48193.664     -1979.7392      0.19761429     333.75         0.00079045714
   1336000   438.63787     -37553.221     -48262.922     -1934.3928      0.19121522     334            0.0007648609 
   1337000   440.39851     -37417.101     -48169.79      -2231.1778      0.21789525     334.25         0.000871581  
   1338000   437.69115     -37637.067     -48323.654     -2257.2041      0.21764427     334.5          0.00087057708
   1339000   430.91364     -37760.925     -48282.033     -2138.9149      0.21496524     334.75         0.00085986094
   1340000   429.36619     -37536.792     -48020.117     -2135.0796      0.20826079     335            0.00083304316
Loop time of 51.7773 on 56 procs for 10000 steps with 12288 atoms

Performance: 16.687 ns/day, 1.438 hours/ns, 193.135 timesteps/s, 2.373 Matom-step/s
99.8% CPU use with 56 MPI tasks x no OpenMP threads

MPI task timing breakdown:
Section |  min time  |  avg time  |  max time  |%varavg| %total
---------------------------------------------------------------
Pair    | 18.705     | 19.693     | 20.683     |   8.9 | 38.03
Bond    | 0.0016975  | 0.0025026  | 0.0040459  |   1.0 |  0.00
Kspace  | 14.853     | 16.044     | 16.902     |   9.6 | 30.99
Neigh   | 4.5224     | 4.5256     | 4.5284     |   0.1 |  8.74
Comm    | 1.663      | 1.8126     | 2.0151     |   5.9 |  3.50
Output  | 0.023265   | 0.04046    | 0.057134   |   5.0 |  0.08
Modify  | 7.2661     | 8.0282     | 9.418      |  17.9 | 15.51
Other   |            | 1.631      |            |       |  3.15

Nlocal:        219.429 ave         242 max         199 min
Histogram: 3 3 3 11 10 12 8 1 4 1
Nghost:        6866.18 ave        6927 max        6791 min
Histogram: 2 2 2 9 8 9 9 7 3 5
Neighs:        96035.6 ave      107772 max       86184 min
Histogram: 2 2 5 12 11 14 4 4 1 1

Total # of neighbors = 5377992
Ave neighs/atom = 437.66211
Ave special neighs/atom = 2
Neighbor list builds = 383
Dangerous builds = 0
kspace_style pppm/tip4p 1.0e-5
next nloop
jump SELF loop_start
run 10000 # 10ps
PPPM initialization ...
  extracting TIP4P info from pair style
  using 12-bit tables for long-range coulomb
  G vector (1/distance) = 0.32815664
  grid = 50 50 50
  stencil order = 5
  estimated absolute RMS force accuracy = 0.0035802102
  estimated relative force accuracy = 1.0781697e-05
  using double precision KISS FFT
  3d grid and FFT values/proc = 11424 2800
Generated 0 of 1 mixed pair_coeff terms from geometric mixing rule
Per MPI rank memory allocation (min/avg/max) = 10.92 | 11.04 | 11.13 Mbytes
   Step          Temp          TotEng         PotEng          Pxy           v_sxy         v_strain     v_viscosity  
   1340000   429.37893     -37535.005     -48018.642     -1600.7951      0.15408095     335            0.00061632379
   1341000   435.06344     -37598.665     -48221.094     -2251.7273      0.22704133     335.25         0.00090816533
   1342000   436.563       -37538.504     -48197.546     -2386.9769      0.23424816     335.5          0.00093699264
   1343000   432.67324     -37692.719     -48256.789     -2162.4563      0.2127761      335.75         0.00085110438
   1344000   430.21548     -37667.374     -48171.435     -2233.9756      0.21441255     336            0.0008576502 
   1345000   424.42531     -37953.159     -48315.849     -2220.2639      0.2213816      336.25         0.00088552639
   1346000   430.63428     -37554.732     -48069.019     -2027.104       0.19277909     336.5          0.00077111635
   1347000   432.05639     -37615.98      -48164.989     -2024.721       0.19281548     336.75         0.00077126191
   1348000   429.77095     -37760.905     -48254.113     -2182.5266      0.21660749     337            0.00086642998
   1349000   427.8559      -37760.105     -48206.555     -2231.6295      0.21736807     337.25         0.00086947227
   1350000   433.57908     -37529.325     -48115.512     -2306.7647      0.22602614     337.5          0.00090410457
Loop time of 44.3189 on 56 procs for 10000 steps with 12288 atoms

Performance: 19.495 ns/day, 1.231 hours/ns, 225.637 timesteps/s, 2.773 Matom-step/s
99.8% CPU use with 56 MPI tasks x no OpenMP threads

MPI task timing breakdown:
Section |  min time  |  avg time  |  max time  |%varavg| %total
---------------------------------------------------------------
Pair    | 18.213     | 19.432     | 20.135     |   9.9 | 43.85
Bond    | 0.0012188  | 0.0021468  | 0.0030983  |   0.7 |  0.00
Kspace  | 11.13      | 11.791     | 13.031     |  12.6 | 26.61
Neigh   | 4.4993     | 4.5018     | 4.5042     |   0.1 | 10.16
Comm    | 1.5271     | 1.6375     | 1.811      |   4.8 |  3.69
Output  | 0.023397   | 0.040765   | 0.057598   |   5.0 |  0.09
Modify  | 5.1137     | 5.6447     | 6.6581     |  14.9 | 12.74
Other   |            | 1.269      |            |       |  2.86

Nlocal:        219.429 ave         250 max         201 min
Histogram: 5 5 7 12 16 4 6 0 0 1
Nghost:        7291.16 ave        7355 max        7228 min
Histogram: 1 1 10 8 9 9 6 8 2 2
Neighs:        96064.9 ave      110552 max       86970 min
Histogram: 4 8 4 12 16 6 3 2 0 1

Total # of neighbors = 5379635
Ave neighs/atom = 437.79582
Ave special neighs/atom = 2
Neighbor list builds = 382
Dangerous builds = 0
kspace_style pppm/tip4p 1.0e-5
next nloop
jump SELF loop_start
run 10000 # 10ps
PPPM initialization ...
  extracting TIP4P info from pair style
  using 12-bit tables for long-range coulomb
  G vector (1/distance) = 0.32815664
  grid = 50 75 50
  stencil order = 5
  estimated absolute RMS force accuracy = 0.0035802102
  estimated relative force accuracy = 1.0781697e-05
  using double precision KISS FFT
  3d grid and FFT values/proc = 15776 4000
Generated 0 of 1 mixed pair_coeff terms from geometric mixing rule
Per MPI rank memory allocation (min/avg/max) = 11.21 | 11.35 | 11.45 Mbytes
   Step          Temp          TotEng         PotEng          Pxy           v_sxy         v_strain     v_viscosity  
   1350000   433.59879     -37527.527     -48114.194     -1863.5695      0.18108884     337.5          0.00072435537
   1351000   432.31523     -37630.319     -48185.647     -1735.0183      0.17316687     337.75         0.00069266748
   1352000   427.91308     -37767.053     -48214.899     -2224.6072      0.22303158     338            0.00089212634
   1353000   432.47039     -37626.45      -48185.567     -2071.7723      0.21022417     338.25         0.0008408967 
   1354000   429.93082     -37799.71      -48296.821     -1918.41        0.18613504     338.5          0.00074454016
   1355000   432.1764      -37436.257     -47988.196     -2489.8682      0.24639248     338.75         0.00098556991
   1356000   431.59513     -37656.111     -48193.858     -2136.6615      0.20838532     339            0.00083354129
   1357000   434.33117     -37495.168     -48099.717     -2170.0825      0.21570204     339.25         0.00086280815
   1358000   432.3504      -37611.654     -48167.841     -2163.4479      0.21036719     339.5          0.00084146874
   1359000   438.0989      -37447.154     -48143.696     -1797.1087      0.1777926      339.75         0.00071117039
   1360000   435.64176     -37569.145     -48205.694     -2523.3644      0.24533722     340            0.00098134887
Loop time of 51.6266 on 56 procs for 10000 steps with 12288 atoms

Performance: 16.736 ns/day, 1.434 hours/ns, 193.699 timesteps/s, 2.380 Matom-step/s
99.8% CPU use with 56 MPI tasks x no OpenMP threads

MPI task timing breakdown:
Section |  min time  |  avg time  |  max time  |%varavg| %total
---------------------------------------------------------------
Pair    | 18.784     | 19.691     | 20.767     |  10.3 | 38.14
Bond    | 0.0016615  | 0.0025021  | 0.0037033  |   0.9 |  0.00
Kspace  | 14.676     | 15.9       | 16.718     |  10.8 | 30.80
Neigh   | 4.4937     | 4.497      | 4.4996     |   0.1 |  8.71
Comm    | 1.6549     | 1.8088     | 1.9836     |   6.3 |  3.50
Output  | 0.023884   | 0.041079   | 0.05772    |   4.9 |  0.08
Modify  | 7.3193     | 8.0275     | 9.4162     |  17.9 | 15.55
Other   |            | 1.659      |            |       |  3.21

Nlocal:        219.429 ave         238 max         199 min
Histogram: 3 2 5 8 7 11 6 4 8 2
Nghost:         6852.2 ave        6912 max        6802 min
Histogram: 5 5 6 10 6 5 7 7 3 2
Neighs:        96054.6 ave      105314 max       86936 min
Histogram: 4 3 6 6 12 9 3 6 1 6

Total # of neighbors = 5379060
Ave neighs/atom = 437.74902
Ave special neighs/atom = 2
Neighbor list builds = 381
Dangerous builds = 0
kspace_style pppm/tip4p 1.0e-5
next nloop
jump SELF loop_start
run 10000 # 10ps
PPPM initialization ...
  extracting TIP4P info from pair style
  using 12-bit tables for long-range coulomb
  G vector (1/distance) = 0.32815664
  grid = 50 50 50
  stencil order = 5
  estimated absolute RMS force accuracy = 0.0035802102
  estimated relative force accuracy = 1.0781697e-05
  using double precision KISS FFT
  3d grid and FFT values/proc = 11424 2800
Generated 0 of 1 mixed pair_coeff terms from geometric mixing rule
Per MPI rank memory allocation (min/avg/max) = 10.92 | 11.04 | 11.13 Mbytes
   Step          Temp          TotEng         PotEng          Pxy           v_sxy         v_strain     v_viscosity  
   1360000   435.93174     -37561.051     -48204.68      -1921.4904      0.18376023     340            0.00073504091
   1361000   436.58588     -37537.981     -48197.581     -1972.8757      0.19373866     340.25         0.00077495463
   1362000   442.58578     -37354.83      -48160.922     -2030.4622      0.20089515     340.5          0.0008035806 
   1363000   433.08597     -37796.693     -48370.84      -1927.2123      0.19238032     340.75         0.00076952126
   1364000   432.50823     -37707.301     -48267.342     -2196.7254      0.21908439     341            0.00087633756
   1365000   435.57529     -37505.024     -48139.95      -2132.6404      0.20703959     341.25         0.00082815834
   1366000   435.06021     -37743.801     -48366.151     -2150.3184      0.21187946     341.5          0.00084751783
   1367000   437.95763     -37545.039     -48238.132     -2596.6891      0.25683771     341.75         0.0010273509 
   1368000   433.73784     -37662.714     -48252.777     -1970.9252      0.19559151     342            0.00078236602
   1369000   436.82675     -37513.357     -48178.838     -2065.8707      0.20342453     342.25         0.00081369813
   1370000   433.39409     -37680.864     -48262.534     -1949.835       0.18689762     342.5          0.00074759049
Loop time of 44.293 on 56 procs for 10000 steps with 12288 atoms

Performance: 19.506 ns/day, 1.230 hours/ns, 225.769 timesteps/s, 2.774 Matom-step/s
99.8% CPU use with 56 MPI tasks x no OpenMP threads

MPI task timing breakdown:
Section |  min time  |  avg time  |  max time  |%varavg| %total
---------------------------------------------------------------
Pair    | 18.528     | 19.452     | 20.354     |  11.6 | 43.92
Bond    | 0.0012473  | 0.002175   | 0.0032997  |   0.8 |  0.00
Kspace  | 10.95      | 11.746     | 12.688     |  14.1 | 26.52
Neigh   | 4.4803     | 4.4826     | 4.4846     |   0.1 | 10.12
Comm    | 1.5303     | 1.6396     | 1.7969     |   5.2 |  3.70
Output  | 0.023475   | 0.040753   | 0.057588   |   5.0 |  0.09
Modify  | 5.1367     | 5.6659     | 6.672      |  14.9 | 12.79
Other   |            | 1.265      |            |       |  2.86

Nlocal:        219.429 ave         234 max         194 min
Histogram: 2 0 0 2 5 10 15 10 8 4
Nghost:        7255.89 ave        7314 max        7188 min
Histogram: 3 2 3 6 6 14 9 7 4 2
Neighs:        96075.5 ave      102672 max       83978 min
Histogram: 2 0 1 1 7 7 18 9 5 6

Total # of neighbors = 5380228
Ave neighs/atom = 437.84408
Ave special neighs/atom = 2
Neighbor list builds = 380
Dangerous builds = 0
kspace_style pppm/tip4p 1.0e-5
next nloop
jump SELF loop_start
run 10000 # 10ps
PPPM initialization ...
  extracting TIP4P info from pair style
  using 12-bit tables for long-range coulomb
  G vector (1/distance) = 0.32815664
  grid = 50 75 50
  stencil order = 5
  estimated absolute RMS force accuracy = 0.0035802102
  estimated relative force accuracy = 1.0781697e-05
  using double precision KISS FFT
  3d grid and FFT values/proc = 15776 4000
Generated 0 of 1 mixed pair_coeff terms from geometric mixing rule
Per MPI rank memory allocation (min/avg/max) = 11.21 | 11.35 | 11.45 Mbytes
   Step          Temp          TotEng         PotEng          Pxy           v_sxy         v_strain     v_viscosity  
   1370000   433.27937     -37683.582     -48262.451     -1491.063       0.1395503      342.5          0.0005582012 
   1371000   432.46804     -37751.405     -48310.465     -2077.0431      0.1990894      342.75         0.0007963576 
   1372000   435.49469     -37541.446     -48174.404     -2099.5702      0.20268325     343            0.00081073302
   1373000   436.88996     -37295.705     -47962.729     -2097.6671      0.21095503     343.25         0.00084382011
   1374000   426.82445     -37800.788     -48222.055     -2161.8897      0.20676006     343.5          0.00082704022
   1375000   429.42644     -37640.979     -48125.775     -2137.1449      0.21373829     343.75         0.00085495317
   1376000   432.99733     -37626.765     -48198.748     -2049.6319      0.20228738     344            0.00080914953
   1377000   436.87825     -37464.474     -48131.212     -2123.6009      0.20939301     344.25         0.00083757203
   1378000   434.54239     -37561.116     -48170.823     -1846.6916      0.17907703     344.5          0.0007163081 
   1379000   430.06082     -37700.743     -48201.029     -2383.8835      0.23244911     344.75         0.00092979645
   1380000   430.22364     -37787.781     -48292.041     -2283.1454      0.22314061     345            0.00089256242
Loop time of 51.5938 on 56 procs for 10000 steps with 12288 atoms

Performance: 16.746 ns/day, 1.433 hours/ns, 193.822 timesteps/s, 2.382 Matom-step/s
99.8% CPU use with 56 MPI tasks x no OpenMP threads

MPI task timing breakdown:
Section |  min time  |  avg time  |  max time  |%varavg| %total
---------------------------------------------------------------
Pair    | 18.799     | 19.677     | 20.737     |   9.2 | 38.14
Bond    | 0.0017778  | 0.0024977  | 0.0038259  |   0.9 |  0.00
Kspace  | 14.626     | 15.845     | 16.711     |  10.1 | 30.71
Neigh   | 4.5201     | 4.5231     | 4.5254     |   0.1 |  8.77
Comm    | 1.6633     | 1.8087     | 1.983      |   6.4 |  3.51
Output  | 0.023211   | 0.040434   | 0.057087   |   5.0 |  0.08
Modify  | 7.3018     | 8.0419     | 9.4402     |  18.1 | 15.59
Other   |            | 1.654      |            |       |  3.21

Nlocal:        219.429 ave         244 max         205 min
Histogram: 8 6 9 9 8 5 6 4 0 1
Nghost:        6842.54 ave        6904 max        6745 min
Histogram: 1 1 3 5 4 11 15 3 9 4
Neighs:        96047.6 ave      108204 max       88591 min
Histogram: 6 7 10 11 5 5 8 3 0 1

Total # of neighbors = 5378664
Ave neighs/atom = 437.7168
Ave special neighs/atom = 2
Neighbor list builds = 383
Dangerous builds = 0
kspace_style pppm/tip4p 1.0e-5
next nloop
jump SELF loop_start
run 10000 # 10ps
PPPM initialization ...
  extracting TIP4P info from pair style
  using 12-bit tables for long-range coulomb
  G vector (1/distance) = 0.32815664
  grid = 50 50 50
  stencil order = 5
  estimated absolute RMS force accuracy = 0.0035802102
  estimated relative force accuracy = 1.0781697e-05
  using double precision KISS FFT
  3d grid and FFT values/proc = 11424 2800
Generated 0 of 1 mixed pair_coeff terms from geometric mixing rule
Per MPI rank memory allocation (min/avg/max) = 10.92 | 11.04 | 11.13 Mbytes
   Step          Temp          TotEng         PotEng          Pxy           v_sxy         v_strain     v_viscosity  
   1380000   430.28783     -37786.075     -48291.903     -1788.4432      0.17263691     345            0.00069054762
   1381000   437.29374     -37502.13      -48179.013     -2424.7816      0.24111977     345.25         0.00096447909
   1382000   426.90429     -37608.961     -48032.177     -2556.2755      0.25215371     345.5          0.0010086148 
   1383000   426.91286     -37801.31      -48224.735     -2272.784       0.22298101     345.75         0.00089192405
   1384000   435.27638     -37541.875     -48169.502     -1937.4996      0.1906919      346            0.00076276761
   1385000   435.9533      -37623.612     -48267.767     -2208.7555      0.21751597     346.25         0.00087006389
   1386000   429.08274     -37634.848     -48111.253     -2265.1726      0.21919249     346.5          0.00087676995
   1387000   431.96781     -37699.643     -48246.489     -2319.0974      0.22592571     346.75         0.00090370285
   1388000   429.45907     -37759.809     -48245.402     -2305.1609      0.23106251     347            0.00092425004
   1389000   432.9243      -37575.16      -48145.36      -2157.61        0.2143497      347.25         0.0008573988 
   1390000   428.03413     -37858.756     -48309.558     -2160.7107      0.21048702     347.5          0.00084194808
Loop time of 44.3266 on 56 procs for 10000 steps with 12288 atoms

Performance: 19.492 ns/day, 1.231 hours/ns, 225.598 timesteps/s, 2.772 Matom-step/s
99.8% CPU use with 56 MPI tasks x no OpenMP threads

MPI task timing breakdown:
Section |  min time  |  avg time  |  max time  |%varavg| %total
---------------------------------------------------------------
Pair    | 18.473     | 19.439     | 20.442     |   9.8 | 43.85
Bond    | 0.0012584  | 0.0021448  | 0.0032705  |   0.8 |  0.00
Kspace  | 10.727     | 11.762     | 12.66      |  11.9 | 26.54
Neigh   | 4.5276     | 4.5303     | 4.533      |   0.0 | 10.22
Comm    | 1.5449     | 1.6411     | 1.8133     |   5.0 |  3.70
Output  | 0.023469   | 0.040765   | 0.05757    |   5.0 |  0.09
Modify  | 5.1351     | 5.6478     | 6.6525     |  14.8 | 12.74
Other   |            | 1.263      |            |       |  2.85

Nlocal:        219.429 ave         241 max         196 min
Histogram: 3 0 7 5 9 11 9 7 3 2
Nghost:        7282.55 ave        7342 max        7222 min
Histogram: 3 8 4 3 9 8 7 6 3 5
Neighs:          96049 ave      104761 max       85831 min
Histogram: 3 0 7 9 6 7 9 6 4 5

Total # of neighbors = 5378744
Ave neighs/atom = 437.72331
Ave special neighs/atom = 2
Neighbor list builds = 383
Dangerous builds = 0
kspace_style pppm/tip4p 1.0e-5
next nloop
jump SELF loop_start
run 10000 # 10ps
PPPM initialization ...
  extracting TIP4P info from pair style
  using 12-bit tables for long-range coulomb
  G vector (1/distance) = 0.32815664
  grid = 50 75 50
  stencil order = 5
  estimated absolute RMS force accuracy = 0.0035802102
  estimated relative force accuracy = 1.0781697e-05
  using double precision KISS FFT
  3d grid and FFT values/proc = 15776 4000
Generated 0 of 1 mixed pair_coeff terms from geometric mixing rule
Per MPI rank memory allocation (min/avg/max) = 11.21 | 11.35 | 11.45 Mbytes
   Step          Temp          TotEng         PotEng          Pxy           v_sxy         v_strain     v_viscosity  
   1390000   428.09108     -37858.069     -48310.262     -1656.873       0.15835635     347.5          0.00063342539
   1391000   437.54714     -37467.523     -48150.593     -2147.6215      0.21685023     347.75         0.00086740091
   1392000   432.44512     -37756.317     -48314.817     -2108.6394      0.20589644     348            0.00082358574
   1393000   434.9152      -37694.218     -48313.027     -2419.2139      0.24180029     348.25         0.00096720116
   1394000   439.04627     -37431.186     -48150.858     -1866.2467      0.17847376     348.5          0.00071389503
   1395000   439.40879     -37507.364     -48235.888     -1808.2406      0.1746487      348.75         0.00069859478
   1396000   432.055       -37576.564     -48125.539     -2339.5239      0.22717141     349            0.00090868565
   1397000   437.34984     -37408.519     -48086.772     -2203.8447      0.21285642     349.25         0.00085142567
   1398000   434.15857     -37602.568     -48202.903     -1958.7007      0.19131433     349.5          0.00076525732
   1399000   436.5162      -37661.109     -48319.008     -2209.4956      0.21761766     349.75         0.00087047066
   1400000   432.91648     -37496.95      -48066.959     -2069.6297      0.20384962     350            0.00081539848
Loop time of 51.4548 on 56 procs for 10000 steps with 12288 atoms

Performance: 16.791 ns/day, 1.429 hours/ns, 194.345 timesteps/s, 2.388 Matom-step/s
99.8% CPU use with 56 MPI tasks x no OpenMP threads

MPI task timing breakdown:
Section |  min time  |  avg time  |  max time  |%varavg| %total
---------------------------------------------------------------
Pair    | 19.002     | 19.686     | 20.527     |   7.6 | 38.26
Bond    | 0.0015262  | 0.002455   | 0.003866   |   0.9 |  0.00
Kspace  | 14.877     | 15.681     | 16.369     |   8.7 | 30.47
Neigh   | 4.5338     | 4.5366     | 4.5391     |   0.0 |  8.82
Comm    | 1.6641     | 1.8099     | 2.0027     |   6.2 |  3.52
Output  | 0.023751   | 0.041099   | 0.057845   |   5.0 |  0.08
Modify  | 7.2755     | 8.0434     | 9.4402     |  18.1 | 15.63
Other   |            | 1.655      |            |       |  3.22

Nlocal:        219.429 ave         247 max         202 min
Histogram: 3 4 10 12 17 5 3 0 1 1
Nghost:        6831.95 ave        6890 max        6765 min
Histogram: 1 2 4 11 7 8 8 6 8 1
Neighs:        96043.7 ave      108113 max       86668 min
Histogram: 1 3 7 14 13 9 4 3 0 2

Total # of neighbors = 5378447
Ave neighs/atom = 437.69914
Ave special neighs/atom = 2
Neighbor list builds = 385
Dangerous builds = 0
kspace_style pppm/tip4p 1.0e-5
next nloop
jump SELF loop_start
run 10000 # 10ps
PPPM initialization ...
  extracting TIP4P info from pair style
  using 12-bit tables for long-range coulomb
  G vector (1/distance) = 0.32815664
  grid = 50 50 50
  stencil order = 5
  estimated absolute RMS force accuracy = 0.0035802102
  estimated relative force accuracy = 1.0781697e-05
  using double precision KISS FFT
  3d grid and FFT values/proc = 11424 2800
Generated 0 of 1 mixed pair_coeff terms from geometric mixing rule
Per MPI rank memory allocation (min/avg/max) = 10.92 | 11.04 | 11.13 Mbytes
   Step          Temp          TotEng         PotEng          Pxy           v_sxy         v_strain     v_viscosity  
   1400000   432.9132      -37496.976     -48066.904     -1598.9909      0.15613297     350            0.00062453189
   1401000   437.73787     -37614.743     -48302.47      -2237.881       0.21763232     350.25         0.00087052929
   1402000   433.37135     -37552.826     -48133.941     -2055.7417      0.20569012     350.5          0.00082276048
   1403000   436.40697     -37463.166     -48118.398     -2282.967       0.22149351     350.75         0.00088597405
   1404000   432.01837     -37577.261     -48125.342     -2554.2556      0.25237079     351            0.0010094832 
   1405000   429.50394     -37711.373     -48198.061     -1924.7115      0.18914084     351.25         0.00075656337
   1406000   429.36164     -37628.91      -48112.124     -2186.0229      0.22064057     351.5          0.00088256227
   1407000   435.89923     -37418.719     -48061.554     -2235.6996      0.21512958     351.75         0.00086051831
   1408000   428.14763     -37668.77      -48122.344     -2334.0497      0.22698463     352            0.00090793853
   1409000   431.17611     -37499.239     -48026.755     -2305.2903      0.22670975     352.25         0.00090683902
   1410000   432.8559      -37667.817     -48236.346     -1999.8932      0.19454126     352.5          0.00077816504
Loop time of 44.3365 on 56 procs for 10000 steps with 12288 atoms

Performance: 19.487 ns/day, 1.232 hours/ns, 225.548 timesteps/s, 2.772 Matom-step/s
99.8% CPU use with 56 MPI tasks x no OpenMP threads

MPI task timing breakdown:
Section |  min time  |  avg time  |  max time  |%varavg| %total
---------------------------------------------------------------
Pair    | 18.49      | 19.408     | 20.576     |  11.5 | 43.77
Bond    | 0.0012367  | 0.0021644  | 0.003172   |   0.7 |  0.00
Kspace  | 10.625     | 11.815     | 12.789     |  14.5 | 26.65
Neigh   | 4.5298     | 4.5326     | 4.5346     |   0.0 | 10.22
Comm    | 1.5425     | 1.6341     | 1.7897     |   5.0 |  3.69
Output  | 0.023278   | 0.040539   | 0.057295   |   5.0 |  0.09
Modify  | 5.0999     | 5.6492     | 6.6485     |  14.8 | 12.74
Other   |            | 1.255      |            |       |  2.83

Nlocal:        219.429 ave         243 max         196 min
Histogram: 1 3 4 8 11 13 9 5 1 1
Nghost:        7274.05 ave        7330 max        7184 min
Histogram: 1 0 1 5 9 9 12 9 7 3
Neighs:        96052.8 ave      108320 max       84424 min
Histogram: 2 4 4 7 12 10 11 4 1 1

Total # of neighbors = 5378958
Ave neighs/atom = 437.74072
Ave special neighs/atom = 2
Neighbor list builds = 382
Dangerous builds = 0
kspace_style pppm/tip4p 1.0e-5
next nloop
jump SELF loop_start
run 10000 # 10ps
PPPM initialization ...
  extracting TIP4P info from pair style
  using 12-bit tables for long-range coulomb
  G vector (1/distance) = 0.32815664
  grid = 50 75 50
  stencil order = 5
  estimated absolute RMS force accuracy = 0.0035802102
  estimated relative force accuracy = 1.0781697e-05
  using double precision KISS FFT
  3d grid and FFT values/proc = 15776 4000
Generated 0 of 1 mixed pair_coeff terms from geometric mixing rule
Per MPI rank memory allocation (min/avg/max) = 11.21 | 11.35 | 11.45 Mbytes
   Step          Temp          TotEng         PotEng          Pxy           v_sxy         v_strain     v_viscosity  
   1410000   433.31538     -37657.651     -48237.399     -1563.0137      0.14963773     352.5          0.00059855091
   1411000   434.32525     -37544.121     -48148.526     -2391.3996      0.23494461     352.75         0.00093977843
   1412000   435.18131     -37584.522     -48209.828     -2385.408       0.23473139     353            0.00093892556
   1413000   431.31195     -37763.881     -48294.714     -2162.714       0.21035421     353.25         0.00084141684
   1414000   427.72998     -37654.649     -48098.025     -2036.4548      0.1983545      353.5          0.00079341801
   1415000   435.74051     -37593.275     -48232.235     -2168.3298      0.20704772     353.75         0.00082819087
   1416000   428.97757     -37675.265     -48149.102     -2067.2845      0.20701381     354            0.00082805524
   1417000   432.43539     -37729.777     -48288.039     -2201.2429      0.21958389     354.25         0.00087833558
   1418000   432.5714      -37667.579     -48229.163     -2036.125       0.20504078     354.5          0.00082016313
   1419000   437.26495     -37643.677     -48319.857     -2193.2154      0.21867712     354.75         0.00087470849
   1420000   430.25792     -37610.4       -48115.498     -2098.6877      0.20479312     355            0.00081917247
Loop time of 51.7123 on 56 procs for 10000 steps with 12288 atoms

Performance: 16.708 ns/day, 1.436 hours/ns, 193.378 timesteps/s, 2.376 Matom-step/s
99.8% CPU use with 56 MPI tasks x no OpenMP threads

MPI task timing breakdown:
Section |  min time  |  avg time  |  max time  |%varavg| %total
---------------------------------------------------------------
Pair    | 18.57      | 19.678     | 20.619     |   9.7 | 38.05
Bond    | 0.0015746  | 0.0024654  | 0.0039166  |   0.9 |  0.00
Kspace  | 14.925     | 15.9       | 16.872     |  10.8 | 30.75
Neigh   | 4.5445     | 4.5474     | 4.5496     |   0.1 |  8.79
Comm    | 1.6423     | 1.8116     | 2.0042     |   6.5 |  3.50
Output  | 0.023322   | 0.040446   | 0.05708    |   5.0 |  0.08
Modify  | 7.3536     | 8.039      | 9.4548     |  18.2 | 15.55
Other   |            | 1.694      |            |       |  3.28

Nlocal:        219.429 ave         236 max         197 min
Histogram: 2 0 3 6 9 9 11 9 4 3
Nghost:        6849.23 ave        6926 max        6791 min
Histogram: 2 3 14 8 8 9 6 4 0 2
Neighs:        96078.2 ave      103381 max       84963 min
Histogram: 2 1 3 7 6 8 8 9 5 7

Total # of neighbors = 5380382
Ave neighs/atom = 437.85661
Ave special neighs/atom = 2
Neighbor list builds = 384
Dangerous builds = 0
kspace_style pppm/tip4p 1.0e-5
next nloop
jump SELF loop_start
run 10000 # 10ps
PPPM initialization ...
  extracting TIP4P info from pair style
  using 12-bit tables for long-range coulomb
  G vector (1/distance) = 0.32815664
  grid = 50 50 50
  stencil order = 5
  estimated absolute RMS force accuracy = 0.0035802102
  estimated relative force accuracy = 1.0781697e-05
  using double precision KISS FFT
  3d grid and FFT values/proc = 11424 2800
Generated 0 of 1 mixed pair_coeff terms from geometric mixing rule
Per MPI rank memory allocation (min/avg/max) = 10.92 | 11.04 | 11.13 Mbytes
   Step          Temp          TotEng         PotEng          Pxy           v_sxy         v_strain     v_viscosity  
   1420000   430.12802     -37615.021     -48116.947     -1625.359       0.15657573     355            0.00062630292
   1421000   429.33994     -37907.044     -48389.729     -2254.3224      0.21670728     355.25         0.00086682912
   1422000   428.64076     -37634.843     -48100.457     -2224.9257      0.22054944     355.5          0.00088219776
   1423000   433.91507     -37538.086     -48132.476     -2126.5179      0.21015495     355.75         0.00084061981
   1424000   435.00907     -37617.782     -48238.883     -2266.773       0.22185525     356            0.00088742099
   1425000   433.22195     -37671.811     -48249.278     -2023.5946      0.19850651     356.25         0.00079402605
   1426000   431.90666     -37645.445     -48190.798     -2386.7606      0.23507062     356.5          0.00094028248
   1427000   434.05522     -37473.781     -48071.593     -2413.9741      0.23795662     356.75         0.00095182649
   1428000   429.16215     -37615.954     -48094.298     -2070.2046      0.20319652     357            0.00081278608
   1429000   428.65527     -37941.514     -48407.482     -1997.8885      0.19388833     357.25         0.00077555333
   1430000   429.74488     -37785.222     -48277.794     -2086.0523      0.20790128     357.5          0.00083160513
Loop time of 44.372 on 56 procs for 10000 steps with 12288 atoms

Performance: 19.472 ns/day, 1.233 hours/ns, 225.368 timesteps/s, 2.769 Matom-step/s
99.8% CPU use with 56 MPI tasks x no OpenMP threads

MPI task timing breakdown:
Section |  min time  |  avg time  |  max time  |%varavg| %total
---------------------------------------------------------------
Pair    | 18.637     | 19.396     | 20.553     |  10.5 | 43.71
Bond    | 0.001301   | 0.0021281  | 0.0030381  |   0.7 |  0.00
Kspace  | 10.843     | 11.851     | 12.552     |  12.8 | 26.71
Neigh   | 4.4914     | 4.4941     | 4.4961     |   0.0 | 10.13
Comm    | 1.533      | 1.6497     | 1.8005     |   4.7 |  3.72
Output  | 0.023405   | 0.04077    | 0.057616   |   5.0 |  0.09
Modify  | 5.118      | 5.6563     | 6.6803     |  14.7 | 12.75
Other   |            | 1.282      |            |       |  2.89

Nlocal:        219.429 ave         237 max         198 min
Histogram: 1 2 3 6 8 13 10 6 4 3
Nghost:        7272.52 ave        7349 max        7205 min
Histogram: 3 1 11 10 7 9 7 4 1 3
Neighs:        96060.8 ave      103587 max       86332 min
Histogram: 2 0 8 3 8 8 10 7 5 5

Total # of neighbors = 5379405
Ave neighs/atom = 437.7771
Ave special neighs/atom = 2
Neighbor list builds = 380
Dangerous builds = 0
kspace_style pppm/tip4p 1.0e-5
next nloop
jump SELF loop_start
run 10000 # 10ps
PPPM initialization ...
  extracting TIP4P info from pair style
  using 12-bit tables for long-range coulomb
  G vector (1/distance) = 0.32815664
  grid = 50 75 50
  stencil order = 5
  estimated absolute RMS force accuracy = 0.0035802102
  estimated relative force accuracy = 1.0781697e-05
  using double precision KISS FFT
  3d grid and FFT values/proc = 15776 4000
Generated 0 of 1 mixed pair_coeff terms from geometric mixing rule
Per MPI rank memory allocation (min/avg/max) = 11.21 | 11.35 | 11.45 Mbytes
   Step          Temp          TotEng         PotEng          Pxy           v_sxy         v_strain     v_viscosity  
   1430000   429.5288      -37791.925     -48279.221     -1563.2192      0.15414155     357.5          0.00061656619
   1431000   432.33694     -37611.001     -48166.86      -1846.3127      0.18404491     357.75         0.00073617962
   1432000   429.2563      -37652.096     -48132.739     -2178.6428      0.21271771     358            0.00085087084
   1433000   434.90944     -37755.947     -48374.616     -1839.7984      0.18257271     358.25         0.00073029083
   1434000   435.23274     -37678.956     -48305.518     -2061.3478      0.20594719     358.5          0.00082378878
   1435000   431.66446     -37656.875     -48196.315     -2311.7181      0.22657484     358.75         0.00090629934
   1436000   429.60548     -37807.685     -48296.853     -2177.448       0.21267594     359            0.00085070377
   1437000   433.43668     -37631.639     -48214.349     -1901.1891      0.18889014     359.25         0.00075556055
   1438000   432.51706     -37555.056     -48115.312     -1845.6225      0.17915406     359.5          0.00071661624
   1439000   429.40159     -37537.428     -48021.618     -2044.1024      0.20453002     359.75         0.00081812007
   1440000   432.74065     -37579.37      -48145.086     -2116.4851      0.20759668     360            0.00083038673
Loop time of 51.6428 on 56 procs for 10000 steps with 12288 atoms

Performance: 16.730 ns/day, 1.435 hours/ns, 193.638 timesteps/s, 2.379 Matom-step/s
99.8% CPU use with 56 MPI tasks x no OpenMP threads

MPI task timing breakdown:
Section |  min time  |  avg time  |  max time  |%varavg| %total
---------------------------------------------------------------
Pair    | 18.675     | 19.67      | 20.833     |  10.3 | 38.09
Bond    | 0.0015635  | 0.0024298  | 0.0035019  |   0.8 |  0.00
Kspace  | 14.827     | 15.88      | 16.874     |  11.4 | 30.75
Neigh   | 4.5186     | 4.5214     | 4.5236     |   0.1 |  8.76
Comm    | 1.6609     | 1.8025     | 1.9905     |   6.1 |  3.49
Output  | 0.023784   | 0.041025   | 0.05778    |   5.0 |  0.08
Modify  | 7.358      | 8.054      | 9.4367     |  18.0 | 15.60
Other   |            | 1.671      |            |       |  3.24

Nlocal:        219.429 ave         241 max         204 min
Histogram: 5 6 8 3 14 11 3 3 2 1
Nghost:        6866.36 ave        6934 max        6787 min
Histogram: 1 1 8 5 8 11 7 7 6 2
Neighs:        96085.2 ave      106344 max       88331 min
Histogram: 4 3 9 6 13 11 5 2 2 1

Total # of neighbors = 5380773
Ave neighs/atom = 437.88843
Ave special neighs/atom = 2
Neighbor list builds = 381
Dangerous builds = 0
kspace_style pppm/tip4p 1.0e-5
next nloop
jump SELF loop_start
run 10000 # 10ps
PPPM initialization ...
  extracting TIP4P info from pair style
  using 12-bit tables for long-range coulomb
  G vector (1/distance) = 0.32815664
  grid = 50 50 50
  stencil order = 5
  estimated absolute RMS force accuracy = 0.0035802102
  estimated relative force accuracy = 1.0781697e-05
  using double precision KISS FFT
  3d grid and FFT values/proc = 11424 2800
Generated 0 of 1 mixed pair_coeff terms from geometric mixing rule
Per MPI rank memory allocation (min/avg/max) = 10.92 | 11.04 | 11.13 Mbytes
   Step          Temp          TotEng         PotEng          Pxy           v_sxy         v_strain     v_viscosity  
   1440000   432.85222     -37578.732     -48147.171     -1704.8119      0.16541816     360            0.00066167265
   1441000   435.31686     -37602.936     -48231.552     -1848.8443      0.18319058     360.25         0.00073276233
   1442000   434.88766     -37616.278     -48234.414     -2279.0225      0.22710371     360.5          0.00090841486
   1443000   434.42811     -37628.003     -48234.919     -1968.0386      0.19668112     360.75         0.00078672448
   1444000   438.2492      -37497.059     -48197.27      -2640.1732      0.26069856     361            0.0010427943 
   1445000   433.40661     -37719.096     -48301.072     -2327.7777      0.23453941     361.25         0.00093815764
   1446000   432.19962     -37665.321     -48217.827     -2391.8246      0.23232016     361.5          0.00092928064
   1447000   425.23748     -37756.951     -48139.471     -2123.6104      0.2084685      361.75         0.000833874  
   1448000   426.5602      -37809.748     -48224.563     -2025.8942      0.20230177     362            0.00080920708
   1449000   424.96528     -37780.831     -48156.705     -1931.9397      0.19085809     362.25         0.00076343238
   1450000   428.29953     -37641.354     -48098.636     -2044.9909      0.19738221     362.5          0.00078952885
Loop time of 44.2192 on 56 procs for 10000 steps with 12288 atoms

Performance: 19.539 ns/day, 1.228 hours/ns, 226.146 timesteps/s, 2.779 Matom-step/s
99.8% CPU use with 56 MPI tasks x no OpenMP threads

MPI task timing breakdown:
Section |  min time  |  avg time  |  max time  |%varavg| %total
---------------------------------------------------------------
Pair    | 18.546     | 19.4       | 20.337     |   9.0 | 43.87
Bond    | 0.0012475  | 0.0021356  | 0.0030274  |   0.8 |  0.00
Kspace  | 10.892     | 11.677     | 12.448     |  11.0 | 26.41
Neigh   | 4.5095     | 4.5122     | 4.5147     |   0.1 | 10.20
Comm    | 1.541      | 1.6451     | 1.8035     |   5.0 |  3.72
Output  | 0.023294   | 0.040736   | 0.057598   |   5.0 |  0.09
Modify  | 5.1367     | 5.6477     | 6.6648     |  14.7 | 12.77
Other   |            | 1.295      |            |       |  2.93

Nlocal:        219.429 ave         235 max         206 min
Histogram: 4 5 7 7 11 3 9 2 5 3
Nghost:        7269.39 ave        7327 max        7188 min
Histogram: 1 2 4 3 8 6 16 9 4 3
Neighs:        96065.6 ave      103913 max       88694 min
Histogram: 3 3 10 7 8 7 8 2 3 5

Total # of neighbors = 5379673
Ave neighs/atom = 437.79891
Ave special neighs/atom = 2
Neighbor list builds = 383
Dangerous builds = 0
kspace_style pppm/tip4p 1.0e-5
next nloop
jump SELF loop_start
run 10000 # 10ps
PPPM initialization ...
  extracting TIP4P info from pair style
  using 12-bit tables for long-range coulomb
  G vector (1/distance) = 0.32815664
  grid = 50 75 50
  stencil order = 5
  estimated absolute RMS force accuracy = 0.0035802102
  estimated relative force accuracy = 1.0781697e-05
  using double precision KISS FFT
  3d grid and FFT values/proc = 15776 4000
Generated 0 of 1 mixed pair_coeff terms from geometric mixing rule
Per MPI rank memory allocation (min/avg/max) = 11.21 | 11.35 | 11.45 Mbytes
   Step          Temp          TotEng         PotEng          Pxy           v_sxy         v_strain     v_viscosity  
   1450000   428.09752     -37647.664     -48100.014     -1635.8368      0.15500599     362.5          0.00062002396
   1451000   431.2534      -37607.04      -48136.443     -1799.4309      0.18091062     362.75         0.0007236425 
   1452000   430.42148     -37680.665     -48189.756     -2448.8636      0.23816737     363            0.00095266949
   1453000   430.02615     -37764.876     -48264.315     -2525.1418      0.24879729     363.25         0.00099518918
   1454000   426.94557     -37816.909     -48241.133     -2275.8709      0.22135981     363.5          0.00088543922
   1455000   422.69468     -37812.615     -48133.05      -2103.688       0.2124983      363.75         0.0008499932 
   1456000   431.13007     -37648.202     -48174.594     -2095.2948      0.20520024     364            0.00082080095
   1457000   434.48831     -37587.292     -48195.678     -2210.7888      0.22072585     364.25         0.00088290338
   1458000   428.86534     -37665.44      -48136.536     -2181.8736      0.21565498     364.5          0.00086261991
   1459000   432.62238     -37651.386     -48214.214     -2024.8536      0.19539726     364.75         0.00078158904
   1460000   430.3017      -37672.787     -48178.953     -2223.9137      0.21932838     365            0.00087731351
Loop time of 51.5828 on 56 procs for 10000 steps with 12288 atoms

Performance: 16.750 ns/day, 1.433 hours/ns, 193.863 timesteps/s, 2.382 Matom-step/s
99.8% CPU use with 56 MPI tasks x no OpenMP threads

MPI task timing breakdown:
Section |  min time  |  avg time  |  max time  |%varavg| %total
---------------------------------------------------------------
Pair    | 18.613     | 19.649     | 20.638     |  10.6 | 38.09
Bond    | 0.0016343  | 0.0024222  | 0.0039177  |   0.9 |  0.00
Kspace  | 14.873     | 15.82      | 16.873     |  11.4 | 30.67
Neigh   | 4.5424     | 4.5453     | 4.5478     |   0.1 |  8.81
Comm    | 1.6663     | 1.8189     | 2.032      |   6.5 |  3.53
Output  | 0.023313   | 0.040513   | 0.057202   |   5.0 |  0.08
Modify  | 7.3304     | 8.0624     | 9.462      |  18.0 | 15.63
Other   |            | 1.645      |            |       |  3.19

Nlocal:        219.429 ave         239 max         202 min
Histogram: 2 7 7 4 7 11 7 7 3 1
Nghost:        6859.29 ave        6951 max        6787 min
Histogram: 4 5 8 7 11 10 3 1 5 2
Neighs:        96068.9 ave      105788 max       87262 min
Histogram: 2 6 7 7 9 5 9 7 3 1

Total # of neighbors = 5379860
Ave neighs/atom = 437.81413
Ave special neighs/atom = 2
Neighbor list builds = 385
Dangerous builds = 0
kspace_style pppm/tip4p 1.0e-5
next nloop
jump SELF loop_start
run 10000 # 10ps
PPPM initialization ...
  extracting TIP4P info from pair style
  using 12-bit tables for long-range coulomb
  G vector (1/distance) = 0.32815664
  grid = 50 50 50
  stencil order = 5
  estimated absolute RMS force accuracy = 0.0035802102
  estimated relative force accuracy = 1.0781697e-05
  using double precision KISS FFT
  3d grid and FFT values/proc = 11424 2800
Generated 0 of 1 mixed pair_coeff terms from geometric mixing rule
Per MPI rank memory allocation (min/avg/max) = 10.92 | 11.04 | 11.13 Mbytes
   Step          Temp          TotEng         PotEng          Pxy           v_sxy         v_strain     v_viscosity  
   1460000   430.10203     -37676.433     -48177.724     -1717.52        0.16757097     365            0.00067028387
   1461000   432.32161     -37594.799     -48150.284     -2143.429       0.20897991     365.25         0.00083591965
   1462000   429.51807     -37738.313     -48225.346     -2090.6         0.20845774     365.5          0.00083383097
   1463000   427.57941     -37788.838     -48228.538     -2348.9093      0.22841634     365.75         0.00091366537
   1464000   430.14807     -37557.835     -48060.251     -2027.2316      0.1985348      366            0.0007941392 
   1465000   431.59947     -37589.223     -48127.075     -2219.7035      0.21575675     366.25         0.000863027  
   1466000   433.03517     -37642.66      -48215.567     -2049.1357      0.20431423     366.5          0.00081725693
   1467000   427.89087     -37742.254     -48189.559     -1858.2429      0.18348491     366.75         0.00073393965
   1468000   424.63144     -37928.724     -48296.447     -1908.0494      0.1878051      367            0.00075122039
   1469000   428.21963     -37762.257     -48217.588     -1999.1055      0.19881189     367.25         0.00079524755
   1470000   430.68049     -37650.763     -48166.178     -2236.9552      0.2187226      367.5          0.0008748904 
Loop time of 44.0998 on 56 procs for 10000 steps with 12288 atoms

Performance: 19.592 ns/day, 1.225 hours/ns, 226.758 timesteps/s, 2.786 Matom-step/s
99.8% CPU use with 56 MPI tasks x no OpenMP threads

MPI task timing breakdown:
Section |  min time  |  avg time  |  max time  |%varavg| %total
---------------------------------------------------------------
Pair    | 18.62      | 19.384     | 20.181     |   8.5 | 43.95
Bond    | 0.0012843  | 0.0021145  | 0.0032138  |   0.8 |  0.00
Kspace  | 10.758     | 11.606     | 12.282     |  10.5 | 26.32
Neigh   | 4.4653     | 4.4682     | 4.4704     |   0.0 | 10.13
Comm    | 1.5432     | 1.6418     | 1.8029     |   4.6 |  3.72
Output  | 0.023242   | 0.040539   | 0.057295   |   5.0 |  0.09
Modify  | 5.1475     | 5.6758     | 6.7089     |  14.8 | 12.87
Other   |            | 1.281      |            |       |  2.90

Nlocal:        219.429 ave         243 max         197 min
Histogram: 2 6 4 6 9 12 9 4 2 2
Nghost:        7276.46 ave        7346 max        7178 min
Histogram: 2 0 3 4 12 7 11 8 4 5
Neighs:        96071.5 ave      107643 max       86517 min
Histogram: 2 9 3 9 10 9 5 6 1 2

Total # of neighbors = 5380004
Ave neighs/atom = 437.82585
Ave special neighs/atom = 2
Neighbor list builds = 380
Dangerous builds = 0
kspace_style pppm/tip4p 1.0e-5
next nloop
jump SELF loop_start
run 10000 # 10ps
PPPM initialization ...
  extracting TIP4P info from pair style
  using 12-bit tables for long-range coulomb
  G vector (1/distance) = 0.32815664
  grid = 50 75 50
  stencil order = 5
  estimated absolute RMS force accuracy = 0.0035802102
  estimated relative force accuracy = 1.0781697e-05
  using double precision KISS FFT
  3d grid and FFT values/proc = 15776 4000
Generated 0 of 1 mixed pair_coeff terms from geometric mixing rule
Per MPI rank memory allocation (min/avg/max) = 11.21 | 11.35 | 11.45 Mbytes
   Step          Temp          TotEng         PotEng          Pxy           v_sxy         v_strain     v_viscosity  
   1470000   430.68348     -37649.623     -48165.111     -1719.5306      0.16584868     367.5          0.00066339472
   1471000   429.49264     -37665.677     -48152.09      -2121.3125      0.21035339     367.75         0.00084141355
   1472000   430.2584      -37715.91      -48221.02      -2063.6881      0.19894515     368            0.00079578058
   1473000   432.49016     -37554.616     -48114.216     -1917.3307      0.18826554     368.25         0.00075306215
   1474000   429.9983      -37713.643     -48212.402     -2368.4291      0.23988933     368.5          0.00095955734
   1475000   429.14864     -37563.526     -48041.54      -2080.5603      0.20402815     368.75         0.0008161126 
   1476000   424.29399     -37940.074     -48299.557     -2226.1777      0.21718735     369            0.00086874939
   1477000   432.36773     -37663.841     -48220.452     -2357.014       0.23203888     369.25         0.00092815552
   1478000   431.93345     -37516.294     -48062.302     -2272.4524      0.2207532      369.5          0.0008830128 
   1479000   430.77011     -37514.188     -48031.791     -2108.367       0.21009259     369.75         0.00084037036
   1480000   430.67877     -37550.76      -48066.133     -2168.5009      0.21383931     370            0.00085535723
Loop time of 51.5863 on 56 procs for 10000 steps with 12288 atoms

Performance: 16.749 ns/day, 1.433 hours/ns, 193.850 timesteps/s, 2.382 Matom-step/s
99.8% CPU use with 56 MPI tasks x no OpenMP threads

MPI task timing breakdown:
Section |  min time  |  avg time  |  max time  |%varavg| %total
---------------------------------------------------------------
Pair    | 18.462     | 19.652     | 20.855     |  10.1 | 38.09
Bond    | 0.0016034  | 0.0024264  | 0.0038798  |   0.9 |  0.00
Kspace  | 14.743     | 15.84      | 17         |  11.2 | 30.71
Neigh   | 4.5572     | 4.56       | 4.5623     |   0.0 |  8.84
Comm    | 1.6492     | 1.7991     | 1.9678     |   5.6 |  3.49
Output  | 0.023717   | 0.040921   | 0.057629   |   4.9 |  0.08
Modify  | 7.3436     | 8.0253     | 9.4279     |  18.2 | 15.56
Other   |            | 1.667      |            |       |  3.23

Nlocal:        219.429 ave         244 max         198 min
Histogram: 3 3 2 14 11 8 10 2 2 1
Nghost:        6842.89 ave        6950 max        6756 min
Histogram: 2 10 4 11 5 9 5 4 4 2
Neighs:        96070.6 ave      108003 max       84875 min
Histogram: 2 3 2 9 17 7 9 5 1 1

Total # of neighbors = 5379954
Ave neighs/atom = 437.82178
Ave special neighs/atom = 2
Neighbor list builds = 384
Dangerous builds = 0
kspace_style pppm/tip4p 1.0e-5
next nloop
jump SELF loop_start
run 10000 # 10ps
PPPM initialization ...
  extracting TIP4P info from pair style
  using 12-bit tables for long-range coulomb
  G vector (1/distance) = 0.32815664
  grid = 50 50 50
  stencil order = 5
  estimated absolute RMS force accuracy = 0.0035802102
  estimated relative force accuracy = 1.0781697e-05
  using double precision KISS FFT
  3d grid and FFT values/proc = 11424 2800
Generated 0 of 1 mixed pair_coeff terms from geometric mixing rule
Per MPI rank memory allocation (min/avg/max) = 10.92 | 11.04 | 11.13 Mbytes
   Step          Temp          TotEng         PotEng          Pxy           v_sxy         v_strain     v_viscosity  
   1480000   430.92411     -37546.991     -48068.354     -1729.4373      0.16892297     370            0.00067569188
   1481000   434.13703     -37470.766     -48070.575     -2159.5032      0.20585172     370.25         0.00082340686
   1482000   438.04015     -37384.742     -48079.85      -2146.7118      0.21167002     370.5          0.00084668007
   1483000   432.54668     -37615.328     -48176.308     -2001.6155      0.19364421     370.75         0.00077457684
   1484000   430.15675     -37630.823     -48133.451     -2166.176       0.21148484     371            0.00084593936
   1485000   426.60297     -37902.911     -48318.77      -1913.6403      0.18660779     371.25         0.00074643117
   1486000   437.36905     -37577.077     -48255.799     -2163.674       0.2154192      371.5          0.00086167681
   1487000   429.98678     -37704.574     -48203.051     -2210.9704      0.21504942     371.75         0.00086019768
   1488000   432.04096     -37766.402     -48315.034     -2007.9818      0.19771455     372            0.00079085819
   1489000   433.85033     -37609.53      -48202.339     -2051.8136      0.2057833      372.25         0.00082313319
   1490000   432.2868      -37624.204     -48178.838     -2030.0481      0.19786208     372.5          0.00079144832
Loop time of 44.1828 on 56 procs for 10000 steps with 12288 atoms

Performance: 19.555 ns/day, 1.227 hours/ns, 226.333 timesteps/s, 2.781 Matom-step/s
99.8% CPU use with 56 MPI tasks x no OpenMP threads

MPI task timing breakdown:
Section |  min time  |  avg time  |  max time  |%varavg| %total
---------------------------------------------------------------
Pair    | 18.537     | 19.401     | 20.391     |  10.1 | 43.91
Bond    | 0.0012211  | 0.0021107  | 0.0033945  |   0.8 |  0.00
Kspace  | 10.774     | 11.743     | 12.615     |  12.5 | 26.58
Neigh   | 4.4539     | 4.4563     | 4.4583     |   0.0 | 10.09
Comm    | 1.5259     | 1.6395     | 1.7745     |   5.2 |  3.71
Output  | 0.023464   | 0.040731   | 0.057418   |   5.0 |  0.09
Modify  | 5.1269     | 5.6455     | 6.6466     |  14.8 | 12.78
Other   |            | 1.255      |            |       |  2.84

Nlocal:        219.429 ave         239 max         202 min
Histogram: 3 6 9 3 6 13 6 6 3 1
Nghost:        7296.29 ave        7372 max        7226 min
Histogram: 4 3 3 11 7 10 9 7 1 1
Neighs:        96062.4 ave      106002 max       86868 min
Histogram: 3 4 8 7 5 12 7 6 3 1

Total # of neighbors = 5379492
Ave neighs/atom = 437.78418
Ave special neighs/atom = 2
Neighbor list builds = 379
Dangerous builds = 0
kspace_style pppm/tip4p 1.0e-5
next nloop
jump SELF loop_start
run 10000 # 10ps
PPPM initialization ...
  extracting TIP4P info from pair style
  using 12-bit tables for long-range coulomb
  G vector (1/distance) = 0.32815664
  grid = 50 75 50
  stencil order = 5
  estimated absolute RMS force accuracy = 0.0035802102
  estimated relative force accuracy = 1.0781697e-05
  using double precision KISS FFT
  3d grid and FFT values/proc = 15776 4000
Generated 0 of 1 mixed pair_coeff terms from geometric mixing rule
Per MPI rank memory allocation (min/avg/max) = 11.21 | 11.35 | 11.45 Mbytes
   Step          Temp          TotEng         PotEng          Pxy           v_sxy         v_strain     v_viscosity  
   1490000   432.63741     -37613.782     -48176.977     -1378.565       0.1315433      372.5          0.00052617322
   1491000   430.48102     -37604.498     -48115.043     -1725.3657      0.16996378     372.75         0.0006798551 
   1492000   433.42905     -37646.004     -48228.527     -2023.3248      0.19243754     373            0.00076975015
   1493000   432.63324     -37680.211     -48243.305     -2143.4628      0.21072372     373.25         0.00084289487
   1494000   433.6168      -37623.258     -48210.366     -2081.1084      0.19837991     373.5          0.00079351962
   1495000   427.19068     -37741.874     -48172.082     -2175.1531      0.21069555     373.75         0.00084278221
   1496000   435.15618     -37675.098     -48299.791     -2112.3089      0.20713935     374            0.00082855741
   1497000   424.9755      -37596.808     -47972.932     -2345.0407      0.22610235     374.25         0.0009044094 
   1498000   432.28553     -37663.434     -48218.038     -1790.2006      0.17561356     374.5          0.00070245424
   1499000   436.48237     -37573.909     -48230.982     -2177.2884      0.21359096     374.75         0.00085436383
   1500000   437.90663     -37478.644     -48170.491     -2136.1497      0.2152907      375            0.0008611628 
Loop time of 51.3769 on 56 procs for 10000 steps with 12288 atoms

Performance: 16.817 ns/day, 1.427 hours/ns, 194.640 timesteps/s, 2.392 Matom-step/s
99.8% CPU use with 56 MPI tasks x no OpenMP threads

MPI task timing breakdown:
Section |  min time  |  avg time  |  max time  |%varavg| %total
---------------------------------------------------------------
Pair    | 18.828     | 19.638     | 20.404     |   8.3 | 38.22
Bond    | 0.0016535  | 0.0024186  | 0.0033823  |   0.8 |  0.00
Kspace  | 14.776     | 15.723     | 16.554     |   9.3 | 30.60
Neigh   | 4.5028     | 4.5056     | 4.5077     |   0.0 |  8.77
Comm    | 1.6552     | 1.7938     | 1.9812     |   6.1 |  3.49
Output  | 0.0234     | 0.040501   | 0.057108   |   5.0 |  0.08
Modify  | 7.3681     | 8.0512     | 9.4322     |  17.8 | 15.67
Other   |            | 1.622      |            |       |  3.16

Nlocal:        219.429 ave         233 max         200 min
Histogram: 1 3 2 4 9 11 7 9 5 5
Nghost:        6846.66 ave        6909 max        6774 min
Histogram: 2 1 4 5 12 10 12 3 4 3
Neighs:        96035.2 ave      103051 max       86204 min
Histogram: 1 2 3 4 10 9 10 7 7 3

Total # of neighbors = 5377973
Ave neighs/atom = 437.66056
Ave special neighs/atom = 2
Neighbor list builds = 383
Dangerous builds = 0
kspace_style pppm/tip4p 1.0e-5
next nloop
jump SELF loop_start
run 10000 # 10ps
PPPM initialization ...
  extracting TIP4P info from pair style
  using 12-bit tables for long-range coulomb
  G vector (1/distance) = 0.32815664
  grid = 50 50 50
  stencil order = 5
  estimated absolute RMS force accuracy = 0.0035802102
  estimated relative force accuracy = 1.0781697e-05
  using double precision KISS FFT
  3d grid and FFT values/proc = 11424 2800
Generated 0 of 1 mixed pair_coeff terms from geometric mixing rule
Per MPI rank memory allocation (min/avg/max) = 10.92 | 11.04 | 11.13 Mbytes
   Step          Temp          TotEng         PotEng          Pxy           v_sxy         v_strain     v_viscosity  
   1500000   436.9246      -37501.739     -48169.609     -1593.8812      0.15932829     375            0.00063731318
   1501000   434.42544     -37699.759     -48306.61      -1966.9541      0.19134529     375.25         0.00076538115
   1502000   427.70906     -37665.71      -48108.575     -2059.4756      0.20802071     375.5          0.00083208284
   1503000   432.77296     -37655.635     -48222.139     -2294.2672      0.22228831     375.75         0.00088915322
   1504000   436.37742     -37497.014     -48151.524     -2012.4865      0.19590208     376            0.00078360831
   1505000   429.22147     -37613.683     -48093.475     -2287.8166      0.22719224     376.25         0.00090876897
   1506000   434.05023     -37601.82      -48199.51      -2100.0889      0.20719206     376.5          0.00082876823
   1507000   436.88774     -37302.489     -47969.459     -2316.9638      0.22730972     376.75         0.00090923887
   1508000   432.55193     -37652.584     -48213.692     -2122.0847      0.20833675     377            0.00083334699
   1509000   437.56941     -37505.41      -48189.024     -2199.8686      0.21671901     377.25         0.00086687605
   1510000   434.30061     -37478.836     -48082.64      -1943.7445      0.19358675     377.5          0.00077434698
Loop time of 44.2055 on 56 procs for 10000 steps with 12288 atoms

Performance: 19.545 ns/day, 1.228 hours/ns, 226.216 timesteps/s, 2.780 Matom-step/s
99.8% CPU use with 56 MPI tasks x no OpenMP threads

MPI task timing breakdown:
Section |  min time  |  avg time  |  max time  |%varavg| %total
---------------------------------------------------------------
Pair    | 18.159     | 19.391     | 20.555     |  10.7 | 43.87
Bond    | 0.0011815  | 0.0021312  | 0.0032985  |   0.8 |  0.00
Kspace  | 10.63      | 11.674     | 12.823     |  13.0 | 26.41
Neigh   | 4.5195     | 4.5223     | 4.5244     |   0.0 | 10.23
Comm    | 1.5406     | 1.6387     | 1.8013     |   4.7 |  3.71
Output  | 0.023432   | 0.040784   | 0.057552   |   5.0 |  0.09
Modify  | 5.1098     | 5.647      | 6.6831     |  14.9 | 12.77
Other   |            | 1.29       |            |       |  2.92

Nlocal:        219.429 ave         241 max         201 min
Histogram: 2 2 7 13 8 8 7 4 2 3
Nghost:        7277.38 ave        7380 max        7157 min
Histogram: 1 2 1 9 8 14 10 7 3 1
Neighs:        96068.5 ave      106678 max       86168 min
Histogram: 2 2 6 11 11 7 9 3 2 3

Total # of neighbors = 5379837
Ave neighs/atom = 437.81226
Ave special neighs/atom = 2
Neighbor list builds = 383
Dangerous builds = 0
kspace_style pppm/tip4p 1.0e-5
next nloop
jump SELF loop_start
run 10000 # 10ps
PPPM initialization ...
  extracting TIP4P info from pair style
  using 12-bit tables for long-range coulomb
  G vector (1/distance) = 0.32815664
  grid = 50 75 50
  stencil order = 5
  estimated absolute RMS force accuracy = 0.0035802102
  estimated relative force accuracy = 1.0781697e-05
  using double precision KISS FFT
  3d grid and FFT values/proc = 15776 4000
Generated 0 of 1 mixed pair_coeff terms from geometric mixing rule
Per MPI rank memory allocation (min/avg/max) = 11.21 | 11.35 | 11.45 Mbytes
   Step          Temp          TotEng         PotEng          Pxy           v_sxy         v_strain     v_viscosity  
   1510000   433.95621     -37487.102     -48082.497     -1543.4205      0.15282575     377.5          0.00061130302
   1511000   434.64329     -37611.998     -48224.168     -2160.7469      0.20705322     377.75         0.00082821289
   1512000   431.48292     -37647.463     -48182.47      -2250.5961      0.22290629     378            0.00089162515
   1513000   428.84262     -37833.838     -48304.38      -2321.2441      0.22939893     378.25         0.00091759571
   1514000   431.96131     -37778.096     -48324.783     -2324.9652      0.22804936     378.5          0.00091219745
   1515000   430.64644     -37623.192     -48137.776     -2250.7681      0.21972069     378.75         0.00087888275
   1516000   427.85722     -37769.831     -48216.314     -2189.7836      0.21655535     379            0.00086622141
   1517000   431.09694     -37693.084     -48218.667     -1975.7967      0.19399555     379.25         0.00077598221
   1518000   431.12593     -37695.285     -48221.575     -2057.3953      0.20238709     379.5          0.00080954837
   1519000   430.60675     -37673.765     -48187.379     -2023.1919      0.20159098     379.75         0.00080636394
   1520000   430.35636     -37671.908     -48179.409     -2136.3588      0.20659775     380            0.000826391  
Loop time of 51.5694 on 56 procs for 10000 steps with 12288 atoms

Performance: 16.754 ns/day, 1.432 hours/ns, 193.914 timesteps/s, 2.383 Matom-step/s
99.8% CPU use with 56 MPI tasks x no OpenMP threads

MPI task timing breakdown:
Section |  min time  |  avg time  |  max time  |%varavg| %total
---------------------------------------------------------------
Pair    | 18.882     | 19.64      | 20.665     |   9.1 | 38.09
Bond    | 0.0016166  | 0.0024361  | 0.0041017  |   0.9 |  0.00
Kspace  | 14.784     | 15.782     | 16.581     |   9.9 | 30.60
Neigh   | 4.5478     | 4.5509     | 4.5532     |   0.0 |  8.82
Comm    | 1.668      | 1.8069     | 1.9913     |   5.7 |  3.50
Output  | 0.023995   | 0.04125    | 0.05798    |   4.9 |  0.08
Modify  | 7.3073     | 8.0587     | 9.4712     |  18.2 | 15.63
Other   |            | 1.687      |            |       |  3.27

Nlocal:        219.429 ave         243 max         193 min
Histogram: 2 0 3 7 8 20 4 7 4 1
Nghost:        6852.98 ave        6905 max        6779 min
Histogram: 1 3 2 4 10 10 6 8 7 5
Neighs:        96072.9 ave      107798 max       82850 min
Histogram: 2 0 4 7 11 15 6 6 4 1

Total # of neighbors = 5380080
Ave neighs/atom = 437.83203
Ave special neighs/atom = 2
Neighbor list builds = 384
Dangerous builds = 0
kspace_style pppm/tip4p 1.0e-5
next nloop
jump SELF loop_start
run 10000 # 10ps
PPPM initialization ...
  extracting TIP4P info from pair style
  using 12-bit tables for long-range coulomb
  G vector (1/distance) = 0.32815664
  grid = 50 50 50
  stencil order = 5
  estimated absolute RMS force accuracy = 0.0035802102
  estimated relative force accuracy = 1.0781697e-05
  using double precision KISS FFT
  3d grid and FFT values/proc = 11424 2800
Generated 0 of 1 mixed pair_coeff terms from geometric mixing rule
Per MPI rank memory allocation (min/avg/max) = 10.92 | 11.04 | 11.13 Mbytes
   Step          Temp          TotEng         PotEng          Pxy           v_sxy         v_strain     v_viscosity  
   1520000   429.81797     -37684.964     -48179.32      -1521.2202      0.14301059     380            0.00057204236
   1521000   437.25523     -37455.907     -48131.85      -2394.7863      0.23354178     380.25         0.00093416713
   1522000   435.49005     -37626.527     -48259.371     -1850.485       0.18172539     380.5          0.00072690154
   1523000   430.76371     -37553.045     -48070.492     -2537.0913      0.24927255     380.75         0.00099709019
   1524000   434.4866      -37531.159     -48139.503     -2154.7984      0.21553159     381            0.00086212634
   1525000   436.91795     -37600.402     -48268.11      -1899.7317      0.18535532     381.25         0.00074142129
   1526000   433.38499     -37665.765     -48247.213     -2075.0937      0.20300492     381.5          0.00081201966
   1527000   434.46395     -37782.552     -48390.343     -2239.583       0.21848975     381.75         0.00087395901
   1528000   434.41811     -37734.934     -48341.607     -2207.2861      0.21252038     382            0.00085008151
   1529000   432.62637     -37659.282     -48222.208     -2418.6009      0.24214995     382.25         0.00096859981
   1530000   433.47751     -37481.617     -48065.324     -2044.4423      0.19950122     382.5          0.00079800487
Loop time of 44.2513 on 56 procs for 10000 steps with 12288 atoms

Performance: 19.525 ns/day, 1.229 hours/ns, 225.982 timesteps/s, 2.777 Matom-step/s
99.8% CPU use with 56 MPI tasks x no OpenMP threads

MPI task timing breakdown:
Section |  min time  |  avg time  |  max time  |%varavg| %total
---------------------------------------------------------------
Pair    | 18.555     | 19.394     | 20.227     |  10.1 | 43.83
Bond    | 0.0012741  | 0.0021111  | 0.0033605  |   0.8 |  0.00
Kspace  | 10.927     | 11.772     | 12.657     |  12.7 | 26.60
Neigh   | 4.4777     | 4.4799     | 4.4817     |   0.0 | 10.12
Comm    | 1.5281     | 1.6338     | 1.7982     |   4.7 |  3.69
Output  | 0.023322   | 0.040649   | 0.057438   |   5.0 |  0.09
Modify  | 5.1572     | 5.6525     | 6.6761     |  14.7 | 12.77
Other   |            | 1.276      |            |       |  2.88

Nlocal:        219.429 ave         240 max         198 min
Histogram: 2 3 3 6 10 12 11 6 2 1
Nghost:        7291.86 ave        7364 max        7228 min
Histogram: 2 3 11 12 6 4 5 7 4 2
Neighs:        96053.2 ave      105463 max       86182 min
Histogram: 2 3 5 5 13 7 11 4 4 2

Total # of neighbors = 5378981
Ave neighs/atom = 437.74259
Ave special neighs/atom = 2
Neighbor list builds = 378
Dangerous builds = 0
kspace_style pppm/tip4p 1.0e-5
next nloop
jump SELF loop_start
run 10000 # 10ps
PPPM initialization ...
  extracting TIP4P info from pair style
  using 12-bit tables for long-range coulomb
  G vector (1/distance) = 0.32815664
  grid = 50 75 50
  stencil order = 5
  estimated absolute RMS force accuracy = 0.0035802102
  estimated relative force accuracy = 1.0781697e-05
  using double precision KISS FFT
  3d grid and FFT values/proc = 15776 4000
Generated 0 of 1 mixed pair_coeff terms from geometric mixing rule
Per MPI rank memory allocation (min/avg/max) = 11.21 | 11.35 | 11.45 Mbytes
   Step          Temp          TotEng         PotEng          Pxy           v_sxy         v_strain     v_viscosity  
   1530000   433.35196     -37481.947     -48062.588     -1489.8958      0.14229114     382.5          0.00056916456
   1531000   432.67266     -37787.468     -48351.524     -2265.3973      0.22523544     382.75         0.00090094177
   1532000   433.40293     -37658.381     -48240.267     -2047.65        0.20240007     383            0.0008096003 
   1533000   431.0971      -37802.275     -48327.862     -2350.5418      0.23175553     383.25         0.0009270221 
   1534000   433.6478      -37419.333     -48007.198     -2011.0561      0.19259065     383.5          0.00077036258
   1535000   430.37464     -37762.518     -48270.465     -2214.2813      0.22295207     383.75         0.00089180827
   1536000   429.65957     -37720.304     -48210.792     -2222.8665      0.22301816     384            0.00089207266
   1537000   433.18103     -37597.104     -48173.572     -2088.9129      0.20717493     384.25         0.00082869973
   1538000   436.99359     -37629.672     -48299.227     -2123.2698      0.20737424     384.5          0.00082949695
   1539000   431.67098     -37530.623     -48070.222     -1966.2784      0.19459533     384.75         0.00077838132
   1540000   430.84863     -37694.698     -48214.219     -2113.111       0.20392834     385            0.00081571337
Loop time of 51.4947 on 56 procs for 10000 steps with 12288 atoms

Performance: 16.778 ns/day, 1.430 hours/ns, 194.195 timesteps/s, 2.386 Matom-step/s
99.8% CPU use with 56 MPI tasks x no OpenMP threads

MPI task timing breakdown:
Section |  min time  |  avg time  |  max time  |%varavg| %total
---------------------------------------------------------------
Pair    | 19.015     | 19.64      | 20.708     |   8.2 | 38.14
Bond    | 0.0015889  | 0.0024106  | 0.0038573  |   0.9 |  0.00
Kspace  | 14.593     | 15.836     | 16.507     |   9.7 | 30.75
Neigh   | 4.4843     | 4.4873     | 4.4896     |   0.1 |  8.71
Comm    | 1.6522     | 1.7889     | 2.0201     |   5.9 |  3.47
Output  | 0.023207   | 0.040232   | 0.056852   |   5.0 |  0.08
Modify  | 7.3253     | 8.0443     | 9.4307     |  17.8 | 15.62
Other   |            | 1.656      |            |       |  3.21

Nlocal:        219.429 ave         240 max         203 min
Histogram: 7 7 5 6 6 10 4 4 3 4
Nghost:        6854.02 ave        6890 max        6793 min
Histogram: 2 1 2 5 7 4 10 10 9 6
Neighs:        96081.2 ave      106139 max       88830 min
Histogram: 7 7 8 4 11 4 4 6 1 4

Total # of neighbors = 5380548
Ave neighs/atom = 437.87012
Ave special neighs/atom = 2
Neighbor list builds = 381
Dangerous builds = 0
kspace_style pppm/tip4p 1.0e-5
next nloop
jump SELF loop_start
run 10000 # 10ps
PPPM initialization ...
  extracting TIP4P info from pair style
  using 12-bit tables for long-range coulomb
  G vector (1/distance) = 0.32815664
  grid = 50 50 50
  stencil order = 5
  estimated absolute RMS force accuracy = 0.0035802102
  estimated relative force accuracy = 1.0781697e-05
  using double precision KISS FFT
  3d grid and FFT values/proc = 11424 2800
Generated 0 of 1 mixed pair_coeff terms from geometric mixing rule
Per MPI rank memory allocation (min/avg/max) = 10.92 | 11.04 | 11.13 Mbytes
   Step          Temp          TotEng         PotEng          Pxy           v_sxy         v_strain     v_viscosity  
   1540000   431.09404     -37688.201     -48213.713     -1630.0178      0.15469314     385            0.00061877257
   1541000   432.68302     -37669.444     -48233.753     -2381.9382      0.23440387     385.25         0.00093761546
   1542000   435.34384     -37712.237     -48341.512     -2297.5596      0.23395187     385.5          0.00093580746
   1543000   433.5774      -37593.303     -48179.449     -2184.9471      0.20878477     385.75         0.00083513909
   1544000   430.86337     -37768.741     -48288.622     -2202.6807      0.21925648     386            0.00087702593
   1545000   433.65951     -37768.638     -48356.788     -2385.1908      0.2314178      386.25         0.0009256712 
   1546000   429.6941      -37656.388     -48147.72      -2024.2699      0.20049051     386.5          0.00080196205
   1547000   431.54845     -37608.199     -48144.807     -1902.5271      0.18939377     386.75         0.00075757506
   1548000   433.56717     -37530.075     -48115.971     -2076.9752      0.20536423     387            0.00082145691
   1549000   429.74298     -37742.114     -48234.64      -2209.999       0.21838872     387.25         0.00087355487
   1550000   429.12415     -37664.44      -48141.856     -2273.9058      0.22445833     387.5          0.00089783333
Loop time of 44.2212 on 56 procs for 10000 steps with 12288 atoms

Performance: 19.538 ns/day, 1.228 hours/ns, 226.136 timesteps/s, 2.779 Matom-step/s
99.7% CPU use with 56 MPI tasks x no OpenMP threads

MPI task timing breakdown:
Section |  min time  |  avg time  |  max time  |%varavg| %total
---------------------------------------------------------------
Pair    | 18.606     | 19.386     | 20.543     |  10.2 | 43.84
Bond    | 0.0012561  | 0.0021296  | 0.0032991  |   0.8 |  0.00
Kspace  | 10.642     | 11.723     | 12.487     |  12.6 | 26.51
Neigh   | 4.4801     | 4.4825     | 4.4845     |   0.1 | 10.14
Comm    | 1.5441     | 1.6347     | 1.8093     |   4.6 |  3.70
Output  | 0.023452   | 0.040883   | 0.057811   |   5.0 |  0.09
Modify  | 5.1326     | 5.6549     | 6.6923     |  14.9 | 12.79
Other   |            | 1.297      |            |       |  2.93

Nlocal:        219.429 ave         237 max         200 min
Histogram: 1 4 3 8 13 9 3 6 6 3
Nghost:        7291.93 ave        7349 max        7245 min
Histogram: 4 6 7 7 7 10 5 6 2 2
Neighs:        96078.5 ave      104199 max       87178 min
Histogram: 3 2 4 9 10 7 7 4 6 4

Total # of neighbors = 5380398
Ave neighs/atom = 437.85791
Ave special neighs/atom = 2
Neighbor list builds = 380
Dangerous builds = 0
kspace_style pppm/tip4p 1.0e-5
next nloop
jump SELF loop_start
run 10000 # 10ps
PPPM initialization ...
  extracting TIP4P info from pair style
  using 12-bit tables for long-range coulomb
  G vector (1/distance) = 0.32815664
  grid = 50 75 50
  stencil order = 5
  estimated absolute RMS force accuracy = 0.0035802102
  estimated relative force accuracy = 1.0781697e-05
  using double precision KISS FFT
  3d grid and FFT values/proc = 15776 4000
Generated 0 of 1 mixed pair_coeff terms from geometric mixing rule
Per MPI rank memory allocation (min/avg/max) = 11.21 | 11.35 | 11.45 Mbytes
   Step          Temp          TotEng         PotEng          Pxy           v_sxy         v_strain     v_viscosity  
   1550000   429.11129     -37664.879     -48141.981     -1737.7514      0.1698154      387.5          0.0006792616 
   1551000   433.03422     -37747.313     -48320.197     -2240.2987      0.22227168     387.75         0.00088908672
   1552000   431.84094     -37561.349     -48105.097     -2479.9141      0.24176984     388            0.00096707937
   1553000   428.96931     -37798.906     -48272.541     -2134.1096      0.2144456      388.25         0.00085778239
   1554000   427.56632     -37728.085     -48167.465     -2240.0392      0.21775403     388.5          0.00087101613
   1555000   427.85263     -37792.961     -48239.332     -2078.3082      0.19917201     388.75         0.00079668805
   1556000   438.8126      -37371.668     -48085.636     -2368.8859      0.23603157     389            0.0009441263 
   1557000   429.86287     -37787.414     -48282.867     -2025.5348      0.19677614     389.25         0.00078710458
   1558000   428.5957      -37798.75      -48263.263     -2363.9724      0.23549531     389.5          0.00094198125
   1559000   438.16508     -37382.991     -48081.149     -2324.7962      0.22803677     389.75         0.00091214706
   1560000   431.65012     -37599.873     -48138.962     -2258.0043      0.22344901     390            0.00089379604
Loop time of 51.4441 on 56 procs for 10000 steps with 12288 atoms

Performance: 16.795 ns/day, 1.429 hours/ns, 194.386 timesteps/s, 2.389 Matom-step/s
99.8% CPU use with 56 MPI tasks x no OpenMP threads

MPI task timing breakdown:
Section |  min time  |  avg time  |  max time  |%varavg| %total
---------------------------------------------------------------
Pair    | 18.596     | 19.65      | 20.37      |   9.2 | 38.20
Bond    | 0.0015696  | 0.0024149  | 0.0037921  |   0.9 |  0.00
Kspace  | 14.975     | 15.758     | 16.791     |  10.4 | 30.63
Neigh   | 4.4881     | 4.4909     | 4.4931     |   0.0 |  8.73
Comm    | 1.6451     | 1.8065     | 2.0094     |   6.4 |  3.51
Output  | 0.023711   | 0.040867   | 0.057498   |   4.9 |  0.08
Modify  | 7.2621     | 8.0318     | 9.4792     |  18.0 | 15.61
Other   |            | 1.664      |            |       |  3.24

Nlocal:        219.429 ave         241 max         201 min
Histogram: 5 2 3 10 11 9 9 3 3 1
Nghost:           6861 ave        6935 max        6798 min
Histogram: 3 5 4 5 17 9 7 3 1 2
Neighs:        96079.9 ave      106067 max       86124 min
Histogram: 2 4 4 4 16 8 7 8 1 2

Total # of neighbors = 5380473
Ave neighs/atom = 437.86401
Ave special neighs/atom = 2
Neighbor list builds = 380
Dangerous builds = 0
kspace_style pppm/tip4p 1.0e-5
next nloop
jump SELF loop_start
run 10000 # 10ps
PPPM initialization ...
  extracting TIP4P info from pair style
  using 12-bit tables for long-range coulomb
  G vector (1/distance) = 0.32815664
  grid = 50 50 50
  stencil order = 5
  estimated absolute RMS force accuracy = 0.0035802102
  estimated relative force accuracy = 1.0781697e-05
  using double precision KISS FFT
  3d grid and FFT values/proc = 11424 2800
Generated 0 of 1 mixed pair_coeff terms from geometric mixing rule
Per MPI rank memory allocation (min/avg/max) = 10.92 | 11.04 | 11.13 Mbytes
   Step          Temp          TotEng         PotEng          Pxy           v_sxy         v_strain     v_viscosity  
   1560000   431.61699     -37599.824     -48138.105     -1742.4437      0.17103294     390            0.00068413175
   1561000   430.98907     -37646.182     -48169.131     -2330.3247      0.22823538     390.25         0.0009129415 
   1562000   429.82932     -37683.232     -48177.865     -2153.6966      0.21582831     390.5          0.00086331324
   1563000   430.06392     -37980.165     -48480.526     -2343.5966      0.23136146     390.75         0.00092544584
   1564000   433.75704     -37745.279     -48335.811     -1910.7637      0.18547761     391            0.00074191044
   1565000   433.23338     -37622.999     -48200.745     -2235.2567      0.22213996     391.25         0.00088855983
   1566000   434.55525     -37629.086     -48239.107     -2005.8583      0.19890152     391.5          0.00079560607
   1567000   433.42663     -37647.478     -48229.942     -2148.6405      0.21115936     391.75         0.00084463743
   1568000   437.18091     -37627.932     -48302.06      -1893.8916      0.18226931     392            0.00072907725
   1569000   436.50629     -37409.157     -48066.814     -1969.5577      0.19699269     392.25         0.00078797077
   1570000   434.36434     -37534.508     -48139.868     -2299.0238      0.23151512     392.5          0.00092606049
Loop time of 44.2331 on 56 procs for 10000 steps with 12288 atoms

Performance: 19.533 ns/day, 1.229 hours/ns, 226.075 timesteps/s, 2.778 Matom-step/s
99.8% CPU use with 56 MPI tasks x no OpenMP threads

MPI task timing breakdown:
Section |  min time  |  avg time  |  max time  |%varavg| %total
---------------------------------------------------------------
Pair    | 18.67      | 19.396     | 20.382     |   8.6 | 43.85
Bond    | 0.0012769  | 0.0021063  | 0.003213   |   0.8 |  0.00
Kspace  | 10.853     | 11.73      | 12.466     |  10.6 | 26.52
Neigh   | 4.4838     | 4.4862     | 4.4888     |   0.0 | 10.14
Comm    | 1.5472     | 1.6345     | 1.7641     |   4.6 |  3.70
Output  | 0.023355   | 0.040636   | 0.057348   |   5.0 |  0.09
Modify  | 5.1299     | 5.6463     | 6.6845     |  14.8 | 12.76
Other   |            | 1.297      |            |       |  2.93

Nlocal:        219.429 ave         242 max         196 min
Histogram: 1 0 4 7 14 15 9 2 3 1
Nghost:           7275 ave        7326 max        7205 min
Histogram: 1 2 7 4 4 5 13 14 4 2
Neighs:        96047.6 ave      107291 max       85395 min
Histogram: 1 1 4 9 17 11 9 1 2 1

Total # of neighbors = 5378664
Ave neighs/atom = 437.7168
Ave special neighs/atom = 2
Neighbor list builds = 381
Dangerous builds = 0
kspace_style pppm/tip4p 1.0e-5
next nloop
jump SELF loop_start
run 10000 # 10ps
PPPM initialization ...
  extracting TIP4P info from pair style
  using 12-bit tables for long-range coulomb
  G vector (1/distance) = 0.32815664
  grid = 50 75 50
  stencil order = 5
  estimated absolute RMS force accuracy = 0.0035802102
  estimated relative force accuracy = 1.0781697e-05
  using double precision KISS FFT
  3d grid and FFT values/proc = 15776 4000
Generated 0 of 1 mixed pair_coeff terms from geometric mixing rule
Per MPI rank memory allocation (min/avg/max) = 11.21 | 11.35 | 11.45 Mbytes
   Step          Temp          TotEng         PotEng          Pxy           v_sxy         v_strain     v_viscosity  
   1570000   434.18979     -37539.421     -48140.519     -1828.7626      0.1836429      392.5          0.0007345716 
   1571000   434.91045     -37494.525     -48113.218     -2034.8265      0.20192836     392.75         0.00080771344
   1572000   436.27849     -37658.349     -48310.444     -2201.8908      0.21610431     393            0.00086441724
   1573000   434.65573     -37580.252     -48192.726     -2001.2062      0.20137409     393.25         0.00080549635
   1574000   440.49405     -37482.046     -48237.067     -2189.8926      0.21921658     393.5          0.0008768663 
   1575000   434.1075      -37768.057     -48367.146     -2319.7352      0.23063159     393.75         0.00092252637
   1576000   437.32867     -37491.517     -48169.253     -2221.5691      0.21883086     394            0.00087532342
   1577000   433.91399     -37615.482     -48209.845     -2293.1031      0.21857432     394.25         0.00087429729
   1578000   430.35153     -37586.119     -48093.502     -1955.0049      0.19472177     394.5          0.00077888706
   1579000   435.35258     -37537.67      -48167.159     -1921.5133      0.193221       394.75         0.000772884  
   1580000   430.16391     -37608.068     -48110.87      -2252.1576      0.22434862     395            0.00089739449
Loop time of 51.5601 on 56 procs for 10000 steps with 12288 atoms

Performance: 16.757 ns/day, 1.432 hours/ns, 193.948 timesteps/s, 2.383 Matom-step/s
99.8% CPU use with 56 MPI tasks x no OpenMP threads

MPI task timing breakdown:
Section |  min time  |  avg time  |  max time  |%varavg| %total
---------------------------------------------------------------
Pair    | 18.679     | 19.641     | 20.7       |   9.8 | 38.09
Bond    | 0.0015684  | 0.0024238  | 0.0041172  |   0.9 |  0.00
Kspace  | 14.799     | 15.881     | 16.873     |  10.8 | 30.80
Neigh   | 4.4872     | 4.49       | 4.4923     |   0.1 |  8.71
Comm    | 1.6455     | 1.7971     | 2.0359     |   6.2 |  3.49
Output  | 0.023289   | 0.04045    | 0.057095   |   5.0 |  0.08
Modify  | 7.3018     | 8.0298     | 9.4436     |  18.0 | 15.57
Other   |            | 1.678      |            |       |  3.25

Nlocal:        219.429 ave         235 max         200 min
Histogram: 4 1 4 5 8 8 8 9 6 3
Nghost:        6860.79 ave        6933 max        6787 min
Histogram: 1 2 6 7 14 10 6 6 1 3
Neighs:        96058.9 ave      103226 max       87193 min
Histogram: 4 1 6 4 7 7 11 5 8 3

Total # of neighbors = 5379298
Ave neighs/atom = 437.76839
Ave special neighs/atom = 2
Neighbor list builds = 382
Dangerous builds = 0
kspace_style pppm/tip4p 1.0e-5
next nloop
jump SELF loop_start
run 10000 # 10ps
PPPM initialization ...
  extracting TIP4P info from pair style
  using 12-bit tables for long-range coulomb
  G vector (1/distance) = 0.32815664
  grid = 50 50 50
  stencil order = 5
  estimated absolute RMS force accuracy = 0.0035802102
  estimated relative force accuracy = 1.0781697e-05
  using double precision KISS FFT
  3d grid and FFT values/proc = 11424 2800
Generated 0 of 1 mixed pair_coeff terms from geometric mixing rule
Per MPI rank memory allocation (min/avg/max) = 10.92 | 11.04 | 11.13 Mbytes
   Step          Temp          TotEng         PotEng          Pxy           v_sxy         v_strain     v_viscosity  
   1580000   430.73592     -37593.132     -48109.901     -1762.6769      0.17414295     395            0.00069657178
   1581000   432.66747     -37541.94      -48105.869     -2252.9539      0.22069678     395.25         0.00088278713
   1582000   430.95504     -37648.94      -48171.059     -1938.989       0.1911643      395.5          0.0007646572 
   1583000   429.00652     -37698.914     -48173.458     -1766.8374      0.17505696     395.75         0.00070022783
   1584000   431.73958     -37659.95      -48201.224     -2016.9001      0.19163316     396            0.00076653266
   1585000   428.81195     -37648.698     -48118.491     -2160.5811      0.21767516     396.25         0.00087070063
   1586000   429.98804     -37794.904     -48293.412     -2269.6416      0.22583525     396.5          0.00090334099
   1587000   431.79727     -37515.149     -48057.831     -2172.0897      0.21571796     396.75         0.00086287184
   1588000   431.12241     -37666.324     -48192.529     -1876.6949      0.18934296     397            0.00075737185
   1589000   433.2504      -37819.963     -48398.124     -2259.6551      0.22411943     397.25         0.00089647771
   1590000   428.57485     -37813.468     -48277.472     -2210.5836      0.22244131     397.5          0.00088976526
Loop time of 44.1236 on 56 procs for 10000 steps with 12288 atoms

Performance: 19.581 ns/day, 1.226 hours/ns, 226.636 timesteps/s, 2.785 Matom-step/s
99.8% CPU use with 56 MPI tasks x no OpenMP threads

MPI task timing breakdown:
Section |  min time  |  avg time  |  max time  |%varavg| %total
---------------------------------------------------------------
Pair    | 18.449     | 19.393     | 20.584     |   9.2 | 43.95
Bond    | 0.0012619  | 0.002119   | 0.0032597  |   0.8 |  0.00
Kspace  | 10.552     | 11.631     | 12.664     |  11.8 | 26.36
Neigh   | 4.4869     | 4.4894     | 4.4922     |   0.1 | 10.17
Comm    | 1.5472     | 1.6369     | 1.7866     |   5.0 |  3.71
Output  | 0.023482   | 0.040794   | 0.057593   |   5.0 |  0.09
Modify  | 5.1202     | 5.6525     | 6.6575     |  14.9 | 12.81
Other   |            | 1.278      |            |       |  2.90

Nlocal:        219.429 ave         238 max         193 min
Histogram: 1 2 1 6 9 7 13 7 5 5
Nghost:        7283.59 ave        7366 max        7172 min
Histogram: 3 0 3 5 6 12 6 15 4 2
Neighs:        96062.6 ave      106034 max       82351 min
Histogram: 1 1 2 6 7 11 13 8 3 4

Total # of neighbors = 5379508
Ave neighs/atom = 437.78548
Ave special neighs/atom = 2
Neighbor list builds = 381
Dangerous builds = 0
kspace_style pppm/tip4p 1.0e-5
next nloop
jump SELF loop_start
run 10000 # 10ps
PPPM initialization ...
  extracting TIP4P info from pair style
  using 12-bit tables for long-range coulomb
  G vector (1/distance) = 0.32815664
  grid = 50 75 50
  stencil order = 5
  estimated absolute RMS force accuracy = 0.0035802102
  estimated relative force accuracy = 1.0781697e-05
  using double precision KISS FFT
  3d grid and FFT values/proc = 15776 4000
Generated 0 of 1 mixed pair_coeff terms from geometric mixing rule
Per MPI rank memory allocation (min/avg/max) = 11.21 | 11.35 | 11.45 Mbytes
   Step          Temp          TotEng         PotEng          Pxy           v_sxy         v_strain     v_viscosity  
   1590000   428.26438     -37821.365     -48277.789     -1644.2617      0.16444783     397.5          0.00065779133
   1591000   431.79594     -37666.845     -48209.495     -2156.3448      0.21407898     397.75         0.00085631592
   1592000   422.85283     -37880.119     -48204.415     -2078.7164      0.20601765     398            0.00082407059
   1593000   422.19546     -37832.06      -48140.306     -2202.1125      0.21718016     398.25         0.00086872063
   1594000   427.53068     -37710.779     -48149.289     -2058.5176      0.20244951     398.5          0.00080979805
   1595000   430.30335     -37875.567     -48381.774     -2081.4196      0.20460272     398.75         0.00081841087
   1596000   431.16489     -37692.478     -48219.72      -2240.7149      0.21821338     399            0.00087285354
   1597000   428.62261     -37756.606     -48221.776     -2449.4911      0.23524839     399.25         0.00094099356
   1598000   439.73125     -37362.28      -48098.677     -2357.094       0.24085962     399.5          0.00096343848
   1599000   430.21742     -37666.908     -48171.017     -2358.3089      0.22908797     399.75         0.0009163519 
   1600000   432.64431     -37733.684     -48297.047     -2064.0483      0.2041445      400            0.000816578  
Loop time of 51.5231 on 56 procs for 10000 steps with 12288 atoms

Performance: 16.769 ns/day, 1.431 hours/ns, 194.088 timesteps/s, 2.385 Matom-step/s
99.8% CPU use with 56 MPI tasks x no OpenMP threads

MPI task timing breakdown:
Section |  min time  |  avg time  |  max time  |%varavg| %total
---------------------------------------------------------------
Pair    | 18.619     | 19.638     | 20.542     |   9.2 | 38.12
Bond    | 0.0016516  | 0.0024121  | 0.003883   |   0.9 |  0.00
Kspace  | 15.095     | 15.831     | 16.827     |   9.3 | 30.73
Neigh   | 4.5357     | 4.5385     | 4.5407     |   0.1 |  8.81
Comm    | 1.6328     | 1.7916     | 1.9527     |   5.8 |  3.48
Output  | 0.023747   | 0.040886   | 0.057543   |   4.9 |  0.08
Modify  | 7.3533     | 8.0369     | 9.4112     |  17.8 | 15.60
Other   |            | 1.643      |            |       |  3.19

Nlocal:        219.429 ave         239 max         204 min
Histogram: 4 5 8 6 9 9 7 5 1 2
Nghost:        6851.86 ave        6927 max        6790 min
Histogram: 2 5 11 6 8 12 3 6 1 2
Neighs:          96058 ave      105899 max       88422 min
Histogram: 5 5 7 9 7 11 4 5 1 2

Total # of neighbors = 5379247
Ave neighs/atom = 437.76424
Ave special neighs/atom = 2
Neighbor list builds = 385
Dangerous builds = 0
kspace_style pppm/tip4p 1.0e-5
next nloop
jump SELF loop_start
run 10000 # 10ps
PPPM initialization ...
  extracting TIP4P info from pair style
  using 12-bit tables for long-range coulomb
  G vector (1/distance) = 0.32815664
  grid = 50 50 50
  stencil order = 5
  estimated absolute RMS force accuracy = 0.0035802102
  estimated relative force accuracy = 1.0781697e-05
  using double precision KISS FFT
  3d grid and FFT values/proc = 11424 2800
Generated 0 of 1 mixed pair_coeff terms from geometric mixing rule
Per MPI rank memory allocation (min/avg/max) = 10.92 | 11.04 | 11.13 Mbytes
   Step          Temp          TotEng         PotEng          Pxy           v_sxy         v_strain     v_viscosity  
   1600000   432.64431     -37731.634     -48294.997     -1624.3451      0.15959158     400            0.00063836632
   1601000   432.58848     -37681.938     -48243.938     -2125.4208      0.21347762     400.25         0.00085391049
   1602000   433.46992     -37622.441     -48205.962     -2405.9599      0.23944973     400.5          0.0009577989 
   1603000   429.4472      -37740.404     -48225.707     -2111.7094      0.20742817     400.75         0.00082971268
   1604000   435.4031      -37495.497     -48126.219     -2136.0589      0.21305537     401            0.00085222148
   1605000   434.7558      -37549.49      -48164.407     -1770.9005      0.17339774     401.25         0.00069359094
   1606000   432.67534     -37605.491     -48169.612     -2190.6289      0.21549273     401.5          0.00086197094
   1607000   432.90911     -37700.064     -48269.893     -2506.4209      0.24606988     401.75         0.00098427951
   1608000   437.71927     -37555.214     -48242.487     -1981.8955      0.19683236     402            0.00078732942
   1609000   438.36386     -37440.789     -48143.8       -2410.1703      0.2347962      402.25         0.00093918479
   1610000   436.9137      -37464.282     -48131.886     -2222.537       0.21355056     402.5          0.00085420224
Loop time of 44.2758 on 56 procs for 10000 steps with 12288 atoms

Performance: 19.514 ns/day, 1.230 hours/ns, 225.857 timesteps/s, 2.775 Matom-step/s
99.8% CPU use with 56 MPI tasks x no OpenMP threads

MPI task timing breakdown:
Section |  min time  |  avg time  |  max time  |%varavg| %total
---------------------------------------------------------------
Pair    | 18.699     | 19.393     | 20.311     |   9.9 | 43.80
Bond    | 0.0012862  | 0.002118   | 0.0029971  |   0.7 |  0.00
Kspace  | 10.831     | 11.771     | 12.505     |  12.6 | 26.59
Neigh   | 4.5196     | 4.5225     | 4.5243     |   0.1 | 10.21
Comm    | 1.5393     | 1.6311     | 1.7802     |   4.7 |  3.68
Output  | 0.023356   | 0.040684   | 0.057394   |   5.0 |  0.09
Modify  | 5.1232     | 5.6509     | 6.6555     |  14.7 | 12.76
Other   |            | 1.264      |            |       |  2.85

Nlocal:        219.429 ave         238 max         198 min
Histogram: 2 0 3 6 13 10 9 7 4 2
Nghost:        7278.46 ave        7341 max        7211 min
Histogram: 2 1 7 5 11 8 8 10 3 1
Neighs:        96045.8 ave      105205 max       85637 min
Histogram: 2 0 4 8 11 13 7 5 4 2

Total # of neighbors = 5378564
Ave neighs/atom = 437.70866
Ave special neighs/atom = 2
Neighbor list builds = 382
Dangerous builds = 0
kspace_style pppm/tip4p 1.0e-5
next nloop
jump SELF loop_start
run 10000 # 10ps
PPPM initialization ...
  extracting TIP4P info from pair style
  using 12-bit tables for long-range coulomb
  G vector (1/distance) = 0.32815664
  grid = 50 75 50
  stencil order = 5
  estimated absolute RMS force accuracy = 0.0035802102
  estimated relative force accuracy = 1.0781697e-05
  using double precision KISS FFT
  3d grid and FFT values/proc = 15776 4000
Generated 0 of 1 mixed pair_coeff terms from geometric mixing rule
Per MPI rank memory allocation (min/avg/max) = 11.21 | 11.35 | 11.45 Mbytes
   Step          Temp          TotEng         PotEng          Pxy           v_sxy         v_strain     v_viscosity  
   1610000   436.92353     -37463.593     -48131.437     -1704.5677      0.16078554     402.5          0.00064314215
   1611000   434.92844     -37567.604     -48186.737     -2191.2793      0.21916782     402.75         0.00087667128
   1612000   432.43384     -37465.904     -48024.129     -2457.9273      0.24013029     403            0.00096052115
   1613000   434.54771     -37633.509     -48243.346     -2360.8348      0.23130289     403.25         0.00092521154
   1614000   438.19579     -37470.514     -48169.421     -1895.8747      0.18737437     403.5          0.00074949749
   1615000   436.23058     -37377.058     -48027.983     -2283.9295      0.21648022     403.75         0.00086592086
   1616000   436.35927     -37514.141     -48168.208     -2112.9301      0.20692496     404            0.00082769983
   1617000   429.58984     -37754.208     -48242.994     -2183.8558      0.21811441     404.25         0.00087245764
   1618000   436.39732     -37504.223     -48159.219     -2263.4156      0.22392026     404.5          0.00089568103
   1619000   434.59594     -37419.054     -48030.068     -1884.9669      0.18439183     404.75         0.00073756733
   1620000   437.40599     -37446.74      -48126.364     -2660.2432      0.26198346     405            0.0010479339 
Loop time of 51.4988 on 56 procs for 10000 steps with 12288 atoms

Performance: 16.777 ns/day, 1.431 hours/ns, 194.179 timesteps/s, 2.386 Matom-step/s
99.8% CPU use with 56 MPI tasks x no OpenMP threads

MPI task timing breakdown:
Section |  min time  |  avg time  |  max time  |%varavg| %total
---------------------------------------------------------------
Pair    | 18.597     | 19.641     | 20.583     |   9.5 | 38.14
Bond    | 0.0014538  | 0.0024115  | 0.0040001  |   1.0 |  0.00
Kspace  | 14.649     | 15.749     | 16.826     |  10.6 | 30.58
Neigh   | 4.5245     | 4.5278     | 4.5299     |   0.1 |  8.79
Comm    | 1.6512     | 1.8009     | 2.0294     |   6.3 |  3.50
Output  | 0.023321   | 0.040456   | 0.057086   |   5.0 |  0.08
Modify  | 7.3188     | 8.0346     | 9.4568     |  18.4 | 15.60
Other   |            | 1.702      |            |       |  3.31

Nlocal:        219.429 ave         238 max         201 min
Histogram: 3 3 7 6 7 12 6 6 3 3
Nghost:         6848.2 ave        6925 max        6764 min
Histogram: 3 3 2 9 9 6 13 3 5 3
Neighs:        96056.6 ave      105860 max       87209 min
Histogram: 3 4 7 8 9 7 7 6 4 1

Total # of neighbors = 5379168
Ave neighs/atom = 437.75781
Ave special neighs/atom = 2
Neighbor list builds = 385
Dangerous builds = 0
kspace_style pppm/tip4p 1.0e-5
next nloop
jump SELF loop_start
run 10000 # 10ps
PPPM initialization ...
  extracting TIP4P info from pair style
  using 12-bit tables for long-range coulomb
  G vector (1/distance) = 0.32815664
  grid = 50 50 50
  stencil order = 5
  estimated absolute RMS force accuracy = 0.0035802102
  estimated relative force accuracy = 1.0781697e-05
  using double precision KISS FFT
  3d grid and FFT values/proc = 11424 2800
Generated 0 of 1 mixed pair_coeff terms from geometric mixing rule
Per MPI rank memory allocation (min/avg/max) = 10.92 | 11.04 | 11.13 Mbytes
   Step          Temp          TotEng         PotEng          Pxy           v_sxy         v_strain     v_viscosity  
   1620000   437.13255     -37455.742     -48128.69      -2081.6594      0.2027684      405            0.00081107361
   1621000   436.10905     -37536.554     -48184.512     -2408.9181      0.23813874     405.25         0.00095255494
   1622000   435.57369     -37571.322     -48206.208     -2145.0245      0.20879596     405.5          0.00083518383
   1623000   432.71851     -37635.986     -48201.161     -1691.6453      0.17319792     405.75         0.00069279168
   1624000   436.60149     -37623.924     -48283.906     -2286.6641      0.22527845     406            0.00090111381
   1625000   427.90911     -37717.306     -48165.056     -2172.5635      0.21417899     406.25         0.00085671598
   1626000   433.8454      -37586.035     -48178.724     -2250.5193      0.21687377     406.5          0.00086749509
   1627000   434.75207     -37417.474     -48032.3       -1752.6527      0.16795812     406.75         0.00067183249
   1628000   430.45827     -37709.154     -48219.144     -2084.6446      0.20338553     407            0.0008135421 
   1629000   434.57054     -37525.808     -48136.202     -2191.4918      0.21310011     407.25         0.00085240043
   1630000   428.88969     -37603.376     -48075.068     -1929.5527      0.18636662     407.5          0.00074546649
Loop time of 44.1934 on 56 procs for 10000 steps with 12288 atoms

Performance: 19.550 ns/day, 1.228 hours/ns, 226.278 timesteps/s, 2.781 Matom-step/s
99.8% CPU use with 56 MPI tasks x no OpenMP threads

MPI task timing breakdown:
Section |  min time  |  avg time  |  max time  |%varavg| %total
---------------------------------------------------------------
Pair    | 18.55      | 19.401     | 20.132     |   8.8 | 43.90
Bond    | 0.0012596  | 0.0021316  | 0.0031377  |   0.8 |  0.00
Kspace  | 10.941     | 11.693     | 12.47      |  11.2 | 26.46
Neigh   | 4.4719     | 4.4745     | 4.4769     |   0.1 | 10.12
Comm    | 1.5378     | 1.6458     | 1.7874     |   5.4 |  3.72
Output  | 0.023533   | 0.040779   | 0.057496   |   5.0 |  0.09
Modify  | 5.1039     | 5.656      | 6.6875     |  14.9 | 12.80
Other   |            | 1.28       |            |       |  2.90

Nlocal:        219.429 ave         239 max         202 min
Histogram: 5 5 6 5 8 7 9 6 4 1
Nghost:        7284.84 ave        7349 max        7214 min
Histogram: 3 2 7 2 11 9 10 4 4 4
Neighs:        96081.5 ave      105478 max       87447 min
Histogram: 3 7 5 3 11 7 8 8 3 1

Total # of neighbors = 5380565
Ave neighs/atom = 437.8715
Ave special neighs/atom = 2
Neighbor list builds = 379
Dangerous builds = 0
kspace_style pppm/tip4p 1.0e-5
next nloop
jump SELF loop_start
run 10000 # 10ps
PPPM initialization ...
  extracting TIP4P info from pair style
  using 12-bit tables for long-range coulomb
  G vector (1/distance) = 0.32815664
  grid = 50 75 50
  stencil order = 5
  estimated absolute RMS force accuracy = 0.0035802102
  estimated relative force accuracy = 1.0781697e-05
  using double precision KISS FFT
  3d grid and FFT values/proc = 15776 4000
Generated 0 of 1 mixed pair_coeff terms from geometric mixing rule
Per MPI rank memory allocation (min/avg/max) = 11.21 | 11.35 | 11.45 Mbytes
   Step          Temp          TotEng         PotEng          Pxy           v_sxy         v_strain     v_viscosity  
   1630000   428.94768     -37601.387     -48074.494     -1435.8978      0.13593615     407.5          0.00054374459
   1631000   434.63949     -37680.335     -48292.412     -2276.1349      0.22091247     407.75         0.00088364988
   1632000   434.06509     -37571.864     -48169.917     -2093.9094      0.2060588      408            0.00082423521
   1633000   430.14646     -37625.063     -48127.44      -1998.9551      0.19983777     408.25         0.00079935108
   1634000   431.61772     -37711.854     -48250.153     -2534.986       0.24947105     408.5          0.00099788418
   1635000   432.67579     -37416.794     -47980.926     -2269.668       0.22549881     408.75         0.00090199523
   1636000   431.50948     -37755.775     -48291.431     -2377.6338      0.22866117     409            0.00091464468
   1637000   437.91546     -37457.092     -48149.155     -2497.8808      0.24300737     409.25         0.0009720295 
   1638000   433.04076     -37653.219     -48226.262     -2053.5376      0.20330439     409.5          0.00081321756
   1639000   430.64465     -37560.469     -48075.01      -1963.4841      0.19588039     409.75         0.00078352156
   1640000   429.81641     -37738.722     -48233.04      -2272.6247      0.22274554     410            0.00089098216
Loop time of 51.5712 on 56 procs for 10000 steps with 12288 atoms

Performance: 16.754 ns/day, 1.433 hours/ns, 193.907 timesteps/s, 2.383 Matom-step/s
99.8% CPU use with 56 MPI tasks x no OpenMP threads

MPI task timing breakdown:
Section |  min time  |  avg time  |  max time  |%varavg| %total
---------------------------------------------------------------
Pair    | 18.74      | 19.653     | 20.653     |  10.1 | 38.11
Bond    | 0.0016548  | 0.0024378  | 0.0040032  |   0.9 |  0.00
Kspace  | 14.871     | 15.876     | 16.759     |  11.1 | 30.78
Neigh   | 4.5185     | 4.5213     | 4.5236     |   0.0 |  8.77
Comm    | 1.6379     | 1.7869     | 1.9996     |   5.9 |  3.46
Output  | 0.023652   | 0.040963   | 0.057722   |   5.0 |  0.08
Modify  | 7.3225     | 8.0368     | 9.4303     |  18.0 | 15.58
Other   |            | 1.655      |            |       |  3.21

Nlocal:        219.429 ave         243 max         198 min
Histogram: 3 2 3 9 13 11 9 3 2 1
Nghost:        6832.96 ave        6883 max        6769 min
Histogram: 4 1 5 3 6 10 9 7 8 3
Neighs:        96090.4 ave      106013 max       86122 min
Histogram: 3 2 2 13 8 9 10 4 3 2

Total # of neighbors = 5381061
Ave neighs/atom = 437.91187
Ave special neighs/atom = 2
Neighbor list builds = 380
Dangerous builds = 0
kspace_style pppm/tip4p 1.0e-5
next nloop
jump SELF loop_start
run 10000 # 10ps
PPPM initialization ...
  extracting TIP4P info from pair style
  using 12-bit tables for long-range coulomb
  G vector (1/distance) = 0.32815664
  grid = 50 50 50
  stencil order = 5
  estimated absolute RMS force accuracy = 0.0035802102
  estimated relative force accuracy = 1.0781697e-05
  using double precision KISS FFT
  3d grid and FFT values/proc = 11424 2800
Generated 0 of 1 mixed pair_coeff terms from geometric mixing rule
Per MPI rank memory allocation (min/avg/max) = 10.92 | 11.04 | 11.13 Mbytes
   Step          Temp          TotEng         PotEng          Pxy           v_sxy         v_strain     v_viscosity  
   1640000   430.16574     -37728.949     -48231.796     -1681.409       0.16174275     410            0.00064697102
   1641000   435.53325     -37515.797     -48149.696     -2053.4268      0.2040282      410.25         0.00081611282
   1642000   431.1776      -37855.436     -48382.989     -2156.1108      0.21409841     410.5          0.00085639364
   1643000   434.54286     -37501.077     -48110.795     -2401.0247      0.23881611     410.75         0.00095526442
   1644000   433.03833     -37633.07      -48206.054     -1935.8562      0.19079441     411            0.00076317763
   1645000   429.45338     -37852.152     -48337.607     -2210.8358      0.21710622     411.25         0.00086842487
   1646000   428.54775     -37671.505     -48134.848     -2410.3598      0.23889649     411.5          0.00095558594
   1647000   431.80775     -37697.197     -48240.135     -2344.4845      0.22832138     411.75         0.00091328554
   1648000   431.72457     -37610.234     -48151.141     -2671.1377      0.26172837     412            0.0010469135 
   1649000   424.1196      -37981.171     -48336.396     -1708.3167      0.17018426     412.25         0.00068073703
   1650000   428.89161     -37784.06      -48255.799     -1823.8947      0.18241745     412.5          0.00072966979
Loop time of 44.1838 on 56 procs for 10000 steps with 12288 atoms

Performance: 19.555 ns/day, 1.227 hours/ns, 226.327 timesteps/s, 2.781 Matom-step/s
99.8% CPU use with 56 MPI tasks x no OpenMP threads

MPI task timing breakdown:
Section |  min time  |  avg time  |  max time  |%varavg| %total
---------------------------------------------------------------
Pair    | 18.635     | 19.411     | 20.279     |   8.7 | 43.93
Bond    | 0.0012185  | 0.0020903  | 0.0029602  |   0.8 |  0.00
Kspace  | 10.932     | 11.693     | 12.44      |  10.6 | 26.47
Neigh   | 4.4725     | 4.4753     | 4.4776     |   0.0 | 10.13
Comm    | 1.5437     | 1.6304     | 1.7891     |   4.8 |  3.69
Output  | 0.02336    | 0.04066    | 0.057485   |   5.0 |  0.09
Modify  | 5.1057     | 5.6497     | 6.6786     |  14.9 | 12.79
Other   |            | 1.281      |            |       |  2.90

Nlocal:        219.429 ave         240 max         202 min
Histogram: 3 4 7 12 6 8 5 7 1 3
Nghost:        7300.27 ave        7373 max        7227 min
Histogram: 2 4 6 7 7 11 9 3 3 4
Neighs:        96069.2 ave      106181 max       87047 min
Histogram: 3 4 8 7 9 10 4 7 1 3

Total # of neighbors = 5379875
Ave neighs/atom = 437.81535
Ave special neighs/atom = 2
Neighbor list builds = 378
Dangerous builds = 0
kspace_style pppm/tip4p 1.0e-5
next nloop
jump SELF loop_start
run 10000 # 10ps
PPPM initialization ...
  extracting TIP4P info from pair style
  using 12-bit tables for long-range coulomb
  G vector (1/distance) = 0.32815664
  grid = 50 75 50
  stencil order = 5
  estimated absolute RMS force accuracy = 0.0035802102
  estimated relative force accuracy = 1.0781697e-05
  using double precision KISS FFT
  3d grid and FFT values/proc = 15776 4000
Generated 0 of 1 mixed pair_coeff terms from geometric mixing rule
Per MPI rank memory allocation (min/avg/max) = 11.21 | 11.35 | 11.45 Mbytes
   Step          Temp          TotEng         PotEng          Pxy           v_sxy         v_strain     v_viscosity  
   1650000   428.9134      -37784.306     -48256.576     -1347.1824      0.13379667     412.5          0.0005351867 
   1651000   435.62493     -37557.439     -48193.577     -1930.9976      0.18793858     412.75         0.00075175433
   1652000   425.48613     -37997.243     -48385.834     -2278.6184      0.23144319     413            0.00092577275
   1653000   428.47278     -37662.152     -48123.664     -2354.6576      0.23497975     413.25         0.000939919  
   1654000   432.64226     -37498.784     -48062.097     -1898.985       0.18512631     413.5          0.00074050522
   1655000   428.2484      -37792.636     -48248.67      -2026.4654      0.19334528     413.75         0.00077338112
   1656000   430.73336     -37712.568     -48229.274     -2460.553       0.24023867     414            0.00096095467
   1657000   434.60726     -37632.024     -48243.315     -1940.4639      0.19321685     414.25         0.00077286739
   1658000   429.24122     -37745.862     -48226.136     -2282.5603      0.22929234     414.5          0.00091716935
   1659000   424.11681     -37811.858     -48167.015     -2321.4039      0.2290761      414.75         0.00091630441
   1660000   432.39609     -37759.176     -48316.479     -2246.9235      0.21706169     415            0.00086824674
Loop time of 51.4494 on 56 procs for 10000 steps with 12288 atoms

Performance: 16.793 ns/day, 1.429 hours/ns, 194.366 timesteps/s, 2.388 Matom-step/s
99.8% CPU use with 56 MPI tasks x no OpenMP threads

MPI task timing breakdown:
Section |  min time  |  avg time  |  max time  |%varavg| %total
---------------------------------------------------------------
Pair    | 18.868     | 19.65      | 20.457     |   9.5 | 38.19
Bond    | 0.0017298  | 0.0024118  | 0.0035924  |   0.8 |  0.00
Kspace  | 14.923     | 15.729     | 16.561     |  10.0 | 30.57
Neigh   | 4.4922     | 4.4949     | 4.4973     |   0.1 |  8.74
Comm    | 1.6531     | 1.7962     | 1.9751     |   6.1 |  3.49
Output  | 0.02315    | 0.040314   | 0.056907   |   5.0 |  0.08
Modify  | 7.3345     | 8.0503     | 9.4546     |  17.9 | 15.65
Other   |            | 1.687      |            |       |  3.28

Nlocal:        219.429 ave         235 max         200 min
Histogram: 1 2 4 6 4 14 9 9 4 3
Nghost:        6855.38 ave        6907 max        6796 min
Histogram: 3 1 6 6 11 5 9 4 7 4
Neighs:        96066.4 ave      103949 max       86812 min
Histogram: 2 1 6 5 8 15 6 8 2 3

Total # of neighbors = 5379718
Ave neighs/atom = 437.80257
Ave special neighs/atom = 2
Neighbor list builds = 381
Dangerous builds = 0
kspace_style pppm/tip4p 1.0e-5
next nloop
jump SELF loop_start
run 10000 # 10ps
PPPM initialization ...
  extracting TIP4P info from pair style
  using 12-bit tables for long-range coulomb
  G vector (1/distance) = 0.32815664
  grid = 50 50 50
  stencil order = 5
  estimated absolute RMS force accuracy = 0.0035802102
  estimated relative force accuracy = 1.0781697e-05
  using double precision KISS FFT
  3d grid and FFT values/proc = 11424 2800
Generated 0 of 1 mixed pair_coeff terms from geometric mixing rule
Per MPI rank memory allocation (min/avg/max) = 10.92 | 11.04 | 11.13 Mbytes
   Step          Temp          TotEng         PotEng          Pxy           v_sxy         v_strain     v_viscosity  
   1660000   432.25049     -37763.571     -48317.319     -1724.6619      0.16369338     415            0.0006547735 
   1661000   430.9317      -37594.653     -48116.202     -2222.5577      0.21574238     415.25         0.00086296951
   1662000   430.55378     -37862.678     -48374.999     -1981.7162      0.19730345     415.5          0.0007892138 
   1663000   432.853       -37504.451     -48072.91      -2009.5734      0.19499317     415.75         0.00077997267
   1664000   428.65899     -37669.783     -48135.842     -2072.4585      0.20278665     416            0.00081114658
   1665000   427.60778     -37639.027     -48079.42      -1876.7665      0.18494315     416.25         0.0007397726 
   1666000   427.34515     -37707.472     -48141.452     -2133.5042      0.20974518     416.5          0.00083898072
   1667000   429.25663     -37730.292     -48210.943     -2212.9314      0.21612594     416.75         0.00086450374
   1668000   435.03918     -37559.262     -48181.098     -2366.3976      0.23382287     417            0.00093529147
   1669000   428.0696      -37786.36      -48238.028     -2204.6955      0.21985759     417.25         0.00087943038
   1670000   433.12123     -37507.854     -48082.862     -2178.445       0.21417318     417.5          0.00085669273
Loop time of 44.0743 on 56 procs for 10000 steps with 12288 atoms

Performance: 19.603 ns/day, 1.224 hours/ns, 226.890 timesteps/s, 2.788 Matom-step/s
99.8% CPU use with 56 MPI tasks x no OpenMP threads

MPI task timing breakdown:
Section |  min time  |  avg time  |  max time  |%varavg| %total
---------------------------------------------------------------
Pair    | 18.687     | 19.415     | 20.095     |   7.5 | 44.05
Bond    | 0.0012679  | 0.002102   | 0.00302    |   0.7 |  0.00
Kspace  | 10.833     | 11.564     | 12.359     |   9.5 | 26.24
Neigh   | 4.4715     | 4.4743     | 4.4763     |   0.0 | 10.15
Comm    | 1.5476     | 1.6428     | 1.7994     |   5.0 |  3.73
Output  | 0.0234     | 0.040866   | 0.057706   |   5.0 |  0.09
Modify  | 5.1143     | 5.6659     | 6.665      |  14.9 | 12.86
Other   |            | 1.269      |            |       |  2.88

Nlocal:        219.429 ave         233 max         202 min
Histogram: 4 1 1 5 8 12 10 4 7 4
Nghost:        7282.84 ave        7343 max        7219 min
Histogram: 2 3 7 7 7 8 8 7 6 1
Neighs:        96045.9 ave      102016 max       87724 min
Histogram: 3 2 1 2 12 10 10 4 6 6

Total # of neighbors = 5378568
Ave neighs/atom = 437.70898
Ave special neighs/atom = 2
Neighbor list builds = 381
Dangerous builds = 0
kspace_style pppm/tip4p 1.0e-5
next nloop
jump SELF loop_start
run 10000 # 10ps
PPPM initialization ...
  extracting TIP4P info from pair style
  using 12-bit tables for long-range coulomb
  G vector (1/distance) = 0.32815664
  grid = 50 75 50
  stencil order = 5
  estimated absolute RMS force accuracy = 0.0035802102
  estimated relative force accuracy = 1.0781697e-05
  using double precision KISS FFT
  3d grid and FFT values/proc = 15776 4000
Generated 0 of 1 mixed pair_coeff terms from geometric mixing rule
Per MPI rank memory allocation (min/avg/max) = 11.21 | 11.35 | 11.45 Mbytes
   Step          Temp          TotEng         PotEng          Pxy           v_sxy         v_strain     v_viscosity  
   1670000   433.08192     -37509.249     -48083.297     -1710.8243      0.16668904     417.5          0.00066675616
   1671000   425.31922     -37612.911     -47997.426     -1917.3315      0.18734235     417.75         0.00074936938
   1672000   429.60714     -37676.496     -48165.704     -2522.4001      0.25144532     418            0.0010057813 
   1673000   428.99446     -37649.043     -48123.293     -1985.4771      0.19762375     418.25         0.000790495  
   1674000   432.41897     -37646.326     -48204.188     -2250.5775      0.2183582      418.5          0.00087343279
   1675000   430.00022     -37557.133     -48055.939     -2215.5449      0.22036721     418.75         0.00088146884
   1676000   428.30928     -37729.273     -48186.793     -2019.616       0.19951099     419            0.00079804396
   1677000   432.02348     -37824.536     -48372.742     -2368.1097      0.23322774     419.25         0.00093291094
   1678000   430.1583      -37796.587     -48299.252     -2062.3551      0.20006299     419.5          0.00080025195
   1679000   435.66096     -37617.037     -48254.054     -2295.2471      0.22286787     419.75         0.00089147147
   1680000   439.74006     -37269.88      -48006.492     -1986.736       0.19429871     420            0.00077719482
Loop time of 51.6029 on 56 procs for 10000 steps with 12288 atoms

Performance: 16.743 ns/day, 1.433 hours/ns, 193.788 timesteps/s, 2.381 Matom-step/s
99.8% CPU use with 56 MPI tasks x no OpenMP threads

MPI task timing breakdown:
Section |  min time  |  avg time  |  max time  |%varavg| %total
---------------------------------------------------------------
Pair    | 18.665     | 19.653     | 20.66      |   8.6 | 38.09
Bond    | 0.0016421  | 0.0024335  | 0.0038479  |   0.9 |  0.00
Kspace  | 14.868     | 15.88      | 16.78      |   9.6 | 30.77
Neigh   | 4.5069     | 4.5098     | 4.5118     |   0.0 |  8.74
Comm    | 1.6558     | 1.7995     | 1.9764     |   5.7 |  3.49
Output  | 0.023891   | 0.041132   | 0.057832   |   4.9 |  0.08
Modify  | 7.3147     | 8.0452     | 9.4524     |  18.0 | 15.59
Other   |            | 1.671      |            |       |  3.24

Nlocal:        219.429 ave         239 max         198 min
Histogram: 2 2 5 11 7 4 12 7 3 3
Nghost:        6845.96 ave        6928 max        6785 min
Histogram: 6 2 8 9 8 10 9 2 1 1
Neighs:        96075.4 ave      106055 max       84734 min
Histogram: 1 2 7 9 7 8 7 10 2 3

Total # of neighbors = 5380225
Ave neighs/atom = 437.84383
Ave special neighs/atom = 2
Neighbor list builds = 381
Dangerous builds = 0
kspace_style pppm/tip4p 1.0e-5
next nloop
jump SELF loop_start
run 10000 # 10ps
PPPM initialization ...
  extracting TIP4P info from pair style
  using 12-bit tables for long-range coulomb
  G vector (1/distance) = 0.32815664
  grid = 50 50 50
  stencil order = 5
  estimated absolute RMS force accuracy = 0.0035802102
  estimated relative force accuracy = 1.0781697e-05
  using double precision KISS FFT
  3d grid and FFT values/proc = 11424 2800
Generated 0 of 1 mixed pair_coeff terms from geometric mixing rule
Per MPI rank memory allocation (min/avg/max) = 10.92 | 11.04 | 11.13 Mbytes
   Step          Temp          TotEng         PotEng          Pxy           v_sxy         v_strain     v_viscosity  
   1680000   439.78179     -37269.292     -48006.923     -1437.1899      0.13857464     420            0.00055429854
   1681000   430.62243     -37659.87      -48173.868     -2317.1006      0.22735903     420.25         0.0009094361 
   1682000   430.11798     -37607.779     -48109.46      -2562.3112      0.24798511     420.5          0.00099194045
   1683000   432.36477     -37514.831     -48071.369     -2409.9295      0.23429558     420.75         0.00093718232
   1684000   432.63238     -37497.444     -48060.516     -2261.9242      0.21890132     421            0.00087560529
   1685000   432.3784      -37781.511     -48338.383     -2159.7365      0.21242301     421.25         0.00084969202
   1686000   433.54791     -37661.722     -48247.147     -2249.7573      0.21821937     421.5          0.00087287747
   1687000   433.13442     -37658.633     -48233.963     -2161.6448      0.21708402     421.75         0.00086833606
   1688000   432.83151     -37628.564     -48196.498     -2094.1105      0.20508743     422            0.00082034974
   1689000   434.36101     -37480.741     -48086.019     -2513.2143      0.24973656     422.25         0.00099894622
   1690000   431.34877     -37635.984     -48167.716     -1910.5278      0.19014505     422.5          0.0007605802 
Loop time of 44.533 on 56 procs for 10000 steps with 12288 atoms

Performance: 19.401 ns/day, 1.237 hours/ns, 224.552 timesteps/s, 2.759 Matom-step/s
99.8% CPU use with 56 MPI tasks x no OpenMP threads

MPI task timing breakdown:
Section |  min time  |  avg time  |  max time  |%varavg| %total
---------------------------------------------------------------
Pair    | 18.509     | 19.394     | 20.562     |  10.7 | 43.55
Bond    | 0.001237   | 0.0021109  | 0.0031041  |   0.8 |  0.00
Kspace  | 10.836     | 11.996     | 12.814     |  13.6 | 26.94
Neigh   | 4.5374     | 4.5403     | 4.5424     |   0.0 | 10.20
Comm    | 1.536      | 1.639      | 1.7847     |   4.9 |  3.68
Output  | 0.023473   | 0.040752   | 0.05746    |   5.0 |  0.09
Modify  | 5.1403     | 5.6579     | 6.6555     |  14.9 | 12.70
Other   |            | 1.263      |            |       |  2.84

Nlocal:        219.429 ave         231 max         201 min
Histogram: 2 2 2 8 5 5 2 10 12 8
Nghost:        7264.04 ave        7324 max        7208 min
Histogram: 4 5 3 6 9 9 11 5 3 1
Neighs:        96061.8 ave      102058 max       87014 min
Histogram: 3 1 1 10 5 3 5 15 7 6

Total # of neighbors = 5379458
Ave neighs/atom = 437.78141
Ave special neighs/atom = 2
Neighbor list builds = 383
Dangerous builds = 0
kspace_style pppm/tip4p 1.0e-5
next nloop
jump SELF loop_start
run 10000 # 10ps
PPPM initialization ...
  extracting TIP4P info from pair style
  using 12-bit tables for long-range coulomb
  G vector (1/distance) = 0.32815664
  grid = 50 75 50
  stencil order = 5
  estimated absolute RMS force accuracy = 0.0035802102
  estimated relative force accuracy = 1.0781697e-05
  using double precision KISS FFT
  3d grid and FFT values/proc = 15776 4000
Generated 0 of 1 mixed pair_coeff terms from geometric mixing rule
Per MPI rank memory allocation (min/avg/max) = 11.21 | 11.35 | 11.45 Mbytes
   Step          Temp          TotEng         PotEng          Pxy           v_sxy         v_strain     v_viscosity  
   1690000   430.98178     -37645.28      -48168.051     -1355.4215      0.13293661     422.5          0.00053174642
   1691000   432.82652     -37466.229     -48034.041     -2281.7409      0.22170329     422.75         0.00088681317
   1692000   433.58239     -37470.585     -48056.853     -2150.8313      0.21208446     423            0.00084833785
   1693000   436.30179     -37611.241     -48263.904     -2121.7838      0.20631512     423.25         0.00082526047
   1694000   431.40675     -37650.393     -48183.541     -2168.2072      0.2172491      423.5          0.00086899641
   1695000   436.46526     -37482.948     -48139.604     -1916.8795      0.18953565     423.75         0.00075814261
   1696000   432.3215      -37613.292     -48168.774     -1947.5807      0.19476095     424            0.0007790438 
   1697000   434.16139     -37655.607     -48256.012     -2503.0543      0.24464876     424.25         0.00097859503
   1698000   432.13252     -37720.719     -48271.587     -2097.693       0.21615794     424.5          0.00086463178
   1699000   427.67478     -37790.708     -48232.736     -2298.9193      0.22659904     424.75         0.00090639617
   1700000   431.65168     -37645.549     -48184.676     -1823.0264      0.17429513     425            0.00069718054
Loop time of 51.3985 on 56 procs for 10000 steps with 12288 atoms

Performance: 16.810 ns/day, 1.428 hours/ns, 194.558 timesteps/s, 2.391 Matom-step/s
99.8% CPU use with 56 MPI tasks x no OpenMP threads

MPI task timing breakdown:
Section |  min time  |  avg time  |  max time  |%varavg| %total
---------------------------------------------------------------
Pair    | 18.953     | 19.639     | 20.565     |   7.5 | 38.21
Bond    | 0.0016227  | 0.0024346  | 0.0039999  |   0.9 |  0.00
Kspace  | 14.61      | 15.73      | 16.359     |   8.2 | 30.60
Neigh   | 4.4968     | 4.4995     | 4.5016     |   0.1 |  8.75
Comm    | 1.6355     | 1.7975     | 1.9927     |   6.1 |  3.50
Output  | 0.023355   | 0.040593   | 0.057222   |   5.0 |  0.08
Modify  | 7.3302     | 8.0214     | 9.4199     |  18.1 | 15.61
Other   |            | 1.668      |            |       |  3.24

Nlocal:        219.429 ave         235 max         204 min
Histogram: 5 3 4 7 7 8 8 8 3 3
Nghost:        6834.64 ave        6879 max        6784 min
Histogram: 3 3 4 7 11 3 7 9 5 4
Neighs:        96025.5 ave      103036 max       89121 min
Histogram: 5 4 4 7 7 8 6 7 6 2

Total # of neighbors = 5377430
Ave neighs/atom = 437.61637
Ave special neighs/atom = 2
Neighbor list builds = 382
Dangerous builds = 0
kspace_style pppm/tip4p 1.0e-5
next nloop
jump SELF loop_start
run 10000 # 10ps
PPPM initialization ...
  extracting TIP4P info from pair style
  using 12-bit tables for long-range coulomb
  G vector (1/distance) = 0.32815664
  grid = 50 50 50
  stencil order = 5
  estimated absolute RMS force accuracy = 0.0035802102
  estimated relative force accuracy = 1.0781697e-05
  using double precision KISS FFT
  3d grid and FFT values/proc = 11424 2800
Generated 0 of 1 mixed pair_coeff terms from geometric mixing rule
Per MPI rank memory allocation (min/avg/max) = 10.92 | 11.04 | 11.13 Mbytes
   Step          Temp          TotEng         PotEng          Pxy           v_sxy         v_strain     v_viscosity  
   1700000   431.58967     -37650.782     -48188.396     -1360.2156      0.12711387     425            0.00050845546
   1701000   435.19052     -37516.464     -48141.996     -2077.6833      0.19988589     425.25         0.00079954355
   1702000   436.21962     -37466.68      -48117.338     -2370.2779      0.23064948     425.5          0.00092259791
   1703000   427.26131     -37838.021     -48269.954     -2187.5862      0.21487708     425.75         0.00085950833
   1704000   427.48381     -37727.59      -48164.956     -2132.6139      0.2129243      426            0.0008516972 
   1705000   433.35128     -37566.425     -48147.05      -2031.9796      0.19866675     426.25         0.000794667  
   1706000   431.18555     -37523.962     -48051.709     -2293.0699      0.22158664     426.5          0.00088634656
   1707000   432.96682     -37593.596     -48164.834     -1977.1755      0.19929172     426.75         0.00079716689
   1708000   433.41843     -37579.202     -48161.466     -2266.6618      0.22149734     427            0.00088598937
   1709000   433.19047     -37602.755     -48179.454     -2280.0478      0.22402453     427.25         0.0008960981 
   1710000   432.92159     -37692.595     -48262.729     -1918.1417      0.1912499      427.5          0.0007649996 
Loop time of 44.1624 on 56 procs for 10000 steps with 12288 atoms

Performance: 19.564 ns/day, 1.227 hours/ns, 226.437 timesteps/s, 2.782 Matom-step/s
99.8% CPU use with 56 MPI tasks x no OpenMP threads

MPI task timing breakdown:
Section |  min time  |  avg time  |  max time  |%varavg| %total
---------------------------------------------------------------
Pair    | 18.817     | 19.406     | 20.239     |   7.6 | 43.94
Bond    | 0.0012184  | 0.002113   | 0.003      |   0.8 |  0.00
Kspace  | 10.937     | 11.641     | 12.221     |   9.4 | 26.36
Neigh   | 4.4645     | 4.4668     | 4.4687     |   0.0 | 10.11
Comm    | 1.5621     | 1.6743     | 1.8149     |   5.3 |  3.79
Output  | 0.023466   | 0.040754   | 0.057551   |   5.0 |  0.09
Modify  | 5.104      | 5.6591     | 6.6876     |  15.1 | 12.81
Other   |            | 1.272      |            |       |  2.88

Nlocal:        219.429 ave         236 max         192 min
Histogram: 1 1 2 2 5 11 11 16 5 2
Nghost:        7274.45 ave        7374 max        7190 min
Histogram: 5 5 3 8 11 9 9 2 1 3
Neighs:        96064.9 ave      104443 max       81598 min
Histogram: 1 1 1 3 6 9 10 13 9 3

Total # of neighbors = 5379633
Ave neighs/atom = 437.79565
Ave special neighs/atom = 2
Neighbor list builds = 379
Dangerous builds = 0
kspace_style pppm/tip4p 1.0e-5
next nloop
jump SELF loop_start
run 10000 # 10ps
PPPM initialization ...
  extracting TIP4P info from pair style
  using 12-bit tables for long-range coulomb
  G vector (1/distance) = 0.32815664
  grid = 50 75 50
  stencil order = 5
  estimated absolute RMS force accuracy = 0.0035802102
  estimated relative force accuracy = 1.0781697e-05
  using double precision KISS FFT
  3d grid and FFT values/proc = 15776 4000
Generated 0 of 1 mixed pair_coeff terms from geometric mixing rule
Per MPI rank memory allocation (min/avg/max) = 11.21 | 11.35 | 11.45 Mbytes
   Step          Temp          TotEng         PotEng          Pxy           v_sxy         v_strain     v_viscosity  
   1710000   432.93189     -37692.338     -48262.723     -1284.0943      0.12644506     427.5          0.00050578024
   1711000   426.25871     -37726.706     -48134.16      -2336.104       0.22961397     427.75         0.00091845589
   1712000   429.78837     -37653.625     -48147.258     -1983.4663      0.19222302     428            0.00076889209
   1713000   430.69355     -37617.812     -48133.546     -2207.2355      0.21751204     428.25         0.00087004815
   1714000   430.9301      -37622.362     -48143.872     -2121.0851      0.21004752     428.5          0.00084019006
   1715000   433.01169     -37622.612     -48194.946     -2073.009       0.19948286     428.75         0.00079793146
   1716000   433.42223     -37660.793     -48243.15      -1936.4458      0.18975144     429            0.00075900578
   1717000   433.55896     -37438.859     -48024.554     -2014.3102      0.19593074     429.25         0.00078372294
   1718000   431.77597     -37607.575     -48149.737     -2100.9085      0.20602685     429.5          0.00082410741
   1719000   429.83945     -37690.029     -48184.91      -1876.6283      0.18808564     429.75         0.00075234256
   1720000   425.89043     -37923.469     -48321.931     -2085.0156      0.20559677     430            0.00082238707
Loop time of 51.7214 on 56 procs for 10000 steps with 12288 atoms

Performance: 16.705 ns/day, 1.437 hours/ns, 193.344 timesteps/s, 2.376 Matom-step/s
99.8% CPU use with 56 MPI tasks x no OpenMP threads

MPI task timing breakdown:
Section |  min time  |  avg time  |  max time  |%varavg| %total
---------------------------------------------------------------
Pair    | 18.386     | 19.662     | 20.405     |   9.2 | 38.02
Bond    | 0.001666   | 0.0024377  | 0.0038757  |   0.9 |  0.00
Kspace  | 15.019     | 15.973     | 17.106     |  10.3 | 30.88
Neigh   | 4.522      | 4.5244     | 4.5264     |   0.0 |  8.75
Comm    | 1.6377     | 1.8124     | 2.0161     |   6.5 |  3.50
Output  | 0.023742   | 0.040997   | 0.057748   |   5.0 |  0.08
Modify  | 7.2879     | 8.0174     | 9.4434     |  18.4 | 15.50
Other   |            | 1.688      |            |       |  3.26

Nlocal:        219.429 ave         236 max         205 min
Histogram: 4 6 7 7 8 6 4 7 5 2
Nghost:        6841.88 ave        6901 max        6763 min
Histogram: 3 3 2 5 6 8 11 8 6 4
Neighs:        96073.7 ave      104462 max       88306 min
Histogram: 2 6 5 11 6 9 5 6 3 3

Total # of neighbors = 5380128
Ave neighs/atom = 437.83594
Ave special neighs/atom = 2
Neighbor list builds = 382
Dangerous builds = 0
kspace_style pppm/tip4p 1.0e-5
next nloop
jump SELF loop_start
run 10000 # 10ps
PPPM initialization ...
  extracting TIP4P info from pair style
  using 12-bit tables for long-range coulomb
  G vector (1/distance) = 0.32815664
  grid = 50 50 50
  stencil order = 5
  estimated absolute RMS force accuracy = 0.0035802102
  estimated relative force accuracy = 1.0781697e-05
  using double precision KISS FFT
  3d grid and FFT values/proc = 11424 2800
Generated 0 of 1 mixed pair_coeff terms from geometric mixing rule
Per MPI rank memory allocation (min/avg/max) = 10.92 | 11.04 | 11.13 Mbytes
   Step          Temp          TotEng         PotEng          Pxy           v_sxy         v_strain     v_viscosity  
   1720000   425.36216     -37937.488     -48323.051     -1554.3141      0.15100977     430            0.00060403907
   1721000   432.9382      -37694.16      -48264.699     -2224.2558      0.21940077     430.25         0.00087760306
   1722000   431.45231     -37600.041     -48134.301     -1972.8344      0.19407546     430.5          0.00077630186
   1723000   431.99591     -37729.544     -48277.077     -2220.2634      0.21230625     430.75         0.00084922499
   1724000   428.11694     -37824.934     -48277.758     -2323.6075      0.23241175     431            0.000929647  
   1725000   432.0541      -37566.698     -48115.651     -2151.1843      0.21020759     431.25         0.00084083034
   1726000   435.65687     -37452.761     -48089.679     -2205.2944      0.20836786     431.5          0.00083347142
   1727000   427.19448     -37793.209     -48223.511     -2126.2319      0.20992386     431.75         0.00083969543
   1728000   430.80612     -37617.526     -48136.009     -2014.4468      0.19838994     432            0.00079355976
   1729000   428.46632     -37670.56      -48131.915     -1961.4993      0.19394486     432.25         0.00077577944
   1730000   434.18127     -37535.339     -48136.229     -2104.2469      0.20836568     432.5          0.00083346273
Loop time of 44.4069 on 56 procs for 10000 steps with 12288 atoms

Performance: 19.456 ns/day, 1.234 hours/ns, 225.190 timesteps/s, 2.767 Matom-step/s
99.8% CPU use with 56 MPI tasks x no OpenMP threads

MPI task timing breakdown:
Section |  min time  |  avg time  |  max time  |%varavg| %total
---------------------------------------------------------------
Pair    | 18.542     | 19.383     | 20.513     |   9.9 | 43.65
Bond    | 0.0012305  | 0.0021294  | 0.0031069  |   0.8 |  0.00
Kspace  | 10.684     | 11.864     | 12.645     |  12.3 | 26.72
Neigh   | 4.542      | 4.5446     | 4.5466     |   0.0 | 10.23
Comm    | 1.5202     | 1.6398     | 1.8082     |   4.6 |  3.69
Output  | 0.023317   | 0.040684   | 0.057478   |   5.0 |  0.09
Modify  | 5.1295     | 5.6575     | 6.6864     |  14.9 | 12.74
Other   |            | 1.275      |            |       |  2.87

Nlocal:        219.429 ave         242 max         201 min
Histogram: 5 3 10 7 8 6 11 2 2 2
Nghost:        7279.46 ave        7354 max        7230 min
Histogram: 7 9 8 7 7 6 2 4 3 3
Neighs:          96085 ave      107972 max       87657 min
Histogram: 7 5 8 8 7 7 8 2 2 2

Total # of neighbors = 5380761
Ave neighs/atom = 437.88745
Ave special neighs/atom = 2
Neighbor list builds = 385
Dangerous builds = 0
kspace_style pppm/tip4p 1.0e-5
next nloop
jump SELF loop_start
run 10000 # 10ps
PPPM initialization ...
  extracting TIP4P info from pair style
  using 12-bit tables for long-range coulomb
  G vector (1/distance) = 0.32815664
  grid = 50 75 50
  stencil order = 5
  estimated absolute RMS force accuracy = 0.0035802102
  estimated relative force accuracy = 1.0781697e-05
  using double precision KISS FFT
  3d grid and FFT values/proc = 15776 4000
Generated 0 of 1 mixed pair_coeff terms from geometric mixing rule
Per MPI rank memory allocation (min/avg/max) = 11.21 | 11.35 | 11.45 Mbytes
   Step          Temp          TotEng         PotEng          Pxy           v_sxy         v_strain     v_viscosity  
   1730000   434.43474     -37529.254     -48136.332     -1687.7656      0.16576539     432.5          0.00066306157
   1731000   438.61117     -37404.155     -48113.204     -2162.2553      0.21495078     432.75         0.00085980313
   1732000   431.71437     -37727.049     -48267.707     -1925.6014      0.19126858     433            0.00076507433
   1733000   436.80813     -37540.828     -48205.855     -2396.2006      0.23411913     433.25         0.00093647651
   1734000   432.99866     -37563.062     -48135.077     -2210.7049      0.21607892     433.5          0.0008643157 
   1735000   432.99641     -37708.857     -48280.817     -2188.5604      0.21854016     433.75         0.00087416064
   1736000   433.92935     -37542.883     -48137.621     -2224.0215      0.22062933     434            0.00088251732
   1737000   427.5673      -37777.329     -48216.733     -2332.7467      0.23127411     434.25         0.00092509642
   1738000   432.03329     -37625.99      -48174.435     -1777.644       0.1792131      434.5          0.00071685239
   1739000   432.36027     -37703.559     -48259.987     -2293.7782      0.22189473     434.75         0.00088757892
   1740000   432.54358     -37431.942     -47992.846     -2136.4195      0.21118783     435            0.00084475133
Loop time of 51.5544 on 56 procs for 10000 steps with 12288 atoms

Performance: 16.759 ns/day, 1.432 hours/ns, 193.970 timesteps/s, 2.383 Matom-step/s
99.8% CPU use with 56 MPI tasks x no OpenMP threads

MPI task timing breakdown:
Section |  min time  |  avg time  |  max time  |%varavg| %total
---------------------------------------------------------------
Pair    | 18.913     | 19.655     | 20.552     |   8.7 | 38.12
Bond    | 0.0015457  | 0.0024046  | 0.0037699  |   0.9 |  0.00
Kspace  | 14.823     | 15.821     | 16.627     |   9.4 | 30.69
Neigh   | 4.5322     | 4.535      | 4.537      |   0.1 |  8.80
Comm    | 1.6397     | 1.8043     | 1.9707     |   6.1 |  3.50
Output  | 0.023375   | 0.040469   | 0.05711    |   5.0 |  0.08
Modify  | 7.2585     | 8.0241     | 9.4525     |  18.0 | 15.56
Other   |            | 1.673      |            |       |  3.24

Nlocal:        219.429 ave         242 max         202 min
Histogram: 1 5 8 8 15 7 5 4 1 2
Nghost:        6855.73 ave        6934 max        6791 min
Histogram: 3 4 6 7 14 7 7 7 0 1
Neighs:        96069.4 ave      107824 max       88307 min
Histogram: 2 8 8 10 13 6 4 3 1 1

Total # of neighbors = 5379884
Ave neighs/atom = 437.81608
Ave special neighs/atom = 2
Neighbor list builds = 384
Dangerous builds = 0
kspace_style pppm/tip4p 1.0e-5
next nloop
jump SELF loop_start
run 10000 # 10ps
PPPM initialization ...
  extracting TIP4P info from pair style
  using 12-bit tables for long-range coulomb
  G vector (1/distance) = 0.32815664
  grid = 50 50 50
  stencil order = 5
  estimated absolute RMS force accuracy = 0.0035802102
  estimated relative force accuracy = 1.0781697e-05
  using double precision KISS FFT
  3d grid and FFT values/proc = 11424 2800
Generated 0 of 1 mixed pair_coeff terms from geometric mixing rule
Per MPI rank memory allocation (min/avg/max) = 10.92 | 11.04 | 11.13 Mbytes
   Step          Temp          TotEng         PotEng          Pxy           v_sxy         v_strain     v_viscosity  
   1740000   432.33596     -37433.842     -47989.677     -1665.022       0.16309079     435            0.00065236316
   1741000   428.05101     -37811.715     -48262.93      -2098.5648      0.20393443     435.25         0.00081573771
   1742000   431.02839     -37627.618     -48151.528     -1923.8933      0.19303628     435.5          0.00077214511
   1743000   434.20936     -37478.167     -48079.742     -2346.7713      0.22972195     435.75         0.00091888778
   1744000   432.70955     -37751.081     -48316.037     -2321.9005      0.22502683     436            0.00090010734
   1745000   434.03066     -37716.911     -48314.123     -1964.3289      0.19257556     436.25         0.00077030225
   1746000   435.72631     -37619.351     -48257.964     -1837.1424      0.18186656     436.5          0.00072746623
   1747000   438.42705     -37511.693     -48216.247     -2198.7373      0.2186169      436.75         0.00087446761
   1748000   433.2202      -37600.332     -48177.756     -2233.9656      0.22440878     437            0.00089763514
   1749000   432.49134     -37643.748     -48203.376     -2228.2059      0.22058196     437.25         0.00088232785
   1750000   438.26703     -37467.972     -48168.619     -1962.3731      0.19020877     437.5          0.00076083509
Loop time of 44.2183 on 56 procs for 10000 steps with 12288 atoms

Performance: 19.539 ns/day, 1.228 hours/ns, 226.150 timesteps/s, 2.779 Matom-step/s
99.8% CPU use with 56 MPI tasks x no OpenMP threads

MPI task timing breakdown:
Section |  min time  |  avg time  |  max time  |%varavg| %total
---------------------------------------------------------------
Pair    | 18.387     | 19.389     | 20.436     |   9.7 | 43.85
Bond    | 0.0012396  | 0.0021045  | 0.003199   |   0.8 |  0.00
Kspace  | 10.762     | 11.736     | 12.668     |  12.3 | 26.54
Neigh   | 4.5098     | 4.5123     | 4.5145     |   0.0 | 10.20
Comm    | 1.5381     | 1.6399     | 1.7897     |   4.5 |  3.71
Output  | 0.023493   | 0.040801   | 0.057568   |   5.0 |  0.09
Modify  | 5.1309     | 5.65       | 6.6416     |  14.6 | 12.78
Other   |            | 1.249      |            |       |  2.82

Nlocal:        219.429 ave         239 max         201 min
Histogram: 2 2 8 9 9 11 3 9 0 3
Nghost:        7267.34 ave        7335 max        7201 min
Histogram: 3 3 4 10 7 11 7 8 1 2
Neighs:        96068.6 ave      106449 max       86977 min
Histogram: 2 3 6 13 9 9 6 5 1 2

Total # of neighbors = 5379843
Ave neighs/atom = 437.81274
Ave special neighs/atom = 2
Neighbor list builds = 382
Dangerous builds = 0
kspace_style pppm/tip4p 1.0e-5
next nloop
jump SELF loop_start
run 10000 # 10ps
PPPM initialization ...
  extracting TIP4P info from pair style
  using 12-bit tables for long-range coulomb
  G vector (1/distance) = 0.32815664
  grid = 50 75 50
  stencil order = 5
  estimated absolute RMS force accuracy = 0.0035802102
  estimated relative force accuracy = 1.0781697e-05
  using double precision KISS FFT
  3d grid and FFT values/proc = 15776 4000
Generated 0 of 1 mixed pair_coeff terms from geometric mixing rule
Per MPI rank memory allocation (min/avg/max) = 11.21 | 11.35 | 11.45 Mbytes
   Step          Temp          TotEng         PotEng          Pxy           v_sxy         v_strain     v_viscosity  
   1750000   437.7804      -37480.062     -48168.827     -1486.0299      0.14113986     437.5          0.00056455945
   1751000   436.94386     -37640.807     -48309.148     -2117.0772      0.20795203     437.75         0.00083180812
   1752000   429.83864     -37738.068     -48232.929     -2418.5748      0.24319717     438            0.00097278866
   1753000   431.70468     -37686.534     -48226.956     -2235.9646      0.22324486     438.25         0.00089297942
   1754000   432.73747     -37803.476     -48369.114     -2449.7835      0.24132468     438.5          0.00096529873
   1755000   442.43605     -37282.899     -48085.336     -2306.0489      0.2206431      438.75         0.00088257242
   1756000   433.48687     -37518.278     -48102.213     -2173.385       0.21089882     439            0.00084359528
   1757000   435.22139     -37614.682     -48240.967     -2237.2762      0.21713138     439.25         0.00086852553
   1758000   433.22801     -37597.936     -48175.551     -2356.567       0.23211432     439.5          0.00092845729
   1759000   437.14586     -37361.316     -48034.588     -2124.7466      0.21097312     439.75         0.00084389248
   1760000   427.46823     -37895.791     -48332.777     -2285.8865      0.2241847      440            0.00089673881
Loop time of 51.4386 on 56 procs for 10000 steps with 12288 atoms

Performance: 16.797 ns/day, 1.429 hours/ns, 194.407 timesteps/s, 2.389 Matom-step/s
99.8% CPU use with 56 MPI tasks x no OpenMP threads

MPI task timing breakdown:
Section |  min time  |  avg time  |  max time  |%varavg| %total
---------------------------------------------------------------
Pair    | 18.658     | 19.661     | 20.661     |   9.0 | 38.22
Bond    | 0.001699   | 0.0024102  | 0.0038288  |   0.9 |  0.00
Kspace  | 14.643     | 15.711     | 16.757     |  10.2 | 30.54
Neigh   | 4.5058     | 4.5083     | 4.5107     |   0.0 |  8.76
Comm    | 1.6567     | 1.793      | 2.0072     |   5.8 |  3.49
Output  | 0.023994   | 0.041204   | 0.057834   |   4.9 |  0.08
Modify  | 7.3348     | 8.0413     | 9.4529     |  18.0 | 15.63
Other   |            | 1.681      |            |       |  3.27

Nlocal:        219.429 ave         238 max         204 min
Histogram: 4 6 6 8 3 14 5 5 4 1
Nghost:        6831.34 ave        6898 max        6718 min
Histogram: 1 1 5 1 3 8 14 12 9 2
Neighs:        96071.6 ave      104217 max       87884 min
Histogram: 4 3 9 5 6 7 8 6 5 3

Total # of neighbors = 5380012
Ave neighs/atom = 437.8265
Ave special neighs/atom = 2
Neighbor list builds = 383
Dangerous builds = 0
kspace_style pppm/tip4p 1.0e-5
next nloop
jump SELF loop_start
run 10000 # 10ps
PPPM initialization ...
  extracting TIP4P info from pair style
  using 12-bit tables for long-range coulomb
  G vector (1/distance) = 0.32815664
  grid = 50 50 50
  stencil order = 5
  estimated absolute RMS force accuracy = 0.0035802102
  estimated relative force accuracy = 1.0781697e-05
  using double precision KISS FFT
  3d grid and FFT values/proc = 11424 2800
Generated 0 of 1 mixed pair_coeff terms from geometric mixing rule
Per MPI rank memory allocation (min/avg/max) = 10.92 | 11.04 | 11.13 Mbytes
   Step          Temp          TotEng         PotEng          Pxy           v_sxy         v_strain     v_viscosity  
   1760000   427.60376     -37891.284     -48331.579     -1671.8936      0.16160061     440            0.00064640243
   1761000   431.38513     -37622.478     -48155.097     -2227.1168      0.21707059     440.25         0.00086828235
   1762000   430.91171     -37645.104     -48166.165     -2193.485       0.22374846     440.5          0.00089499382
   1763000   428.13231     -37686.875     -48140.074     -1943.5095      0.19141495     440.75         0.0007656598 
   1764000   432.43914     -37529.101     -48087.455     -2112.7572      0.21350089     441            0.00085400355
   1765000   430.2009      -37563.135     -48066.84      -1725.1906      0.16696027     441.25         0.00066784107
   1766000   431.24896     -37700.716     -48230.011     -1830.0402      0.17788323     441.5          0.00071153294
   1767000   436.37045     -37595.548     -48249.888     -2033.1948      0.19684809     441.75         0.00078739234
   1768000   435.83597     -37666.772     -48308.062     -2081.5588      0.20355824     442            0.00081423297
   1769000   430.91294     -37652.812     -48173.903     -2112.025       0.20965847     442.25         0.00083863388
   1770000   435.57716     -37694.095     -48329.067     -2359.121       0.22741464     442.5          0.00090965854
Loop time of 44.2237 on 56 procs for 10000 steps with 12288 atoms

Performance: 19.537 ns/day, 1.228 hours/ns, 226.123 timesteps/s, 2.779 Matom-step/s
99.8% CPU use with 56 MPI tasks x no OpenMP threads

MPI task timing breakdown:
Section |  min time  |  avg time  |  max time  |%varavg| %total
---------------------------------------------------------------
Pair    | 18.566     | 19.395     | 20.407     |   9.7 | 43.86
Bond    | 0.0012856  | 0.0021081  | 0.0033274  |   0.8 |  0.00
Kspace  | 10.604     | 11.704     | 12.546     |  11.9 | 26.47
Neigh   | 4.5088     | 4.5116     | 4.5136     |   0.0 | 10.20
Comm    | 1.5247     | 1.638      | 1.7707     |   4.8 |  3.70
Output  | 0.023383   | 0.040662   | 0.057364   |   5.0 |  0.09
Modify  | 5.1295     | 5.6551     | 6.6855     |  14.8 | 12.79
Other   |            | 1.277      |            |       |  2.89

Nlocal:        219.429 ave         236 max         199 min
Histogram: 2 0 5 7 11 5 13 4 5 4
Nghost:         7277.2 ave        7395 max        7204 min
Histogram: 4 11 7 9 10 7 4 2 1 1
Neighs:          96069 ave      105123 max       85892 min
Histogram: 2 0 7 9 9 7 9 7 2 4

Total # of neighbors = 5379865
Ave neighs/atom = 437.81453
Ave special neighs/atom = 2
Neighbor list builds = 382
Dangerous builds = 0
kspace_style pppm/tip4p 1.0e-5
next nloop
jump SELF loop_start
run 10000 # 10ps
PPPM initialization ...
  extracting TIP4P info from pair style
  using 12-bit tables for long-range coulomb
  G vector (1/distance) = 0.32815664
  grid = 50 75 50
  stencil order = 5
  estimated absolute RMS force accuracy = 0.0035802102
  estimated relative force accuracy = 1.0781697e-05
  using double precision KISS FFT
  3d grid and FFT values/proc = 15776 4000
Generated 0 of 1 mixed pair_coeff terms from geometric mixing rule
Per MPI rank memory allocation (min/avg/max) = 11.21 | 11.35 | 11.45 Mbytes
   Step          Temp          TotEng         PotEng          Pxy           v_sxy         v_strain     v_viscosity  
   1770000   435.8235      -37688.952     -48329.938     -1877.9634      0.17780652     442.5          0.00071122608
   1771000   434.06255     -37631.758     -48229.749     -1875.872       0.18524379     442.75         0.00074097514
   1772000   436.16366     -37737.683     -48386.975     -2300.9484      0.22973006     443            0.00091892024
   1773000   437.61961     -37529.969     -48214.809     -2065.1785      0.20308961     443.25         0.00081235843
   1774000   435.91395     -37637.661     -48280.856     -2234.1632      0.21555594     443.5          0.00086222378
   1775000   434.95254     -37612.85      -48232.571     -1972.596       0.19195183     443.75         0.00076780732
   1776000   434.00716     -37598.747     -48195.385     -2242.9524      0.21589571     444            0.00086358283
   1777000   429.96022     -37829.303     -48327.132     -2334.4283      0.23173708     444.25         0.00092694831
   1778000   434.83263     -37611.692     -48228.486     -2363.1185      0.23488825     444.5          0.000939553  
   1779000   431.90679     -37723.75      -48269.107     -2262.1488      0.22408314     444.75         0.00089633257
   1780000   431.82304     -37749.534     -48292.846     -2058.9107      0.19919086     445            0.00079676343
Loop time of 51.5815 on 56 procs for 10000 steps with 12288 atoms

Performance: 16.750 ns/day, 1.433 hours/ns, 193.868 timesteps/s, 2.382 Matom-step/s
99.8% CPU use with 56 MPI tasks x no OpenMP threads

MPI task timing breakdown:
Section |  min time  |  avg time  |  max time  |%varavg| %total
---------------------------------------------------------------
Pair    | 18.283     | 19.647     | 20.825     |   8.7 | 38.09
Bond    | 0.0016476  | 0.0024136  | 0.0037799  |   0.8 |  0.00
Kspace  | 14.753     | 15.896     | 17.171     |   9.4 | 30.82
Neigh   | 4.497      | 4.4997     | 4.5017     |   0.0 |  8.72
Comm    | 1.6685     | 1.8003     | 1.9867     |   5.8 |  3.49
Output  | 0.023396   | 0.040459   | 0.057014   |   4.9 |  0.08
Modify  | 7.313      | 8.0273     | 9.4196     |  18.0 | 15.56
Other   |            | 1.668      |            |       |  3.23

Nlocal:        219.429 ave         244 max         200 min
Histogram: 3 4 5 7 15 10 9 1 1 1
Nghost:        6848.48 ave        6900 max        6775 min
Histogram: 1 6 2 1 10 9 5 11 5 6
Neighs:        96070.9 ave      106358 max       86328 min
Histogram: 1 6 6 5 8 13 10 4 1 2

Total # of neighbors = 5379968
Ave neighs/atom = 437.82292
Ave special neighs/atom = 2
Neighbor list builds = 383
Dangerous builds = 0
kspace_style pppm/tip4p 1.0e-5
next nloop
jump SELF loop_start
run 10000 # 10ps
PPPM initialization ...
  extracting TIP4P info from pair style
  using 12-bit tables for long-range coulomb
  G vector (1/distance) = 0.32815664
  grid = 50 50 50
  stencil order = 5
  estimated absolute RMS force accuracy = 0.0035802102
  estimated relative force accuracy = 1.0781697e-05
  using double precision KISS FFT
  3d grid and FFT values/proc = 11424 2800
Generated 0 of 1 mixed pair_coeff terms from geometric mixing rule
Per MPI rank memory allocation (min/avg/max) = 10.92 | 11.04 | 11.13 Mbytes
   Step          Temp          TotEng         PotEng          Pxy           v_sxy         v_strain     v_viscosity  
   1780000   431.97537     -37746.516     -48293.547     -1486.199       0.1409303      445            0.0005637212 
   1781000   437.78393     -37443.61      -48132.462     -1959.4515      0.19102693     445.25         0.00076410771
   1782000   432.10339     -37478.989     -48029.146     -2071.9512      0.19959406     445.5          0.00079837623
   1783000   427.97033     -37661.009     -48110.254     -2136.3602      0.20854019     445.75         0.00083416076
   1784000   438.5999      -37584.153     -48292.927     -2148.8691      0.21062921     446            0.00084251684
   1785000   434.37775     -37722.914     -48328.601     -2287.9729      0.22203317     446.25         0.00088813269
   1786000   434.59014     -37597.742     -48208.614     -2319.0362      0.22302169     446.5          0.00089208676
   1787000   439.34307     -37306.747     -48033.667     -2005.4933      0.19958465     446.75         0.00079833862
   1788000   436.52631     -37554.36      -48212.506     -2187.379       0.21429087     447            0.0008571635 
   1789000   432.62422     -37779.918     -48342.791     -2279.4985      0.22779516     447.25         0.00091118064
   1790000   433.46091     -37465.787     -48049.089     -2363.7939      0.2309254      447.5          0.00092370161
Loop time of 44.2587 on 56 procs for 10000 steps with 12288 atoms

Performance: 19.522 ns/day, 1.229 hours/ns, 225.944 timesteps/s, 2.776 Matom-step/s
99.8% CPU use with 56 MPI tasks x no OpenMP threads

MPI task timing breakdown:
Section |  min time  |  avg time  |  max time  |%varavg| %total
---------------------------------------------------------------
Pair    | 18.548     | 19.394     | 20.389     |  10.6 | 43.82
Bond    | 0.0012509  | 0.0021019  | 0.0032383  |   0.7 |  0.00
Kspace  | 10.818     | 11.761     | 12.558     |  13.2 | 26.57
Neigh   | 4.4753     | 4.4776     | 4.48       |   0.0 | 10.12
Comm    | 1.537      | 1.6279     | 1.7762     |   4.3 |  3.68
Output  | 0.023352   | 0.040561   | 0.05727    |   5.0 |  0.09
Modify  | 5.1194     | 5.6505     | 6.7134     |  15.0 | 12.77
Other   |            | 1.305      |            |       |  2.95

Nlocal:        219.429 ave         240 max         196 min
Histogram: 1 3 5 7 6 13 7 7 4 3
Nghost:         7265.7 ave        7348 max        7194 min
Histogram: 2 4 7 10 10 8 7 3 3 2
Neighs:        96068.5 ave      107846 max       84778 min
Histogram: 1 5 5 9 8 8 12 5 2 1

Total # of neighbors = 5379835
Ave neighs/atom = 437.81209
Ave special neighs/atom = 2
Neighbor list builds = 379
Dangerous builds = 0
kspace_style pppm/tip4p 1.0e-5
next nloop
jump SELF loop_start
run 10000 # 10ps
PPPM initialization ...
  extracting TIP4P info from pair style
  using 12-bit tables for long-range coulomb
  G vector (1/distance) = 0.32815664
  grid = 50 75 50
  stencil order = 5
  estimated absolute RMS force accuracy = 0.0035802102
  estimated relative force accuracy = 1.0781697e-05
  using double precision KISS FFT
  3d grid and FFT values/proc = 15776 4000
Generated 0 of 1 mixed pair_coeff terms from geometric mixing rule
Per MPI rank memory allocation (min/avg/max) = 11.21 | 11.35 | 11.45 Mbytes
   Step          Temp          TotEng         PotEng          Pxy           v_sxy         v_strain     v_viscosity  
   1790000   433.62144     -37460.673     -48047.894     -1806.3397      0.17402972     447.5          0.00069611889
   1791000   434.54084     -37748.381     -48358.05      -1914.6726      0.18887644     447.75         0.00075550574
   1792000   434.6968      -37480.458     -48093.934     -2087.8969      0.20810308     448            0.00083241233
   1793000   432.19578     -37663.869     -48216.282     -1984.8847      0.19168864     448.25         0.00076675455
   1794000   426.90435     -37939.411     -48362.629     -2325.9887      0.22791986     448.5          0.00091167945
   1795000   434.0362      -37437.688     -48035.035     -2056.1821      0.20651956     448.75         0.00082607825
   1796000   437.20946     -37380.099     -48054.924     -2460.2006      0.24439464     449            0.00097757858
   1797000   436.30166     -37395.866     -48048.526     -2203.4065      0.21377296     449.25         0.00085509183
   1798000   429.50143     -37705.551     -48192.178     -2192.8951      0.21528812     449.5          0.00086115248
   1799000   430.31406     -37749.441     -48255.91      -2217.5759      0.2189294      449.75         0.0008757176 
   1800000   429.89147     -37700.506     -48196.656     -2003.8047      0.19415584     450            0.00077662337
Loop time of 51.6061 on 56 procs for 10000 steps with 12288 atoms

Performance: 16.742 ns/day, 1.434 hours/ns, 193.776 timesteps/s, 2.381 Matom-step/s
99.8% CPU use with 56 MPI tasks x no OpenMP threads

MPI task timing breakdown:
Section |  min time  |  avg time  |  max time  |%varavg| %total
---------------------------------------------------------------
Pair    | 18.771     | 19.636     | 20.773     |  10.0 | 38.05
Bond    | 0.0016134  | 0.0024158  | 0.003931   |   0.9 |  0.00
Kspace  | 14.709     | 15.904     | 16.808     |  11.4 | 30.82
Neigh   | 4.5299     | 4.5326     | 4.5345     |   0.0 |  8.78
Comm    | 1.6615     | 1.7991     | 1.977      |   5.6 |  3.49
Output  | 0.023789   | 0.040993   | 0.05768    |   5.0 |  0.08
Modify  | 7.3673     | 8.0317     | 9.4429     |  17.8 | 15.56
Other   |            | 1.66       |            |       |  3.22

Nlocal:        219.429 ave         238 max         202 min
Histogram: 1 6 6 8 12 4 10 1 3 5
Nghost:        6861.57 ave        6933 max        6799 min
Histogram: 3 5 8 5 8 11 5 6 2 3
Neighs:        96077.4 ave      106453 max       88521 min
Histogram: 6 6 7 11 5 10 2 3 2 4

Total # of neighbors = 5380333
Ave neighs/atom = 437.85262
Ave special neighs/atom = 2
Neighbor list builds = 381
Dangerous builds = 0
kspace_style pppm/tip4p 1.0e-5
next nloop
jump SELF loop_start
run 10000 # 10ps
PPPM initialization ...
  extracting TIP4P info from pair style
  using 12-bit tables for long-range coulomb
  G vector (1/distance) = 0.32815664
  grid = 50 50 50
  stencil order = 5
  estimated absolute RMS force accuracy = 0.0035802102
  estimated relative force accuracy = 1.0781697e-05
  using double precision KISS FFT
  3d grid and FFT values/proc = 11424 2800
Generated 0 of 1 mixed pair_coeff terms from geometric mixing rule
Per MPI rank memory allocation (min/avg/max) = 10.92 | 11.04 | 11.13 Mbytes
   Step          Temp          TotEng         PotEng          Pxy           v_sxy         v_strain     v_viscosity  
   1800000   430.03519     -37695.062     -48194.721     -1586.5576      0.1510439      450            0.0006041756 
   1801000   432.30833     -37565.794     -48120.954     -2088.0445      0.20855613     450.25         0.00083422453
   1802000   432.98519     -37801.954     -48373.64      -2060.4027      0.20055673     450.5          0.0008022269 
   1803000   424.86333     -37764.852     -48138.237     -2069.701       0.20363842     450.75         0.00081455366
   1804000   432.53853     -37678.036     -48238.817     -1723.6212      0.16232253     451            0.00064929012
   1805000   433.97576     -37659.286     -48255.158     -2477.5465      0.24585258     451.25         0.00098341032
   1806000   437.0747      -37521.734     -48193.269     -2122.8098      0.20940764     451.5          0.00083763057
   1807000   430.26432     -37709.492     -48214.746     -2160.1789      0.20931336     451.75         0.00083725343
   1808000   437.65504     -37558.428     -48244.133     -1992.9322      0.19955333     452            0.0007982133 
   1809000   433.59099     -37645.762     -48232.24      -2185.1219      0.21646014     452.25         0.00086584054
   1810000   433.66599     -37549.382     -48137.691     -2157.0963      0.21517542     452.5          0.0008607017 
Loop time of 44.3624 on 56 procs for 10000 steps with 12288 atoms

Performance: 19.476 ns/day, 1.232 hours/ns, 225.416 timesteps/s, 2.770 Matom-step/s
99.8% CPU use with 56 MPI tasks x no OpenMP threads

MPI task timing breakdown:
Section |  min time  |  avg time  |  max time  |%varavg| %total
---------------------------------------------------------------
Pair    | 18.318     | 19.381     | 20.454     |  10.0 | 43.69
Bond    | 0.0012536  | 0.002102   | 0.0029031  |   0.7 |  0.00
Kspace  | 10.667     | 11.76      | 12.794     |  12.4 | 26.51
Neigh   | 4.5719     | 4.5746     | 4.577      |   0.1 | 10.31
Comm    | 1.5399     | 1.6381     | 1.8072     |   4.7 |  3.69
Output  | 0.023304   | 0.040656   | 0.05747    |   5.0 |  0.09
Modify  | 5.1328     | 5.6499     | 6.6918     |  14.9 | 12.74
Other   |            | 1.317      |            |       |  2.97

Nlocal:        219.429 ave         242 max         195 min
Histogram: 1 3 7 3 8 14 11 6 1 2
Nghost:        7260.95 ave        7341 max        7176 min
Histogram: 3 2 4 6 9 11 13 2 3 3
Neighs:        96048.8 ave      106996 max       84783 min
Histogram: 2 3 4 7 4 19 9 6 0 2

Total # of neighbors = 5378732
Ave neighs/atom = 437.72233
Ave special neighs/atom = 2
Neighbor list builds = 384
Dangerous builds = 0
kspace_style pppm/tip4p 1.0e-5
next nloop
jump SELF loop_start
run 10000 # 10ps
PPPM initialization ...
  extracting TIP4P info from pair style
  using 12-bit tables for long-range coulomb
  G vector (1/distance) = 0.32815664
  grid = 50 75 50
  stencil order = 5
  estimated absolute RMS force accuracy = 0.0035802102
  estimated relative force accuracy = 1.0781697e-05
  using double precision KISS FFT
  3d grid and FFT values/proc = 15776 4000
Generated 0 of 1 mixed pair_coeff terms from geometric mixing rule
Per MPI rank memory allocation (min/avg/max) = 11.21 | 11.35 | 11.45 Mbytes
   Step          Temp          TotEng         PotEng          Pxy           v_sxy         v_strain     v_viscosity  
   1810000   433.81935     -37543.804     -48135.857     -1761.1133      0.1742466      452.5          0.00069698639
   1811000   429.66281     -37779.367     -48269.935     -1967.517       0.1990899      452.75         0.00079635962
   1812000   427.90355     -37953.87      -48401.484     -2412.7291      0.23560628     453            0.00094242511
   1813000   429.71966     -37736.118     -48228.074     -2375.2205      0.23118998     453.25         0.00092475994
   1814000   434.48593     -37552.593     -48160.921     -2130.2724      0.21154412     453.5          0.00084617649
   1815000   428.51333     -37763.625     -48226.127     -2170.8827      0.21256548     453.75         0.00085026193
   1816000   432.97416     -37629.489     -48200.906     -2037.5392      0.1993466      454            0.00079738641
   1817000   434.55066     -37693.383     -48303.291     -2218.668       0.22164681     454.25         0.00088658724
   1818000   431.54104     -37620.471     -48156.897     -2349.867       0.22907693     454.5          0.00091630773
   1819000   433.09581     -37598.943     -48173.33      -2171.7547      0.21497737     454.75         0.00085990948
   1820000   429.35472     -37661.676     -48144.721     -2128.6293      0.2086902      455            0.00083476079
Loop time of 51.5577 on 56 procs for 10000 steps with 12288 atoms

Performance: 16.758 ns/day, 1.432 hours/ns, 193.958 timesteps/s, 2.383 Matom-step/s
99.8% CPU use with 56 MPI tasks x no OpenMP threads

MPI task timing breakdown:
Section |  min time  |  avg time  |  max time  |%varavg| %total
---------------------------------------------------------------
Pair    | 18.816     | 19.637     | 20.696     |   9.5 | 38.09
Bond    | 0.001577   | 0.0024135  | 0.0039883  |   0.9 |  0.00
Kspace  | 14.915     | 15.877     | 16.715     |  10.2 | 30.79
Neigh   | 4.5049     | 4.5077     | 4.51       |   0.0 |  8.74
Comm    | 1.6351     | 1.7885     | 1.9987     |   6.2 |  3.47
Output  | 0.0232     | 0.040438   | 0.057116   |   5.0 |  0.08
Modify  | 7.3485     | 8.0466     | 9.4335     |  17.9 | 15.61
Other   |            | 1.658      |            |       |  3.22

Nlocal:        219.429 ave         238 max         202 min
Histogram: 1 6 6 7 8 11 8 4 4 1
Nghost:        6859.79 ave        6930 max        6789 min
Histogram: 3 1 8 9 9 8 6 4 3 5
Neighs:        96055.9 ave      104935 max       87572 min
Histogram: 1 6 8 4 8 11 8 5 2 3

Total # of neighbors = 5379131
Ave neighs/atom = 437.7548
Ave special neighs/atom = 2
Neighbor list builds = 381
Dangerous builds = 0
kspace_style pppm/tip4p 1.0e-5
next nloop
jump SELF loop_start
run 10000 # 10ps
PPPM initialization ...
  extracting TIP4P info from pair style
  using 12-bit tables for long-range coulomb
  G vector (1/distance) = 0.32815664
  grid = 50 50 50
  stencil order = 5
  estimated absolute RMS force accuracy = 0.0035802102
  estimated relative force accuracy = 1.0781697e-05
  using double precision KISS FFT
  3d grid and FFT values/proc = 11424 2800
Generated 0 of 1 mixed pair_coeff terms from geometric mixing rule
Per MPI rank memory allocation (min/avg/max) = 10.92 | 11.04 | 11.13 Mbytes
   Step          Temp          TotEng         PotEng          Pxy           v_sxy         v_strain     v_viscosity  
   1820000   429.34981     -37660.028     -48142.953     -1511.1457      0.14573238     455            0.00058292953
   1821000   428.27289     -37982.778     -48439.41      -2159.76        0.21187943     455.25         0.00084751772
   1822000   428.20174     -37626.288     -48081.182     -2368.201       0.23632804     455.5          0.00094531216
   1823000   427.89798     -37726.067     -48173.545     -2247.1816      0.22142684     455.75         0.00088570735
   1824000   432.21612     -37640.776     -48193.685     -2322.7382      0.22886369     456            0.00091545477
   1825000   427.43623     -37903.947     -48340.151     -2276.0518      0.22168106     456.25         0.00088672422
   1826000   432.73758     -37496.596     -48062.237     -2300.5394      0.22941602     456.5          0.00091766407
   1827000   424.96332     -37919.568     -48295.394     -2528.7185      0.24657766     456.75         0.00098631063
   1828000   429.64008     -37702.105     -48192.118     -2234.2448      0.22228501     457            0.00088914005
   1829000   427.07715     -37582.914     -48010.351     -2228.3275      0.22218124     457.25         0.00088872495
   1830000   430.76513     -37590.474     -48107.956     -2373.0061      0.23966877     457.5          0.00095867509
Loop time of 44.2696 on 56 procs for 10000 steps with 12288 atoms

Performance: 19.517 ns/day, 1.230 hours/ns, 225.889 timesteps/s, 2.776 Matom-step/s
99.8% CPU use with 56 MPI tasks x no OpenMP threads

MPI task timing breakdown:
Section |  min time  |  avg time  |  max time  |%varavg| %total
---------------------------------------------------------------
Pair    | 18.061     | 19.376     | 20.284     |  10.5 | 43.77
Bond    | 0.0011966  | 0.0021274  | 0.0029819  |   0.8 |  0.00
Kspace  | 10.933     | 11.794     | 13.028     |  13.2 | 26.64
Neigh   | 4.4885     | 4.4909     | 4.4935     |   0.0 | 10.14
Comm    | 1.5182     | 1.6294     | 1.7593     |   4.7 |  3.68
Output  | 0.023697   | 0.04113    | 0.057904   |   5.0 |  0.09
Modify  | 5.1365     | 5.6473     | 6.6915     |  14.9 | 12.76
Other   |            | 1.288      |            |       |  2.91

Nlocal:        219.429 ave         242 max         198 min
Histogram: 2 2 11 8 5 10 6 8 1 3
Nghost:        7279.16 ave        7357 max        7218 min
Histogram: 4 4 5 12 8 8 10 2 1 2
Neighs:        96080.7 ave      107287 max       85623 min
Histogram: 2 4 9 9 4 8 11 5 3 1

Total # of neighbors = 5380519
Ave neighs/atom = 437.86776
Ave special neighs/atom = 2
Neighbor list builds = 381
Dangerous builds = 0
kspace_style pppm/tip4p 1.0e-5
next nloop
jump SELF loop_start
run 10000 # 10ps
PPPM initialization ...
  extracting TIP4P info from pair style
  using 12-bit tables for long-range coulomb
  G vector (1/distance) = 0.32815664
  grid = 50 75 50
  stencil order = 5
  estimated absolute RMS force accuracy = 0.0035802102
  estimated relative force accuracy = 1.0781697e-05
  using double precision KISS FFT
  3d grid and FFT values/proc = 15776 4000
Generated 0 of 1 mixed pair_coeff terms from geometric mixing rule
Per MPI rank memory allocation (min/avg/max) = 11.21 | 11.35 | 11.45 Mbytes
   Step          Temp          TotEng         PotEng          Pxy           v_sxy         v_strain     v_viscosity  
   1830000   431.22688     -37580.892     -48109.648     -1842.1083      0.18553486     457.5          0.00074213945
   1831000   430.65917     -37713.628     -48228.523     -2310.7427      0.22897965     457.75         0.00091591858
   1832000   428.63404     -37761.001     -48226.45      -2455.1841      0.24486625     458            0.00097946501
   1833000   420.47923     -37942.192     -48208.536     -2061.9288      0.20405141     458.25         0.00081620563
   1834000   425.44759     -37873.353     -48261.002     -2150.0719      0.21714917     458.5          0.00086859668
   1835000   431.11345     -37627.339     -48153.325     -1979.343       0.19394554     458.75         0.00077578216
   1836000   428.23429     -37647.646     -48103.335     -2268.3115      0.22470516     459            0.00089882062
   1837000   424.25598     -38009.017     -48367.573     -2293.6112      0.22788869     459.25         0.00091155475
   1838000   430.22073     -37713.064     -48217.254     -1958.9057      0.18900499     459.5          0.00075601997
   1839000   426.35902     -37789.015     -48198.918     -2364.3146      0.23310161     459.75         0.00093240646
   1840000   428.78952     -37604.349     -48073.595     -2341.3757      0.22976289     460            0.00091905156
Loop time of 51.6616 on 56 procs for 10000 steps with 12288 atoms

Performance: 16.724 ns/day, 1.435 hours/ns, 193.568 timesteps/s, 2.379 Matom-step/s
99.8% CPU use with 56 MPI tasks x no OpenMP threads

MPI task timing breakdown:
Section |  min time  |  avg time  |  max time  |%varavg| %total
---------------------------------------------------------------
Pair    | 18.57      | 19.659     | 20.851     |  11.0 | 38.05
Bond    | 0.0016334  | 0.0024152  | 0.0038139  |   0.8 |  0.00
Kspace  | 14.931     | 15.899     | 16.887     |  11.6 | 30.78
Neigh   | 4.5346     | 4.5372     | 4.5394     |   0.1 |  8.78
Comm    | 1.6359     | 1.808      | 1.9969     |   6.4 |  3.50
Output  | 0.023829   | 0.041099   | 0.057819   |   5.0 |  0.08
Modify  | 7.2788     | 8.0276     | 9.451      |  18.2 | 15.54
Other   |            | 1.687      |            |       |  3.27

Nlocal:        219.429 ave         239 max         202 min
Histogram: 4 5 6 6 12 4 5 9 2 3
Nghost:         6860.2 ave        6952 max        6802 min
Histogram: 5 5 8 10 11 10 5 0 1 1
Neighs:        96088.7 ave      105791 max       87955 min
Histogram: 4 4 9 8 8 7 5 6 3 2

Total # of neighbors = 5380969
Ave neighs/atom = 437.90438
Ave special neighs/atom = 2
Neighbor list builds = 384
Dangerous builds = 0
kspace_style pppm/tip4p 1.0e-5
next nloop
jump SELF loop_start
run 10000 # 10ps
PPPM initialization ...
  extracting TIP4P info from pair style
  using 12-bit tables for long-range coulomb
  G vector (1/distance) = 0.32815664
  grid = 50 50 50
  stencil order = 5
  estimated absolute RMS force accuracy = 0.0035802102
  estimated relative force accuracy = 1.0781697e-05
  using double precision KISS FFT
  3d grid and FFT values/proc = 11424 2800
Generated 0 of 1 mixed pair_coeff terms from geometric mixing rule
Per MPI rank memory allocation (min/avg/max) = 10.92 | 11.04 | 11.13 Mbytes
   Step          Temp          TotEng         PotEng          Pxy           v_sxy         v_strain     v_viscosity  
   1840000   428.07783     -37623.077     -48074.947     -1817.5896      0.17583436     460            0.00070333746
   1841000   427.69568     -37695.668     -48138.206     -2444.3535      0.24059697     460.25         0.00096238789
   1842000   431.19038     -37728.943     -48256.808     -2006.0238      0.2009405      460.5          0.00080376201
   1843000   428.71126     -37752.422     -48219.756     -2231.3178      0.2184178      460.75         0.00087367118
   1844000   431.77842     -37656.863     -48199.085     -2285.8628      0.22516333     461            0.00090065332
   1845000   425.79089     -37754.531     -48150.563     -2234.8051      0.21544422     461.25         0.00086177686
   1846000   423.74844     -37798.739     -48144.902     -2177.0814      0.21656046     461.5          0.00086624184
   1847000   423.4517      -37865.889     -48204.808     -2158.8792      0.20670428     461.75         0.00082681713
   1848000   427.65505     -37785.008     -48226.554     -1928.7162      0.19235578     462            0.00076942311
   1849000   430.2987      -37530.867     -48036.961     -2213.6287      0.21842408     462.25         0.00087369631
   1850000   428.32742     -37830.984     -48288.947     -1948.7377      0.19185151     462.5          0.00076740603
Loop time of 44.1893 on 56 procs for 10000 steps with 12288 atoms

Performance: 19.552 ns/day, 1.227 hours/ns, 226.299 timesteps/s, 2.781 Matom-step/s
99.8% CPU use with 56 MPI tasks x no OpenMP threads

MPI task timing breakdown:
Section |  min time  |  avg time  |  max time  |%varavg| %total
---------------------------------------------------------------
Pair    | 18.498     | 19.4       | 20.473     |   9.0 | 43.90
Bond    | 0.0012265  | 0.0021204  | 0.0032287  |   0.8 |  0.00
Kspace  | 10.688     | 11.709     | 12.598     |  11.9 | 26.50
Neigh   | 4.4886     | 4.491      | 4.493      |   0.0 | 10.16
Comm    | 1.544      | 1.6326     | 1.788      |   4.7 |  3.69
Output  | 0.023436   | 0.040739   | 0.057519   |   5.0 |  0.09
Modify  | 5.1263     | 5.6409     | 6.6686     |  14.9 | 12.77
Other   |            | 1.273      |            |       |  2.88

Nlocal:        219.429 ave         238 max         198 min
Histogram: 1 1 5 6 11 11 8 5 3 5
Nghost:        7269.89 ave        7368 max        7201 min
Histogram: 6 3 9 9 10 6 6 5 0 2
Neighs:        96041.5 ave      105483 max       86122 min
Histogram: 2 3 4 8 10 12 6 6 1 4

Total # of neighbors = 5378323
Ave neighs/atom = 437.68905
Ave special neighs/atom = 2
Neighbor list builds = 380
Dangerous builds = 0
kspace_style pppm/tip4p 1.0e-5
next nloop
jump SELF loop_start
run 10000 # 10ps
PPPM initialization ...
  extracting TIP4P info from pair style
  using 12-bit tables for long-range coulomb
  G vector (1/distance) = 0.32815664
  grid = 50 75 50
  stencil order = 5
  estimated absolute RMS force accuracy = 0.0035802102
  estimated relative force accuracy = 1.0781697e-05
  using double precision KISS FFT
  3d grid and FFT values/proc = 15776 4000
Generated 0 of 1 mixed pair_coeff terms from geometric mixing rule
Per MPI rank memory allocation (min/avg/max) = 11.21 | 11.35 | 11.45 Mbytes
   Step          Temp          TotEng         PotEng          Pxy           v_sxy         v_strain     v_viscosity  
   1850000   428.47267     -37826.925     -48288.435     -1443.2959      0.14002289     462.5          0.00056009155
   1851000   429.8462      -37662.558     -48157.603     -2318.1575      0.22783762     462.75         0.00091135049
   1852000   432.29632     -37647.667     -48202.534     -2329.1375      0.22520437     463            0.00090081748
   1853000   429.64244     -37835.279     -48325.349     -2207.5461      0.21321672     463.25         0.00085286689
   1854000   429.83704     -37722.482     -48217.303     -2288.2268      0.22571461     463.5          0.00090285845
   1855000   434.32519     -37632.216     -48236.62      -2327.7263      0.22964051     463.75         0.00091856202
   1856000   429.20723     -37717.75      -48197.194     -2093.0937      0.20830002     464            0.00083320006
   1857000   434.8366      -37754.718     -48371.608     -2278.2249      0.22471997     464.25         0.00089887988
   1858000   431.09399     -37656.352     -48181.864     -2069.2667      0.20626284     464.5          0.00082505136
   1859000   432.98981     -37643.93      -48215.729     -2131.9015      0.20748777     464.75         0.00082995106
   1860000   430.0907      -37696.535     -48197.55      -2123.7586      0.20144069     465            0.00080576274
Loop time of 51.4896 on 56 procs for 10000 steps with 12288 atoms

Performance: 16.780 ns/day, 1.430 hours/ns, 194.214 timesteps/s, 2.387 Matom-step/s
99.8% CPU use with 56 MPI tasks x no OpenMP threads

MPI task timing breakdown:
Section |  min time  |  avg time  |  max time  |%varavg| %total
---------------------------------------------------------------
Pair    | 18.753     | 19.637     | 20.521     |   9.1 | 38.14
Bond    | 0.0016036  | 0.0024233  | 0.003879   |   0.9 |  0.00
Kspace  | 14.797     | 15.743     | 16.583     |  10.0 | 30.58
Neigh   | 4.5216     | 4.5245     | 4.527      |   0.1 |  8.79
Comm    | 1.6532     | 1.821      | 2.0451     |   6.4 |  3.54
Output  | 0.023372   | 0.040544   | 0.057155   |   5.0 |  0.08
Modify  | 7.347      | 8.0407     | 9.4508     |  18.0 | 15.62
Other   |            | 1.68       |            |       |  3.26

Nlocal:        219.429 ave         245 max         200 min
Histogram: 2 1 13 7 12 12 4 2 2 1
Nghost:         6833.2 ave        6919 max        6773 min
Histogram: 4 7 8 10 6 11 2 6 0 2
Neighs:        96052.6 ave      108247 max       87143 min
Histogram: 2 3 12 8 10 11 6 2 1 1

Total # of neighbors = 5378943
Ave neighs/atom = 437.7395
Ave special neighs/atom = 2
Neighbor list builds = 384
Dangerous builds = 0
kspace_style pppm/tip4p 1.0e-5
next nloop
jump SELF loop_start
run 10000 # 10ps
PPPM initialization ...
  extracting TIP4P info from pair style
  using 12-bit tables for long-range coulomb
  G vector (1/distance) = 0.32815664
  grid = 50 50 50
  stencil order = 5
  estimated absolute RMS force accuracy = 0.0035802102
  estimated relative force accuracy = 1.0781697e-05
  using double precision KISS FFT
  3d grid and FFT values/proc = 11424 2800
Generated 0 of 1 mixed pair_coeff terms from geometric mixing rule
Per MPI rank memory allocation (min/avg/max) = 10.92 | 11.04 | 11.13 Mbytes
   Step          Temp          TotEng         PotEng          Pxy           v_sxy         v_strain     v_viscosity  
   1860000   430.1453      -37694.181     -48196.529     -1720.9302      0.16050948     465            0.00064203791
   1861000   431.79186     -37510.281     -48052.832     -2110.9873      0.20893884     465.25         0.00083575538
   1862000   429.24002     -37715.529     -48195.774     -2342.8471      0.22669217     465.5          0.00090676869
   1863000   435.56219     -37598.272     -48232.878     -2270.4422      0.22047905     465.75         0.0008819162 
   1864000   434.79908     -37509.009     -48124.983     -1924.0681      0.19340602     466            0.00077362407
   1865000   434.62918     -37594.554     -48206.38      -2091.5183      0.20452796     466.25         0.00081811183
   1866000   432.17109     -37588.804     -48140.613     -2118.0556      0.20749116     466.5          0.00082996462
   1867000   429.04913     -37662.453     -48138.037     -2091.7539      0.21023005     466.75         0.00084092022
   1868000   433.7393      -37608.205     -48198.303     -2256.9588      0.21814577     467            0.00087258308
   1869000   433.02786     -37734.715     -48307.443     -2214.8957      0.21878175     467.25         0.00087512701
   1870000   428.06579     -37859.761     -48311.336     -2250.2272      0.2172495      467.5          0.000868998  
Loop time of 44.2403 on 56 procs for 10000 steps with 12288 atoms

Performance: 19.530 ns/day, 1.229 hours/ns, 226.038 timesteps/s, 2.778 Matom-step/s
99.8% CPU use with 56 MPI tasks x no OpenMP threads

MPI task timing breakdown:
Section |  min time  |  avg time  |  max time  |%varavg| %total
---------------------------------------------------------------
Pair    | 18.287     | 19.397     | 20.324     |   9.4 | 43.85
Bond    | 0.0012101  | 0.0021102  | 0.0032071  |   0.8 |  0.00
Kspace  | 10.739     | 11.701     | 12.736     |  12.2 | 26.45
Neigh   | 4.5494     | 4.5521     | 4.5542     |   0.0 | 10.29
Comm    | 1.5321     | 1.6397     | 1.8384     |   5.3 |  3.71
Output  | 0.023572   | 0.040942   | 0.057706   |   5.0 |  0.09
Modify  | 5.1339     | 5.6551     | 6.6486     |  14.8 | 12.78
Other   |            | 1.252      |            |       |  2.83

Nlocal:        219.429 ave         236 max         203 min
Histogram: 3 4 2 10 12 6 8 5 4 2
Nghost:        7268.96 ave        7325 max        7207 min
Histogram: 3 6 7 4 5 7 3 11 6 4
Neighs:        96063.5 ave      103577 max       88026 min
Histogram: 2 5 2 7 12 7 7 8 2 4

Total # of neighbors = 5379557
Ave neighs/atom = 437.78947
Ave special neighs/atom = 2
Neighbor list builds = 385
Dangerous builds = 0
kspace_style pppm/tip4p 1.0e-5
next nloop
jump SELF loop_start
run 10000 # 10ps
PPPM initialization ...
  extracting TIP4P info from pair style
  using 12-bit tables for long-range coulomb
  G vector (1/distance) = 0.32815664
  grid = 50 75 50
  stencil order = 5
  estimated absolute RMS force accuracy = 0.0035802102
  estimated relative force accuracy = 1.0781697e-05
  using double precision KISS FFT
  3d grid and FFT values/proc = 15776 4000
Generated 0 of 1 mixed pair_coeff terms from geometric mixing rule
Per MPI rank memory allocation (min/avg/max) = 11.21 | 11.35 | 11.45 Mbytes
   Step          Temp          TotEng         PotEng          Pxy           v_sxy         v_strain     v_viscosity  
   1870000   428.24061     -37855.35      -48311.194     -1794.3077      0.1703085      467.5          0.000681234  
   1871000   435.1925      -37537.422     -48163.002     -2218.0179      0.213714       467.75         0.00085485601
   1872000   429.70938     -37841.381     -48333.086     -1997.5637      0.19676733     468            0.00078706933
   1873000   431.27027     -37711.411     -48241.227     -1967.9474      0.19787817     468.25         0.00079151269
   1874000   433.6162      -37668.093     -48255.186     -2020.5367      0.19235755     468.5          0.0007694302 
   1875000   432.08708     -37835.811     -48385.569     -2145.3997      0.20741353     468.75         0.00082965412
   1876000   430.76936     -37658.073     -48175.658     -2182.3504      0.21837138     469            0.00087348551
   1877000   431.39101     -37636.195     -48168.959     -2051.0422      0.20554631     469.25         0.00082218525
   1878000   432.85384     -37529.169     -48097.649     -1938.292       0.18954752     469.5          0.00075819007
   1879000   433.46323     -37652.941     -48236.299     -2230.872       0.21603702     469.75         0.00086414808
   1880000   430.49871     -37709.773     -48220.75      -2149.7837      0.21504692     470            0.0008601877 
Loop time of 51.5452 on 56 procs for 10000 steps with 12288 atoms

Performance: 16.762 ns/day, 1.432 hours/ns, 194.004 timesteps/s, 2.384 Matom-step/s
99.8% CPU use with 56 MPI tasks x no OpenMP threads

MPI task timing breakdown:
Section |  min time  |  avg time  |  max time  |%varavg| %total
---------------------------------------------------------------
Pair    | 18.978     | 19.649     | 20.662     |   8.5 | 38.12
Bond    | 0.0017019  | 0.0024183  | 0.0035878  |   0.8 |  0.00
Kspace  | 14.668     | 15.86      | 16.596     |  10.2 | 30.77
Neigh   | 4.5119     | 4.5148     | 4.5174     |   0.0 |  8.76
Comm    | 1.6365     | 1.7969     | 1.981      |   6.3 |  3.49
Output  | 0.024192   | 0.041392   | 0.058043   |   4.9 |  0.08
Modify  | 7.3391     | 8.0321     | 9.4186     |  18.1 | 15.58
Other   |            | 1.649      |            |       |  3.20

Nlocal:        219.429 ave         238 max         205 min
Histogram: 5 3 9 10 10 7 4 3 3 2
Nghost:        6840.46 ave        6941 max        6775 min
Histogram: 6 8 6 13 9 3 2 4 4 1
Neighs:        96073.1 ave      106181 max       88862 min
Histogram: 4 5 6 13 10 9 3 2 2 2

Total # of neighbors = 5380092
Ave neighs/atom = 437.83301
Ave special neighs/atom = 2
Neighbor list builds = 381
Dangerous builds = 0
kspace_style pppm/tip4p 1.0e-5
next nloop
jump SELF loop_start
run 10000 # 10ps
PPPM initialization ...
  extracting TIP4P info from pair style
  using 12-bit tables for long-range coulomb
  G vector (1/distance) = 0.32815664
  grid = 50 50 50
  stencil order = 5
  estimated absolute RMS force accuracy = 0.0035802102
  estimated relative force accuracy = 1.0781697e-05
  using double precision KISS FFT
  3d grid and FFT values/proc = 11424 2800
Generated 0 of 1 mixed pair_coeff terms from geometric mixing rule
Per MPI rank memory allocation (min/avg/max) = 10.92 | 11.04 | 11.13 Mbytes
   Step          Temp          TotEng         PotEng          Pxy           v_sxy         v_strain     v_viscosity  
   1880000   430.52668     -37708.298     -48219.957     -1709.0923      0.17022135     470            0.00068088542
   1881000   432.77828     -37541.884     -48108.519     -2339.7998      0.23232212     470.25         0.00092928849
   1882000   429.50104     -37736.401     -48223.019     -2474.6522      0.24508188     470.5          0.00098032752
   1883000   428.43422     -37641.053     -48101.624     -2096.5544      0.20577135     470.75         0.00082308542
   1884000   425.94521     -37862.459     -48262.258     -2312.0233      0.2255152      471            0.00090206082
   1885000   430.5688      -37552.484     -48065.172     -2393.5581      0.23583478     471.25         0.00094333911
   1886000   431.59945     -37863.964     -48401.816     -2015.9514      0.19410448     471.5          0.00077641791
   1887000   428.76527     -37823.203     -48291.857     -2255.8513      0.21851133     471.75         0.0008740453 
   1888000   441.06907     -37417.012     -48186.073     -2127.8991      0.21082319     472            0.00084329277
   1889000   430.11476     -37659.555     -48161.157     -2379.5386      0.23092693     472.25         0.00092370771
   1890000   430.53909     -37544.973     -48056.936     -1899.7023      0.18892799     472.5          0.00075571195
Loop time of 44.2594 on 56 procs for 10000 steps with 12288 atoms

Performance: 19.521 ns/day, 1.229 hours/ns, 225.941 timesteps/s, 2.776 Matom-step/s
99.8% CPU use with 56 MPI tasks x no OpenMP threads

MPI task timing breakdown:
Section |  min time  |  avg time  |  max time  |%varavg| %total
---------------------------------------------------------------
Pair    | 18.305     | 19.403     | 20.418     |  10.8 | 43.84
Bond    | 0.0012799  | 0.0021136  | 0.0031803  |   0.8 |  0.00
Kspace  | 10.68      | 11.716     | 12.813     |  14.1 | 26.47
Neigh   | 4.5219     | 4.5243     | 4.5266     |   0.0 | 10.22
Comm    | 1.529      | 1.6351     | 1.7714     |   4.8 |  3.69
Output  | 0.02374    | 0.040837   | 0.057353   |   4.9 |  0.09
Modify  | 5.1357     | 5.6501     | 6.6891     |  15.2 | 12.77
Other   |            | 1.287      |            |       |  2.91

Nlocal:        219.429 ave         243 max         202 min
Histogram: 3 2 7 16 8 11 6 2 0 1
Nghost:        7277.25 ave        7353 max        7197 min
Histogram: 2 4 5 11 4 8 7 7 5 3
Neighs:        96073.4 ave      107365 max       87660 min
Histogram: 3 2 9 13 9 10 6 3 0 1

Total # of neighbors = 5380111
Ave neighs/atom = 437.83455
Ave special neighs/atom = 2
Neighbor list builds = 384
Dangerous builds = 0
kspace_style pppm/tip4p 1.0e-5
next nloop
jump SELF loop_start
run 10000 # 10ps
PPPM initialization ...
  extracting TIP4P info from pair style
  using 12-bit tables for long-range coulomb
  G vector (1/distance) = 0.32815664
  grid = 50 75 50
  stencil order = 5
  estimated absolute RMS force accuracy = 0.0035802102
  estimated relative force accuracy = 1.0781697e-05
  using double precision KISS FFT
  3d grid and FFT values/proc = 15776 4000
Generated 0 of 1 mixed pair_coeff terms from geometric mixing rule
Per MPI rank memory allocation (min/avg/max) = 11.21 | 11.35 | 11.45 Mbytes
   Step          Temp          TotEng         PotEng          Pxy           v_sxy         v_strain     v_viscosity  
   1890000   430.59322     -37542.255     -48055.539     -1489.3916      0.14727687     472.5          0.00058910747
   1891000   428.56325     -37543.909     -48007.63      -2280.9981      0.22446212     472.75         0.00089784847
   1892000   426.55059     -37711.168     -48125.748     -2166.8112      0.21781721     473            0.00087126883
   1893000   428.234       -37864.402     -48320.084     -2023.624       0.20164007     473.25         0.00080656028
   1894000   426.90378     -37806.128     -48229.332     -2485.3014      0.24303079     473.5          0.00097212315
   1895000   427.79602     -37759.357     -48204.346     -1874.5629      0.18907755     473.75         0.00075631019
   1896000   433.51647     -37585.883     -48170.541     -2072.9944      0.19817601     474            0.00079270405
   1897000   426.90087     -37863.345     -48286.477     -2276.5488      0.21973833     474.25         0.00087895331
   1898000   429.98307     -37728.254     -48226.641     -2259.4034      0.22296756     474.5          0.00089187024
   1899000   435.47181     -37678.325     -48310.724     -1774.4912      0.17276328     474.75         0.0006910531 
   1900000   434.20873     -37670.783     -48272.343     -2042.8204      0.19765434     475            0.00079061735
Loop time of 51.4297 on 56 procs for 10000 steps with 12288 atoms

Performance: 16.800 ns/day, 1.429 hours/ns, 194.440 timesteps/s, 2.389 Matom-step/s
99.8% CPU use with 56 MPI tasks x no OpenMP threads

MPI task timing breakdown:
Section |  min time  |  avg time  |  max time  |%varavg| %total
---------------------------------------------------------------
Pair    | 18.595     | 19.64      | 20.66      |   8.9 | 38.19
Bond    | 0.0016082  | 0.002435   | 0.0034636  |   0.8 |  0.00
Kspace  | 14.749     | 15.759     | 16.873     |   9.9 | 30.64
Neigh   | 4.4963     | 4.4991     | 4.5015     |   0.0 |  8.75
Comm    | 1.6467     | 1.8072     | 1.9962     |   6.4 |  3.51
Output  | 0.023778   | 0.040959   | 0.057598   |   4.9 |  0.08
Modify  | 7.31       | 8.0352     | 9.4178     |  18.0 | 15.62
Other   |            | 1.646      |            |       |  3.20

Nlocal:        219.429 ave         235 max         200 min
Histogram: 3 1 6 5 8 6 7 9 7 4
Nghost:        6858.57 ave        6938 max        6761 min
Histogram: 1 2 2 6 7 17 11 3 5 2
Neighs:          96073 ave      103668 max       85259 min
Histogram: 3 2 3 4 8 9 5 11 6 5

Total # of neighbors = 5380090
Ave neighs/atom = 437.83285
Ave special neighs/atom = 2
Neighbor list builds = 383
Dangerous builds = 0
kspace_style pppm/tip4p 1.0e-5
next nloop
jump SELF loop_start
run 10000 # 10ps
PPPM initialization ...
  extracting TIP4P info from pair style
  using 12-bit tables for long-range coulomb
  G vector (1/distance) = 0.32815664
  grid = 50 50 50
  stencil order = 5
  estimated absolute RMS force accuracy = 0.0035802102
  estimated relative force accuracy = 1.0781697e-05
  using double precision KISS FFT
  3d grid and FFT values/proc = 11424 2800
Generated 0 of 1 mixed pair_coeff terms from geometric mixing rule
Per MPI rank memory allocation (min/avg/max) = 10.92 | 11.04 | 11.13 Mbytes
   Step          Temp          TotEng         PotEng          Pxy           v_sxy         v_strain     v_viscosity  
   1900000   433.95506     -37676.182     -48271.548     -1448.3418      0.13693622     475            0.00054774489
   1901000   434.99073     -37459.281     -48079.934     -1836.7266      0.18503503     475.25         0.00074014011
   1902000   429.56498     -37615.194     -48103.373     -2128.11        0.21095948     475.5          0.00084383792
   1903000   428.04119     -37933.857     -48384.832     -2403.1141      0.22638208     475.75         0.0009055283 
   1904000   430.52376     -37740.616     -48252.204     -1698.1919      0.16754661     476            0.00067018644
   1905000   432.04986     -37723.885     -48272.734     -2042.0655      0.19835099     476.25         0.00079340397
   1906000   431.94192     -37608.014     -48154.228     -2211.3505      0.21970598     476.5          0.0008788239 
   1907000   433.36032     -37735.574     -48316.42      -1997.7288      0.19891363     476.75         0.00079565453
   1908000   438.62158     -37497.556     -48206.86      -2523.7938      0.25096641     477            0.0010038656 
   1909000   436.47232     -37441.836     -48098.664     -2352.2307      0.23208715     477.25         0.00092834859
   1910000   430.31035     -37611.903     -48118.281     -1949.5371      0.19341863     477.5          0.00077367452
Loop time of 44.1502 on 56 procs for 10000 steps with 12288 atoms

Performance: 19.570 ns/day, 1.226 hours/ns, 226.500 timesteps/s, 2.783 Matom-step/s
99.8% CPU use with 56 MPI tasks x no OpenMP threads

MPI task timing breakdown:
Section |  min time  |  avg time  |  max time  |%varavg| %total
---------------------------------------------------------------
Pair    | 18.314     | 19.389     | 20.474     |  10.6 | 43.92
Bond    | 0.001212   | 0.0021119  | 0.0031976  |   0.8 |  0.00
Kspace  | 10.529     | 11.671     | 12.755     |  13.2 | 26.43
Neigh   | 4.4883     | 4.4911     | 4.4937     |   0.0 | 10.17
Comm    | 1.5335     | 1.6314     | 1.8        |   5.0 |  3.70
Output  | 0.023325   | 0.040611   | 0.057328   |   5.0 |  0.09
Modify  | 5.0895     | 5.6533     | 6.6782     |  15.0 | 12.80
Other   |            | 1.271      |            |       |  2.88

Nlocal:        219.429 ave         242 max         196 min
Histogram: 2 1 5 11 8 9 10 3 5 2
Nghost:        7274.77 ave        7345 max        7170 min
Histogram: 2 1 4 3 7 8 8 14 6 3
Neighs:        96055.4 ave      107083 max       84805 min
Histogram: 2 1 8 9 8 10 7 6 3 2

Total # of neighbors = 5379100
Ave neighs/atom = 437.75228
Ave special neighs/atom = 2
Neighbor list builds = 383
Dangerous builds = 0
kspace_style pppm/tip4p 1.0e-5
next nloop
jump SELF loop_start
run 10000 # 10ps
PPPM initialization ...
  extracting TIP4P info from pair style
  using 12-bit tables for long-range coulomb
  G vector (1/distance) = 0.32815664
  grid = 50 75 50
  stencil order = 5
  estimated absolute RMS force accuracy = 0.0035802102
  estimated relative force accuracy = 1.0781697e-05
  using double precision KISS FFT
  3d grid and FFT values/proc = 15776 4000
Generated 0 of 1 mixed pair_coeff terms from geometric mixing rule
Per MPI rank memory allocation (min/avg/max) = 11.21 | 11.35 | 11.45 Mbytes
   Step          Temp          TotEng         PotEng          Pxy           v_sxy         v_strain     v_viscosity  
   1910000   430.05929     -37619.169     -48119.417     -1378.7949      0.13516812     477.5          0.00054067248
   1911000   434.88398     -37486.012     -48104.059     -2062.193       0.20611309     477.75         0.00082445234
   1912000   436.64638     -37246.64      -47907.717     -2234.0808      0.21887899     478            0.00087551595
   1913000   431.92789     -37795.9       -48341.772     -2015.1633      0.19323058     478.25         0.0007729223 
   1914000   428.78079     -37721.993     -48191.025     -1992.3273      0.19171321     478.5          0.00076685286
   1915000   431.3655      -37665.473     -48197.613     -2102.8712      0.21618244     478.75         0.00086472976
   1916000   425.89179     -37809.136     -48207.631     -2064.4894      0.20546795     479            0.00082187182
   1917000   428.33897     -37600.744     -48058.989     -1897.8085      0.18616505     479.25         0.00074466021
   1918000   429.48759     -37640.735     -48127.024     -2279.3312      0.22345862     479.5          0.00089383449
   1919000   424.22386     -37839.453     -48197.225     -2232.8613      0.21614967     479.75         0.00086459867
   1920000   432.92705     -37487.44      -48057.707     -2200.6307      0.21211204     480            0.00084844814
Loop time of 51.4626 on 56 procs for 10000 steps with 12288 atoms

Performance: 16.789 ns/day, 1.430 hours/ns, 194.316 timesteps/s, 2.388 Matom-step/s
99.8% CPU use with 56 MPI tasks x no OpenMP threads

MPI task timing breakdown:
Section |  min time  |  avg time  |  max time  |%varavg| %total
---------------------------------------------------------------
Pair    | 18.694     | 19.639     | 20.276     |   7.4 | 38.16
Bond    | 0.0015828  | 0.0024612  | 0.0051081  |   1.1 |  0.00
Kspace  | 15.033     | 15.775     | 16.772     |   8.1 | 30.65
Neigh   | 4.5179     | 4.5207     | 4.5236     |   0.0 |  8.78
Comm    | 1.6526     | 1.799      | 1.9799     |   5.3 |  3.50
Output  | 0.023759   | 0.040917   | 0.057531   |   4.9 |  0.08
Modify  | 7.3713     | 8.0447     | 9.4045     |  17.7 | 15.63
Other   |            | 1.64       |            |       |  3.19

Nlocal:        219.429 ave         243 max         201 min
Histogram: 1 9 8 3 16 8 3 5 0 3
Nghost:        6845.43 ave        6929 max        6792 min
Histogram: 7 4 9 9 13 5 3 3 2 1
Neighs:        96056.7 ave      107052 max       87222 min
Histogram: 3 6 8 3 17 6 7 3 0 3

Total # of neighbors = 5379175
Ave neighs/atom = 437.75838
Ave special neighs/atom = 2
Neighbor list builds = 384
Dangerous builds = 0
kspace_style pppm/tip4p 1.0e-5
next nloop
jump SELF loop_start
run 10000 # 10ps
PPPM initialization ...
  extracting TIP4P info from pair style
  using 12-bit tables for long-range coulomb
  G vector (1/distance) = 0.32815664
  grid = 50 50 50
  stencil order = 5
  estimated absolute RMS force accuracy = 0.0035802102
  estimated relative force accuracy = 1.0781697e-05
  using double precision KISS FFT
  3d grid and FFT values/proc = 11424 2800
Generated 0 of 1 mixed pair_coeff terms from geometric mixing rule
Per MPI rank memory allocation (min/avg/max) = 10.92 | 11.04 | 11.13 Mbytes
   Step          Temp          TotEng         PotEng          Pxy           v_sxy         v_strain     v_viscosity  
   1920000   433.04674     -37482.69      -48055.88      -1638.74        0.154306       480            0.00061722401
   1921000   426.28847     -37587.775     -47995.956     -2604.006       0.25641818     480.25         0.0010256727 
   1922000   431.52504     -37681.852     -48217.888     -2166.2984      0.21072338     480.5          0.00084289353
   1923000   430.35595     -37628.061     -48135.553     -2092.5981      0.20261805     480.75         0.00081047221
   1924000   431.23739     -37691.579     -48220.591     -2091.3118      0.20755914     481            0.00083023655
   1925000   434.25431     -37514.537     -48117.21      -2064.3793      0.20729817     481.25         0.00082919267
   1926000   433.08001     -37536.116     -48110.118     -1721.374       0.17172        481.5          0.00068688002
   1927000   428.18708     -37750.025     -48204.562     -1917.8426      0.19016617     481.75         0.00076066469
   1928000   431.41694     -37742.551     -48275.947     -2092.216       0.19977162     482            0.00079908647
   1929000   432.17        -37588.66      -48140.443     -2175.2664      0.21708311     482.25         0.00086833243
   1930000   435.71051     -37557.265     -48195.492     -2178.5872      0.21411092     482.5          0.00085644368
Loop time of 44.2523 on 56 procs for 10000 steps with 12288 atoms

Performance: 19.524 ns/day, 1.229 hours/ns, 225.977 timesteps/s, 2.777 Matom-step/s
99.8% CPU use with 56 MPI tasks x no OpenMP threads

MPI task timing breakdown:
Section |  min time  |  avg time  |  max time  |%varavg| %total
---------------------------------------------------------------
Pair    | 18.37      | 19.39      | 20.4       |   9.2 | 43.82
Bond    | 0.001262   | 0.002101   | 0.0029162  |   0.8 |  0.00
Kspace  | 10.699     | 11.718     | 12.65      |  11.4 | 26.48
Neigh   | 4.5142     | 4.5168     | 4.5195     |   0.0 | 10.21
Comm    | 1.5298     | 1.642      | 1.8008     |   4.8 |  3.71
Output  | 0.023451   | 0.040689   | 0.057379   |   5.0 |  0.09
Modify  | 5.1483     | 5.6521     | 6.6967     |  14.9 | 12.77
Other   |            | 1.291      |            |       |  2.92

Nlocal:        219.429 ave         235 max         199 min
Histogram: 1 3 2 7 11 7 8 5 7 5
Nghost:        7287.91 ave        7356 max        7211 min
Histogram: 1 3 2 10 10 3 17 5 4 1
Neighs:        96080.6 ave      104817 max       85747 min
Histogram: 1 2 4 6 12 8 8 7 6 2

Total # of neighbors = 5380514
Ave neighs/atom = 437.86735
Ave special neighs/atom = 2
Neighbor list builds = 382
Dangerous builds = 0
kspace_style pppm/tip4p 1.0e-5
next nloop
jump SELF loop_start
run 10000 # 10ps
PPPM initialization ...
  extracting TIP4P info from pair style
  using 12-bit tables for long-range coulomb
  G vector (1/distance) = 0.32815664
  grid = 50 75 50
  stencil order = 5
  estimated absolute RMS force accuracy = 0.0035802102
  estimated relative force accuracy = 1.0781697e-05
  using double precision KISS FFT
  3d grid and FFT values/proc = 15776 4000
Generated 0 of 1 mixed pair_coeff terms from geometric mixing rule
Per MPI rank memory allocation (min/avg/max) = 11.21 | 11.35 | 11.45 Mbytes
   Step          Temp          TotEng         PotEng          Pxy           v_sxy         v_strain     v_viscosity  
   1930000   436.11792     -37547.495     -48195.67      -1541.0827      0.14851355     482.5          0.00059405421
   1931000   429.96968     -37641.36      -48139.42      -2398.9036      0.23663629     482.75         0.00094654516
   1932000   429.42538     -37750.34      -48235.11      -2183.2543      0.20986751     483            0.00083947005
   1933000   435.51915     -37512.965     -48146.52      -1988.8173      0.19380278     483.25         0.00077521112
   1934000   437.77077     -37611.148     -48299.678     -1949.2285      0.18999346     483.5          0.00075997383
   1935000   431.17241     -37859.945     -48387.371     -2020.5121      0.19805461     483.75         0.00079221844
   1936000   435.35365     -37526.479     -48155.994     -1906.9069      0.18777346     484            0.00075109382
   1937000   436.00212     -37423.213     -48068.56      -1809.7613      0.17652324     484.25         0.00070609294
   1938000   432.15147     -37557.085     -48108.416     -2322.0748      0.2253391      484.5          0.00090135642
   1939000   434.62653     -37583.454     -48195.215     -1968.5663      0.19352585     484.75         0.00077410342
   1940000   428.26534     -37831.3       -48287.748     -2146.3944      0.21159775     485            0.00084639099
Loop time of 51.3377 on 56 procs for 10000 steps with 12288 atoms

Performance: 16.830 ns/day, 1.426 hours/ns, 194.789 timesteps/s, 2.394 Matom-step/s
99.8% CPU use with 56 MPI tasks x no OpenMP threads

MPI task timing breakdown:
Section |  min time  |  avg time  |  max time  |%varavg| %total
---------------------------------------------------------------
Pair    | 18.86      | 19.643     | 20.315     |   8.3 | 38.26
Bond    | 0.0015878  | 0.0024124  | 0.0038676  |   0.9 |  0.00
Kspace  | 14.894     | 15.64      | 16.445     |   9.3 | 30.47
Neigh   | 4.5227     | 4.5255     | 4.5275     |   0.0 |  8.82
Comm    | 1.6519     | 1.796      | 2.0138     |   6.0 |  3.50
Output  | 0.023395   | 0.040549   | 0.057149   |   5.0 |  0.08
Modify  | 7.3272     | 8.0435     | 9.424      |  18.0 | 15.67
Other   |            | 1.646      |            |       |  3.21

Nlocal:        219.429 ave         243 max         198 min
Histogram: 4 0 6 9 12 10 7 4 3 1
Nghost:        6858.32 ave        6935 max        6753 min
Histogram: 1 0 1 4 10 14 15 8 1 2
Neighs:        96095.6 ave      106583 max       85651 min
Histogram: 3 1 5 8 10 11 11 4 0 3

Total # of neighbors = 5381354
Ave neighs/atom = 437.93571
Ave special neighs/atom = 2
Neighbor list builds = 384
Dangerous builds = 0
kspace_style pppm/tip4p 1.0e-5
next nloop
jump SELF loop_start
run 10000 # 10ps
PPPM initialization ...
  extracting TIP4P info from pair style
  using 12-bit tables for long-range coulomb
  G vector (1/distance) = 0.32815664
  grid = 50 50 50
  stencil order = 5
  estimated absolute RMS force accuracy = 0.0035802102
  estimated relative force accuracy = 1.0781697e-05
  using double precision KISS FFT
  3d grid and FFT values/proc = 11424 2800
Generated 0 of 1 mixed pair_coeff terms from geometric mixing rule
Per MPI rank memory allocation (min/avg/max) = 10.92 | 11.04 | 11.13 Mbytes
   Step          Temp          TotEng         PotEng          Pxy           v_sxy         v_strain     v_viscosity  
   1940000   428.31055     -37830.286     -48287.838     -1685.0442      0.16414196     485            0.00065656786
   1941000   430.01114     -37830.027     -48329.099     -2328.46        0.23101539     485.25         0.00092406157
   1942000   429.88367     -37685.279     -48181.24      -1736.3695      0.17438719     485.5          0.00069754876
   1943000   431.3227      -37500.421     -48031.516     -2188.8633      0.20935693     485.75         0.00083742772
   1944000   434.2494      -37600.576     -48203.13      -1941.3341      0.19264997     486            0.00077059988
   1945000   432.72464     -37640.202     -48205.527     -1980.996       0.19525835     486.25         0.00078103341
   1946000   433.40503     -37703.269     -48285.206     -2019.7335      0.19615543     486.5          0.00078462173
   1947000   433.80718     -37621.194     -48212.95      -2344.0593      0.22876075     486.75         0.00091504301
   1948000   425.07622     -37913.017     -48291.599     -2301.2489      0.22697938     487            0.00090791752
   1949000   423.60985     -37849.796     -48192.575     -1981.3675      0.19853916     487.25         0.00079415664
   1950000   427.01043     -37773.736     -48199.544     -2057.1653      0.19869884     487.5          0.00079479535
Loop time of 44.2232 on 56 procs for 10000 steps with 12288 atoms

Performance: 19.537 ns/day, 1.228 hours/ns, 226.126 timesteps/s, 2.779 Matom-step/s
99.8% CPU use with 56 MPI tasks x no OpenMP threads

MPI task timing breakdown:
Section |  min time  |  avg time  |  max time  |%varavg| %total
---------------------------------------------------------------
Pair    | 18.464     | 19.374     | 20.311     |  10.0 | 43.81
Bond    | 0.001194   | 0.0021063  | 0.0033453  |   0.8 |  0.00
Kspace  | 10.779     | 11.75      | 12.624     |  12.3 | 26.57
Neigh   | 4.4925     | 4.4951     | 4.4975     |   0.0 | 10.16
Comm    | 1.5416     | 1.6252     | 1.7802     |   4.3 |  3.68
Output  | 0.023452   | 0.040763   | 0.057608   |   5.0 |  0.09
Modify  | 5.1465     | 5.664      | 6.6838     |  14.6 | 12.81
Other   |            | 1.272      |            |       |  2.88

Nlocal:        219.429 ave         239 max         204 min
Histogram: 7 1 11 7 7 5 7 7 2 2
Nghost:        7257.34 ave        7315 max        7194 min
Histogram: 3 2 4 6 6 14 8 8 4 1
Neighs:        96058.8 ave      106020 max       88042 min
Histogram: 3 5 11 7 6 8 8 5 1 2

Total # of neighbors = 5379294
Ave neighs/atom = 437.76807
Ave special neighs/atom = 2
Neighbor list builds = 380
Dangerous builds = 0
kspace_style pppm/tip4p 1.0e-5
next nloop
jump SELF loop_start
run 10000 # 10ps
PPPM initialization ...
  extracting TIP4P info from pair style
  using 12-bit tables for long-range coulomb
  G vector (1/distance) = 0.32815664
  grid = 50 75 50
  stencil order = 5
  estimated absolute RMS force accuracy = 0.0035802102
  estimated relative force accuracy = 1.0781697e-05
  using double precision KISS FFT
  3d grid and FFT values/proc = 15776 4000
Generated 0 of 1 mixed pair_coeff terms from geometric mixing rule
Per MPI rank memory allocation (min/avg/max) = 11.21 | 11.35 | 11.45 Mbytes
   Step          Temp          TotEng         PotEng          Pxy           v_sxy         v_strain     v_viscosity  
   1950000   427.76605     -37756.196     -48200.453     -1602.7158      0.15188221     487.5          0.00060752885
   1951000   425.19716     -37690.05      -48071.585     -1995.7694      0.19937928     487.75         0.00079751712
   1952000   426.02859     -37995.798     -48397.633     -2217.8241      0.21479078     488            0.00085916314
   1953000   428.89631     -37730.115     -48201.968     -2046.2057      0.19568072     488.25         0.00078272288
   1954000   430.30382     -37602.894     -48109.112     -2396.9267      0.23437571     488.5          0.00093750285
   1955000   426.04167     -37647.688     -48049.843     -2004.5512      0.19922608     488.75         0.0007969043 
   1956000   436.82521     -37385.026     -48050.469     -1778.4361      0.17309396     489            0.00069237586
   1957000   427.94731     -37776.448     -48225.13      -1859.1004      0.17768228     489.25         0.00071072912
   1958000   428.37575     -37747.898     -48207.041     -1927.4247      0.18645633     489.5          0.00074582531
   1959000   430.57098     -37791.171     -48303.913     -1997.4468      0.20110875     489.75         0.00080443499
   1960000   431.24163     -37711.748     -48240.864     -2079.08        0.2068967      490            0.00082758682
Loop time of 51.8214 on 56 procs for 10000 steps with 12288 atoms

Performance: 16.673 ns/day, 1.439 hours/ns, 192.970 timesteps/s, 2.371 Matom-step/s
99.8% CPU use with 56 MPI tasks x no OpenMP threads

MPI task timing breakdown:
Section |  min time  |  avg time  |  max time  |%varavg| %total
---------------------------------------------------------------
Pair    | 18.406     | 19.639     | 20.889     |  10.7 | 37.90
Bond    | 0.0015707  | 0.0024036  | 0.003811   |   0.9 |  0.00
Kspace  | 14.681     | 16.049     | 17.325     |  11.7 | 30.97
Neigh   | 4.5319     | 4.5347     | 4.5374     |   0.1 |  8.75
Comm    | 1.6717     | 1.8085     | 1.9988     |   5.6 |  3.49
Output  | 0.023827   | 0.04097    | 0.057606   |   4.9 |  0.08
Modify  | 7.3322     | 8.04       | 9.4435     |  18.0 | 15.51
Other   |            | 1.706      |            |       |  3.29

Nlocal:        219.429 ave         241 max         198 min
Histogram: 1 2 5 9 8 13 13 4 0 1
Nghost:        6846.77 ave        6910 max        6784 min
Histogram: 3 6 4 10 7 4 7 4 6 5
Neighs:        96063.8 ave      107927 max       86372 min
Histogram: 2 3 8 7 11 14 10 0 0 1

Total # of neighbors = 5379573
Ave neighs/atom = 437.79077
Ave special neighs/atom = 2
Neighbor list builds = 383
Dangerous builds = 0
kspace_style pppm/tip4p 1.0e-5
next nloop
jump SELF loop_start
run 10000 # 10ps
PPPM initialization ...
  extracting TIP4P info from pair style
  using 12-bit tables for long-range coulomb
  G vector (1/distance) = 0.32815664
  grid = 50 50 50
  stencil order = 5
  estimated absolute RMS force accuracy = 0.0035802102
  estimated relative force accuracy = 1.0781697e-05
  using double precision KISS FFT
  3d grid and FFT values/proc = 11424 2800
Generated 0 of 1 mixed pair_coeff terms from geometric mixing rule
Per MPI rank memory allocation (min/avg/max) = 10.92 | 11.04 | 11.13 Mbytes
   Step          Temp          TotEng         PotEng          Pxy           v_sxy         v_strain     v_viscosity  
   1960000   431.5821      -37704.185     -48241.613     -1600.3358      0.15810585     490            0.0006324234 
   1961000   436.337       -37471.139     -48124.663     -2238.4523      0.22027442     490.25         0.00088109768
   1962000   435.0999      -37649.363     -48272.681     -2341.4598      0.23293639     490.5          0.00093174557
   1963000   433.75246     -37798.489     -48388.909     -1797.1596      0.17975762     490.75         0.00071903049
   1964000   428.75755     -37770.478     -48238.943     -2244.256       0.22003225     491            0.00088012899
   1965000   433.82297     -37704.377     -48296.518     -1757.1955      0.17088739     491.25         0.00068354956
   1966000   436.48276     -37603.029     -48260.112     -2231.4832      0.22106511     491.5          0.00088426045
   1967000   436.47854     -37486.531     -48143.51      -2253.8345      0.22276079     491.75         0.00089104317
   1968000   436.39578     -37481.211     -48136.169     -2299.5232      0.223245       492            0.00089297999
   1969000   430.15595     -37614.556     -48117.164     -2220.0509      0.2221906      492.25         0.00088876238
   1970000   432.91413     -37505.91      -48075.861     -2100.7051      0.21056964     492.5          0.00084227855
Loop time of 44.286 on 56 procs for 10000 steps with 12288 atoms

Performance: 19.510 ns/day, 1.230 hours/ns, 225.805 timesteps/s, 2.775 Matom-step/s
99.8% CPU use with 56 MPI tasks x no OpenMP threads

MPI task timing breakdown:
Section |  min time  |  avg time  |  max time  |%varavg| %total
---------------------------------------------------------------
Pair    | 18.438     | 19.391     | 20.481     |  10.0 | 43.79
Bond    | 0.0012705  | 0.0020998  | 0.0032825  |   0.8 |  0.00
Kspace  | 10.776     | 11.736     | 12.6       |  11.9 | 26.50
Neigh   | 4.5437     | 4.5461     | 4.5481     |   0.1 | 10.27
Comm    | 1.5334     | 1.6318     | 1.7937     |   5.0 |  3.68
Output  | 0.023296   | 0.040657   | 0.057452   |   5.0 |  0.09
Modify  | 5.0936     | 5.6424     | 6.6864     |  15.1 | 12.74
Other   |            | 1.295      |            |       |  2.92

Nlocal:        219.429 ave         239 max         200 min
Histogram: 3 4 4 6 8 13 6 8 3 1
Nghost:        7293.23 ave        7368 max        7202 min
Histogram: 1 2 1 9 8 15 8 6 5 1
Neighs:        96056.3 ave      106984 max       86660 min
Histogram: 4 4 4 10 10 8 7 5 3 1

Total # of neighbors = 5379153
Ave neighs/atom = 437.75659
Ave special neighs/atom = 2
Neighbor list builds = 384
Dangerous builds = 0
kspace_style pppm/tip4p 1.0e-5
next nloop
jump SELF loop_start
run 10000 # 10ps
PPPM initialization ...
  extracting TIP4P info from pair style
  using 12-bit tables for long-range coulomb
  G vector (1/distance) = 0.32815664
  grid = 50 75 50
  stencil order = 5
  estimated absolute RMS force accuracy = 0.0035802102
  estimated relative force accuracy = 1.0781697e-05
  using double precision KISS FFT
  3d grid and FFT values/proc = 15776 4000
Generated 0 of 1 mixed pair_coeff terms from geometric mixing rule
Per MPI rank memory allocation (min/avg/max) = 11.21 | 11.35 | 11.45 Mbytes
   Step          Temp          TotEng         PotEng          Pxy           v_sxy         v_strain     v_viscosity  
   1970000   433.06571     -37502.049     -48075.702     -1600.1234      0.15869515     492.5          0.00063478062
   1971000   433.14999     -37531.837     -48107.547     -2000.2153      0.19913269     492.75         0.00079653077
   1972000   429.82479     -37811.667     -48306.189     -2123.5434      0.21011159     493            0.00084044638
   1973000   433.77331     -37528.985     -48119.914     -2598.1071      0.25867848     493.25         0.0010347139 
   1974000   433.88206     -37436.1       -48029.684     -2016.5894      0.20330661     493.5          0.00081322646
   1975000   432.50953     -37614.972     -48175.044     -2361.6744      0.23165501     493.75         0.00092662003
   1976000   430.17873     -37841.353     -48344.517     -1961.3191      0.19711869     494            0.00078847475
   1977000   431.52662     -37604.076     -48140.15      -2019.6084      0.19741124     494.25         0.00078964497
   1978000   437.98915     -37445.534     -48139.396     -2252.7181      0.22408081     494.5          0.00089632323
   1979000   434.85264     -37563.065     -48180.347     -1732.4866      0.17492867     494.75         0.00069971469
   1980000   436.08133     -37379.382     -48026.664     -2037.3325      0.2034531      495            0.0008138124 
Loop time of 51.6962 on 56 procs for 10000 steps with 12288 atoms

Performance: 16.713 ns/day, 1.436 hours/ns, 193.438 timesteps/s, 2.377 Matom-step/s
99.8% CPU use with 56 MPI tasks x no OpenMP threads

MPI task timing breakdown:
Section |  min time  |  avg time  |  max time  |%varavg| %total
---------------------------------------------------------------
Pair    | 18.542     | 19.639     | 20.783     |  10.8 | 37.99
Bond    | 0.0014645  | 0.0024264  | 0.0039475  |   0.9 |  0.00
Kspace  | 14.723     | 15.913     | 17.084     |  12.0 | 30.78
Neigh   | 4.5802     | 4.5834     | 4.5856     |   0.1 |  8.87
Comm    | 1.6554     | 1.8063     | 1.9981     |   5.8 |  3.49
Output  | 0.023143   | 0.040306   | 0.05694    |   5.0 |  0.08
Modify  | 7.3411     | 8.0411     | 9.4497     |  17.9 | 15.55
Other   |            | 1.671      |            |       |  3.23

Nlocal:        219.429 ave         253 max         204 min
Histogram: 7 12 8 8 12 5 2 1 0 1
Nghost:        6849.05 ave        6913 max        6781 min
Histogram: 4 3 3 8 10 6 10 1 6 5
Neighs:        96047.9 ave      111411 max       87576 min
Histogram: 6 9 8 9 13 5 4 1 0 1

Total # of neighbors = 5378683
Ave neighs/atom = 437.71834
Ave special neighs/atom = 2
Neighbor list builds = 386
Dangerous builds = 0
kspace_style pppm/tip4p 1.0e-5
next nloop
jump SELF loop_start
run 10000 # 10ps
PPPM initialization ...
  extracting TIP4P info from pair style
  using 12-bit tables for long-range coulomb
  G vector (1/distance) = 0.32815664
  grid = 50 50 50
  stencil order = 5
  estimated absolute RMS force accuracy = 0.0035802102
  estimated relative force accuracy = 1.0781697e-05
  using double precision KISS FFT
  3d grid and FFT values/proc = 11424 2800
Generated 0 of 1 mixed pair_coeff terms from geometric mixing rule
Per MPI rank memory allocation (min/avg/max) = 10.92 | 11.04 | 11.13 Mbytes
   Step          Temp          TotEng         PotEng          Pxy           v_sxy         v_strain     v_viscosity  
   1980000   436.08133     -37378.273     -48025.554     -1522.8724      0.15132543     495            0.00060530172
   1981000   432.91477     -37474.68      -48044.647     -2020.5462      0.20195217     495.25         0.00080780869
   1982000   431.67041     -37427.065     -47966.65      -1952.5757      0.19629599     495.5          0.00078518395
   1983000   432.30632     -37718.404     -48273.515     -1966.2519      0.19315171     495.75         0.00077260686
   1984000   434.13906     -37769.877     -48369.736     -2289.9419      0.22393952     496            0.00089575808
   1985000   437.73963     -37580.281     -48268.051     -2375.9269      0.2308696      496.25         0.00092347839
   1986000   433.19583     -37502.065     -48078.895     -2168.3589      0.21280888     496.5          0.00085123554
   1987000   438.03515     -37389.441     -48084.427     -2253.9161      0.2222561      496.75         0.00088902441
   1988000   436.32252     -37482.025     -48135.195     -2097.4265      0.20019402     497            0.00080077608
   1989000   434.81555     -37432.345     -48048.721     -2186.199       0.21656719     497.25         0.00086626877
   1990000   427.93559     -37844.027     -48292.423     -2274.6364      0.22493486     497.5          0.00089973946
Loop time of 44.2693 on 56 procs for 10000 steps with 12288 atoms

Performance: 19.517 ns/day, 1.230 hours/ns, 225.890 timesteps/s, 2.776 Matom-step/s
99.8% CPU use with 56 MPI tasks x no OpenMP threads

MPI task timing breakdown:
Section |  min time  |  avg time  |  max time  |%varavg| %total
---------------------------------------------------------------
Pair    | 18.429     | 19.395     | 20.253     |  10.1 | 43.81
Bond    | 0.0012453  | 0.0021076  | 0.0031571  |   0.8 |  0.00
Kspace  | 10.992     | 11.734     | 12.644     |  12.3 | 26.51
Neigh   | 4.5159     | 4.5183     | 4.521      |   0.1 | 10.21
Comm    | 1.5414     | 1.6378     | 1.7811     |   5.2 |  3.70
Output  | 0.023255   | 0.040631   | 0.057474   |   5.0 |  0.09
Modify  | 5.1625     | 5.6513     | 6.6869     |  15.0 | 12.77
Other   |            | 1.29       |            |       |  2.91

Nlocal:        219.429 ave         236 max         202 min
Histogram: 1 2 10 5 9 9 5 9 3 3
Nghost:        7281.14 ave        7378 max        7206 min
Histogram: 3 6 6 8 11 9 9 3 0 1
Neighs:          96074 ave      104566 max       87741 min
Histogram: 3 4 6 5 10 9 6 7 4 2

Total # of neighbors = 5380144
Ave neighs/atom = 437.83724
Ave special neighs/atom = 2
Neighbor list builds = 382
Dangerous builds = 0
kspace_style pppm/tip4p 1.0e-5
next nloop
jump SELF loop_start
run 10000 # 10ps
PPPM initialization ...
  extracting TIP4P info from pair style
  using 12-bit tables for long-range coulomb
  G vector (1/distance) = 0.32815664
  grid = 50 75 50
  stencil order = 5
  estimated absolute RMS force accuracy = 0.0035802102
  estimated relative force accuracy = 1.0781697e-05
  using double precision KISS FFT
  3d grid and FFT values/proc = 15776 4000
Generated 0 of 1 mixed pair_coeff terms from geometric mixing rule
Per MPI rank memory allocation (min/avg/max) = 11.21 | 11.35 | 11.45 Mbytes
   Step          Temp          TotEng         PotEng          Pxy           v_sxy         v_strain     v_viscosity  
   1990000   427.91067     -37846.7       -48294.488     -1689.0744      0.16521313     497.5          0.00066085251
   1991000   436.98668     -37446.647     -48116.033     -2251.5959      0.22121958     497.75         0.00088487832
   1992000   432.85835     -37613.149     -48181.738     -1838.0343      0.17611181     498            0.00070444724
   1993000   433.38892     -37528.138     -48109.682     -2429.93        0.23730668     498.25         0.00094922673
   1994000   437.34794     -37586.791     -48264.997     -1950.1398      0.19329556     498.5          0.00077318225
   1995000   436.26425     -37564.047     -48215.794     -2098.7231      0.20121598     498.75         0.00080486391
   1996000   431.58005     -37664.684     -48202.063     -2317.7932      0.22606372     499            0.00090425489
   1997000   434.41293     -37531.801     -48138.346     -2208.1455      0.21718799     499.25         0.00086875198
   1998000   432.58256     -37428.305     -47990.161     -1993.8011      0.1980098      499.5          0.00079203921
   1999000   429.97901     -37782.161     -48280.449     -2076.9838      0.20253443     499.75         0.00081013772
   2000000   429.85399     -37591.662     -48086.897     -2016.4795      0.19804536     500            0.00079218144
Loop time of 51.4589 on 56 procs for 10000 steps with 12288 atoms

Performance: 16.790 ns/day, 1.429 hours/ns, 194.330 timesteps/s, 2.388 Matom-step/s
99.8% CPU use with 56 MPI tasks x no OpenMP threads

MPI task timing breakdown:
Section |  min time  |  avg time  |  max time  |%varavg| %total
---------------------------------------------------------------
Pair    | 18.853     | 19.636     | 20.398     |   8.0 | 38.16
Bond    | 0.0015241  | 0.0024072  | 0.003595   |   0.9 |  0.00
Kspace  | 15.116     | 15.773     | 16.447     |   8.7 | 30.65
Neigh   | 4.5167     | 4.5194     | 4.5212     |   0.0 |  8.78
Comm    | 1.6494     | 1.7953     | 2.0192     |   6.0 |  3.49
Output  | 0.023869   | 0.041132   | 0.057824   |   5.0 |  0.08
Modify  | 7.328      | 8.03       | 9.4225     |  17.9 | 15.60
Other   |            | 1.662      |            |       |  3.23

Nlocal:        219.429 ave         244 max         204 min
Histogram: 4 5 7 11 14 6 5 3 0 1
Nghost:        6859.79 ave        6925 max        6815 min
Histogram: 6 6 9 7 6 11 4 4 2 1
Neighs:        96073.1 ave      107708 max       87509 min
Histogram: 2 5 7 12 12 8 5 3 1 1

Total # of neighbors = 5380093
Ave neighs/atom = 437.83309
Ave special neighs/atom = 2
Neighbor list builds = 382
Dangerous builds = 0
kspace_style pppm/tip4p 1.0e-5
next nloop
jump SELF loop_start
# run ${Ttotal}
# variable nloop loop ${nloops}
# label loop_start
# run ${stepsPerReset}
# kspace_style pppm/tip4p 1.0e-5
# next nloop
# jump SELF loop_start
Total wall time: 2:41:04
