LAMMPS (22 Jul 2025 - Update 1)
units real
atom_style full
boundary p p p

# package intel 1 omp 2

pair_style lj/cut/tip4p/long 1 2 1 1 0.1546 9.5

bond_style zero
angle_style zero
pair_modify tail yes

read_data 4096_equilibrated_${T}.data
read_data 4096_equilibrated_246.data
Reading data file ...
  triclinic box = (0 0 0) to (49.79052 49.79052 49.79052) with tilt (0 0 0)
  2 by 4 by 7 MPI processor grid
  reading atoms ...
  12288 atoms
  reading velocities ...
  12288 velocities
  scanning bonds ...
  2 = max bonds/atom
  scanning angles ...
  1 = max angles/atom
  triclinic box = (0 0 0) to (49.79052 49.79052 49.79052) with tilt (0 0 0)
  2 by 4 by 7 MPI processor grid
  reading bonds ...
  8192 bonds
  reading angles ...
  4096 angles
Finding 1-2 1-3 1-4 neighbors ...
  special bond factors lj:    0        0        0       
  special bond factors coul:  0        0        0       
     2 = max # of 1-2 neighbors
     1 = max # of 1-3 neighbors
     1 = max # of 1-4 neighbors
     2 = max # of special neighbors
  special bonds CPU = 0.005 seconds
  read_data CPU = 0.127 seconds
# read_data equilibration_NVT_${T}.data
# replicate 2 2 2

print "Initial configuration loaded."
Initial configuration loaded.
reset_timestep 0
print "Applying shear rate: ${gamma}"
Applying shear rate: 5e-6
change_box all triclinic
Changing box ...
  triclinic box = (0 0 0) to (49.79052 49.79052 49.79052) with tilt (0 0 0)
kspace_style pppm/tip4p 1.0e-5

pair_coeff 1 1 0.18521 3.1589 #O-O
pair_coeff * 2 0.0 0.0

bond_coeff 1 0.9572 #O-H
angle_coeff 1 104.52 #H-O-H

group gH2O type 1 2
12288 atoms in group gH2O
group gO type 1
4096 atoms in group gO

neighbor 3.0 bin
neigh_modify delay 0 every 1 check yes

timestep 1.0
fix 1 gH2O shake 1.0e-4 100 0 b 1 a 1
Finding SHAKE clusters ...
       0 = # of size 2 clusters
       0 = # of size 3 clusters
       0 = # of size 4 clusters
    4096 = # of frozen angles
  find clusters CPU = 0.004 seconds

# # 系统弛豫到平衡态
# fix fnvt_equil all nvt temp ${T} ${T} 100.0
# thermo 1000
# thermo_style custom step temp etotal pe
# thermo_modify flush yes
# run 500000 # 500 ps
# unfix fnvt_equil
# write_data 4096_equilibrated_${T}.data

# 系统剪切变形

fix fdeform all deform 1 xy erate ${gamma} remap v
fix fdeform all deform 1 xy erate 5e-6 remap v
fix fnvt all nvt/sllod temp ${T} ${T} 100.0
fix fnvt all nvt/sllod temp 246 ${T} 100.0
fix fnvt all nvt/sllod temp 246 246 100.0

compute tilt all temp/deform

variable L0_x equal lx
variable L0_y equal ly
variable L0_z equal lz

compute p all pressure NULL virial
variable sxy equal -c_p[4] * 1.01325e-4  # convert to GPa


variable strainInc equal 0.01
variable dt equal 1.0e-15
variable gammaSI equal ${gamma}*1e15
variable gammaSI equal 5e-6*1e15
variable stepsPerReset equal ceil(${strainInc}/(${gammaSI}*${dt}))
variable stepsPerReset equal ceil(0.01/(${gammaSI}*${dt}))
variable stepsPerReset equal ceil(0.01/(5000000000*${dt}))
variable stepsPerReset equal ceil(0.01/(5000000000*1e-15))
print "Steps per reset: ${stepsPerReset}"
Steps per reset: 2000

variable massAll equal mass(all)/6.022e23
variable volCm3 equal vol*1.0e-24
variable density_sys equal v_massAll/v_volCm3
variable tau_pa equal v_sxy * 1e9
variable gamma_s equal ${gamma} * 1e15
variable gamma_s equal 5e-6 * 1e15
variable viscosity equal v_tau_pa / v_gamma_s

variable strain equal step*${gammaSI}*${dt}
variable strain equal step*5000000000*${dt}
variable strain equal step*5000000000*1e-15

thermo 1000
thermo_style custom step temp etotal pe pxy v_sxy v_strain v_viscosity
thermo_modify flush yes

dump traj all custom 500 traj_${gamma}_${T}.lammpstrj id type xu yu zu vx vy vz # 0.5ps
dump traj all custom 500 traj_5e-6_${T}.lammpstrj id type xu yu zu vx vy vz 
dump traj all custom 500 traj_5e-6_246.lammpstrj id type xu yu zu vx vy vz 
dump_modify traj sort id
fix stress all ave/time 500 1 500 v_strain v_sxy file stress_${gamma}_${T}.data  # 每0.5ps输出一次应力和应变
fix stress all ave/time 500 1 500 v_strain v_sxy file stress_5e-6_${T}.data  
fix stress all ave/time 500 1 500 v_strain v_sxy file stress_5e-6_246.data  

# compute peratom all stress/atom NULL
# dump stress gO custom 5000 stress_${gamma}_${T}.lammpstrj id type c_peratom[1] c_peratom[2] c_peratom[3] c_peratom[4] c_peratom[5] c_peratom[6]
# dump_modify stress sort id

variable Ttotal equal 2000000 # 2.0 ns
variable nloops equal ceil(${Ttotal}/(100000))
variable nloops equal ceil(2000000/(100000))
print "Total loops: ${nloops}"
Total loops: 20

variable nloop loop ${nloops}
variable nloop loop 20
label loop_start
run 100000 # 100ps
PPPM initialization ...
  extracting TIP4P info from pair style
  using 12-bit tables for long-range coulomb
  G vector (1/distance) = 0.32815664
  grid = 50 50 50
  stencil order = 5
  estimated absolute RMS force accuracy = 0.0035802102
  estimated relative force accuracy = 1.0781697e-05
  using double precision KISS FFT
  3d grid and FFT values/proc = 11424 2800
WARNING: Communication cutoff 0 is shorter than a bond length based estimate of 4.4358. This may lead to errors. (../comm.cpp:743)
WARNING: Increasing communication cutoff to 13.6118 for TIP4P pair style (../pair_lj_cut_tip4p_long.cpp:497)
Generated 0 of 1 mixed pair_coeff terms from geometric mixing rule
Neighbor list info ...
  update: every = 1 steps, delay = 0 steps, check = yes
  max neighbors/atom: 2000, page size: 100000
  master list distance cutoff = 12.8092
  ghost atom cutoff = 13.6118
  binsize = 6.4046, bins = 8 8 8
  1 neighbor lists, perpetual/occasional/extra = 1 0 0
  (1) pair lj/cut/tip4p/long, perpetual
      attributes: half, newton on
      pair build: half/bin/newton/tri
      stencil: half/bin/3d/tri
      bin: standard
Per MPI rank memory allocation (min/avg/max) = 9.2 | 9.373 | 9.718 Mbytes
   Step          Temp          TotEng         PotEng          Pxy           v_sxy         v_strain     v_viscosity  
         0   245.46957     -44327.561     -50320.901      139.5099      -0.016153381    0             -0.0032306763 
      1000   245.11082     -44270.589     -50255.169     -157.94009      0.015342866    0.005          0.0030685732 
      2000   247.70943     -44368.613     -50416.641     -127.4461       0.011146672    0.01           0.0022293344 
      3000   247.20524     -44313.219     -50348.936     -22.707933      0.0058792197   0.015          0.0011758439 
      4000   245.24309     -44474.636     -50462.446     -582.87861      0.058634154    0.02           0.011726831  
      5000   246.23572     -44364.713     -50376.759     -129.18987      0.013542454    0.025          0.0027084907 
      6000   247.09412     -44389.128     -50422.132     -487.5691       0.046358847    0.03           0.0092717693 
      7000   248.78922     -44365.621     -50440.013     -477.06397      0.046315031    0.035          0.0092630062 
      8000   246.14448     -44385.587     -50395.405      44.428629     -0.0041389355   0.04          -0.0008277871 
      9000   245.79064     -44301.785     -50302.964     -157.0476       0.015182472    0.045          0.0030364944 
     10000   244.88999     -44530.734     -50509.923     -257.30416      0.024649216    0.05           0.0049298433 
     11000   245.3803      -44329.752     -50320.912      31.30703      -0.0032260824   0.055         -0.00064521649
     12000   246.78068     -44430.375     -50455.726     -192.62372      0.016357979    0.06           0.0032715958 
     13000   244.84908     -44359.376     -50337.566     -327.00022      0.032402477    0.065          0.0064804953 
     14000   247.58133     -44185.291     -50230.19      -411.99272      0.041159554    0.07           0.0082319109 
     15000   245.02814     -44271.502     -50254.063     -191.17373      0.019823378    0.075          0.0039646756 
     16000   245.86451     -44518.697     -50521.68      -89.563547      0.014265693    0.08           0.0028531386 
     17000   250.71931     -44222.77      -50344.286     -146.51006      0.016578968    0.085          0.0033157937 
     18000   245.55872     -44303.628     -50299.144     -135.53451      0.011847634    0.09           0.0023695268 
     19000   246.61553     -44367.302     -50388.621     -120.58548      0.010757629    0.095          0.0021515258 
     20000   250.09947     -44333.729     -50440.112     -198.1864       0.018155917    0.1            0.0036311835 
     21000   247.59918     -44327.129     -50372.465     -264.05945      0.026177358    0.105          0.0052354716 
     22000   249.16788     -44152.369     -50236.006      117.9214      -0.016686673    0.11          -0.0033373346 
     23000   247.9864      -44192.584     -50247.374      92.318058     -0.00782885     0.115         -0.00156577   
     24000   243.28577     -44488.907     -50428.928     -143.83788      0.014190775    0.12           0.0028381549 
     25000   247.2507      -44333.591     -50370.419     -277.59456      0.031263614    0.125          0.0062527227 
     26000   244.65094     -44326.661     -50300.013     -484.60337      0.048785379    0.13           0.0097570758 
     27000   244.32362     -44552.351     -50517.711      108.64627     -0.0081187157   0.135         -0.0016237431 
     28000   244.68246     -44409.369     -50383.49      -54.987094      0.0019375227   0.14           0.00038750453
     29000   252.64108     -44289.261     -50457.699     -357.69055      0.036094563    0.145          0.0072189125 
     30000   244.43007     -44447.099     -50415.058     -189.16536      0.01788002     0.15           0.0035760039 
     31000   249.81618     -44354.808     -50454.274     -441.94689      0.044781827    0.155          0.0089563653 
     32000   246.46605     -44363.38      -50381.049     -402.40847      0.038088783    0.16           0.0076177565 
     33000   245.78471     -44376.909     -50377.943     -561.89256      0.054632132    0.165          0.010926426  
     34000   245.24759     -44431.522     -50419.441     -224.01541      0.019093848    0.17           0.0038187696 
     35000   243.3295      -44411.535     -50352.623     -238.39642      0.024041938    0.175          0.0048083877 
     36000   246.47646     -44313.514     -50331.438     -335.12097      0.03787573     0.18           0.007575146  
     37000   246.65094     -44299.308     -50321.492     -553.09081      0.052095433    0.185          0.010419087  
     38000   247.20127     -44260.247     -50295.867     -282.88891      0.032127153    0.19           0.0064254306 
     39000   245.61788     -44437.508     -50434.469     -548.97352      0.055906652    0.195          0.01118133   
     40000   246.79761     -44255.25      -50281.014     -105.64482      0.0098878141   0.2            0.0019775628 
     41000   245.19004     -44337.794     -50324.308     -433.30927      0.042698003    0.205          0.0085396006 
     42000   244.14085     -44250.113     -50211.011     -58.52775       0.0071649906   0.21           0.0014329981 
     43000   244.1147      -44486.678     -50446.937     -415.17293      0.043389567    0.215          0.0086779135 
     44000   249.79878     -44224.309     -50323.35      -92.248663      0.0097634295   0.22           0.0019526859 
     45000   247.86837     -44149.359     -50201.268     -38.702128      0.0053562829   0.225          0.0010712566 
     46000   242.26343     -44407.269     -50322.328      30.263675     -0.0084052079   0.23          -0.0016810416 
     47000   246.42392     -44177.712     -50194.353     -239.97598      0.022645074    0.235          0.0045290149 
     48000   243.60222     -44309.332     -50257.079     -155.91416      0.015751157    0.24           0.0031502314 
     49000   248.27253     -44159.816     -50221.592     -396.08478      0.041086345    0.245          0.008217269  
     50000   244.75424     -44205.639     -50181.513     -475.57527      0.04914642     0.25           0.009829284  
     51000   246.54996     -44177.335     -50197.053     -528.98799      0.051927228    0.255          0.010385446  
     52000   248.33778     -44083.544     -50146.914     -75.783112      0.0026504959   0.26           0.00053009918
     53000   243.32187     -44274.156     -50215.058     -292.11854      0.028883146    0.265          0.0057766293 
     54000   244.81373     -44172.28      -50149.606     -336.58201      0.034405252    0.27           0.0068810505 
     55000   246.9499      -44025.999     -50055.482     -64.881981      0.014547922    0.275          0.0029095844 
     56000   244.20241     -44205.843     -50168.244     -356.31243      0.033962657    0.28           0.0067925314 
     57000   246.06493     -44300.206     -50308.082     -416.97212      0.040393285    0.285          0.0080786571 
     58000   247.57144     -44281.023     -50325.681     -243.59529      0.025688852    0.29           0.0051377705 
     59000   242.29754     -44435.402     -50351.294     -131.38368      0.012885287    0.295          0.0025770573 
     60000   244.39548     -44303.117     -50270.232     -394.50696      0.039948971    0.3            0.0079897942 
     61000   248.61935     -44146.413     -50216.657     -82.381616      0.0084998066   0.305          0.0016999613 
     62000   244.46952     -44360.66      -50329.582     -309.87143      0.030587054    0.31           0.0061174109 
     63000   249.24391     -44269.562     -50355.055     -379.012        0.036343065    0.315          0.0072686129 
     64000   245.93316     -44344.541     -50349.2       -171.25671      0.01481968     0.32           0.002963936  
     65000   242.99773     -44511.06      -50444.047     -281.66456      0.028395983    0.325          0.0056791965 
     66000   249.58452     -44171.338     -50265.148     -252.25919      0.021714811    0.33           0.0043429621 
     67000   243.32871     -44508.78      -50449.849     -125.83967      0.015190056    0.335          0.0030380111 
     68000   247.21884     -44375.62      -50411.67      -78.236958      0.0082665827   0.34           0.0016533165 
     69000   247.56447     -44131.512     -50176.001     -571.74033      0.05589861     0.345          0.011179722  
     70000   247.1247      -44223.138     -50256.889     -106.80208      0.010184011    0.35           0.0020368022 
     71000   247.42154     -44282.52      -50323.518     -345.8885       0.035793234    0.355          0.0071586468 
     72000   245.65462     -44237.15      -50235.008     -302.01503      0.027581491    0.36           0.0055162983 
     73000   245.36243     -44407.594     -50398.317     -350.83802      0.032657504    0.365          0.0065315009 
     74000   245.06926     -44301.689     -50285.255     -212.41331      0.020911968    0.37           0.0041823936 
     75000   244.7289      -44224.935     -50200.19      -305.89182      0.028955445    0.375          0.005791089  
     76000   244.18698     -44061.84      -50023.864     -367.85899      0.033573057    0.38           0.0067146114 
     77000   243.5444      -44106.62      -50052.955     -580.42532      0.058088179    0.385          0.011617636  
     78000   247.33217     -44106.954     -50145.771     -562.33077      0.052669385    0.39           0.010533877  
     79000   247.47623     -44144.048     -50186.382     -202.78288      0.01913675     0.395          0.00382735   
     80000   247.49037     -44177.481     -50220.16      -546.31458      0.048427154    0.4            0.0096854308 
     81000   247.97655     -44214.522     -50269.072     -236.46673      0.022090039    0.405          0.0044180077 
     82000   249.90134     -44060.929     -50162.474      110.22932     -0.010888068    0.41          -0.0021776136 
     83000   249.97365     -44174.555     -50277.865     -128.10342      0.014937851    0.415          0.0029875702 
     84000   249.13251     -44071.655     -50154.429     -33.348654      0.005067708    0.42           0.0010135416 
     85000   245.22494     -44281.464     -50268.831     -449.8137       0.046979024    0.425          0.0093958049 
     86000   245.29584     -44248.789     -50237.887     -283.77709      0.023814305    0.43           0.0047628609 
     87000   249.84091     -44123.922     -50223.992     -385.47186      0.038122416    0.435          0.0076244833 
     88000   247.5586      -44219.447     -50263.792      39.417917     -0.0052495906   0.44          -0.0010499181 
     89000   246.47064     -44327.044     -50344.825     -201.01327      0.020694729    0.445          0.0041389458 
     90000   245.54669     -44287.097     -50282.32      -402.92473      0.039853662    0.45           0.0079707323 
     91000   243.99647     -44368.773     -50326.146     -78.653384      0.0073789807   0.455          0.0014757961 
     92000   245.36527     -44237.602     -50228.395     -435.62718      0.041306769    0.46           0.0082613539 
     93000   246.88986     -44193.922     -50221.939     -393.80639      0.036649886    0.465          0.0073299771 
     94000   248.03441     -44143.045     -50199.007     -0.97254942    -0.002196063    0.47          -0.0004392126 
     95000   245.21045     -44077.481     -50064.494     -365.46687      0.034458962    0.475          0.0068917924 
     96000   250.19401     -44151.636     -50260.326     -132.35049      0.012508366    0.48           0.0025016732 
     97000   244.797       -44300.779     -50277.697     -120.58559      0.016038876    0.485          0.0032077752 
     98000   244.45597     -44166.336     -50134.927     -569.01885      0.060212666    0.49           0.012042533  
     99000   245.54372     -44371.006     -50366.156     -504.99879      0.052061302    0.495          0.01041226   
    100000   248.598       -44218.496     -50288.218     -302.01862      0.02789931     0.5            0.0055798621 
Loop time of 424.43 on 56 procs for 100000 steps with 12288 atoms

Performance: 20.357 ns/day, 1.179 hours/ns, 235.610 timesteps/s, 2.895 Matom-step/s
99.7% CPU use with 56 MPI tasks x no OpenMP threads

MPI task timing breakdown:
Section |  min time  |  avg time  |  max time  |%varavg| %total
---------------------------------------------------------------
Pair    | 191.74     | 198.36     | 204.86     |  24.8 | 46.74
Bond    | 0.01608    | 0.026988   | 0.037883   |   2.9 |  0.01
Kspace  | 111.93     | 118.37     | 124.71     |  33.7 | 27.89
Neigh   | 22.409     | 22.416     | 22.423     |   0.1 |  5.28
Comm    | 15.044     | 16.058     | 17.153     |  14.3 |  3.78
Output  | 0.22556    | 0.4011     | 0.57059    |  16.1 |  0.09
Modify  | 51.291     | 56.29      | 65.844     |  45.0 | 13.26
Other   |            | 12.51      |            |       |  2.95

Nlocal:        219.429 ave         244 max         197 min
Histogram: 2 1 6 10 13 13 5 4 1 1
Nghost:        7270.66 ave        7351 max        7207 min
Histogram: 4 2 6 8 13 10 8 3 1 1
Neighs:        96051.4 ave      107738 max       85275 min
Histogram: 2 1 7 6 14 13 7 3 2 1

Total # of neighbors = 5378878
Ave neighs/atom = 437.73421
Ave special neighs/atom = 2
Neighbor list builds = 1914
Dangerous builds = 0
kspace_style pppm/tip4p 1.0e-5
next nloop
jump SELF loop_start
run 100000 # 100ps
PPPM initialization ...
  extracting TIP4P info from pair style
  using 12-bit tables for long-range coulomb
  G vector (1/distance) = 0.32815664
  grid = 50 75 50
  stencil order = 5
  estimated absolute RMS force accuracy = 0.0035802102
  estimated relative force accuracy = 1.0781697e-05
  using double precision KISS FFT
  3d grid and FFT values/proc = 15776 4000
Generated 0 of 1 mixed pair_coeff terms from geometric mixing rule
Per MPI rank memory allocation (min/avg/max) = 11.17 | 11.25 | 11.32 Mbytes
   Step          Temp          TotEng         PotEng          Pxy           v_sxy         v_strain     v_viscosity  
    100000   248.59277     -44218.706     -50288.301     -292.34553      0.026897321    0.5            0.0053794642 
    101000   245.99083     -44306.325     -50312.392     -330.07262      0.033203976    0.505          0.0066407952 
    102000   246.75705     -44055.541     -50080.315     -225.6632       0.023956791    0.51           0.0047913583 
    103000   243.63289     -44315.027     -50263.523     -153.75021      0.013472701    0.515          0.0026945403 
    104000   245.80558     -44224.98      -50226.523     -345.36687      0.036275419    0.52           0.0072550837 
    105000   247.26213     -44171.459     -50208.566     -69.598601      0.0072797756   0.525          0.0014559551 
    106000   247.17602     -44268.069     -50303.073     -7.5264537     -0.0010975418   0.53          -0.00021950836
    107000   248.40527     -44190.176     -50255.194     -49.158859      0.00097336674  0.535          0.00019467335
    108000   242.41095     -44303.324     -50221.985     -357.57241      0.034789149    0.54           0.0069578299 
    109000   246.99117     -44263.203     -50293.694     -217.16081      0.020568921    0.545          0.0041137841 
    110000   248.11895     -44440.748     -50498.775     -64.689546      0.0071653766   0.55           0.0014330753 
    111000   246.05612     -44468.948     -50476.609     -290.29854      0.028590688    0.555          0.0057181376 
    112000   244.95129     -44401.222     -50381.907     -38.477613      0.0041816707   0.56           0.00083633414
    113000   244.67997     -44284.656     -50258.717     -349.36114      0.037182634    0.565          0.0074365267 
    114000   247.44981     -44221.752     -50263.44      -315.377        0.032826286    0.57           0.0065652573 
    115000   240.90758     -44358.621     -50240.576      170.46207     -0.014184965    0.575         -0.002836993  
    116000   248.01692     -44183.316     -50238.852     -41.734999      0.0050775689   0.58           0.0010155138 
    117000   243.9311      -44435.638     -50391.415     -283.17452      0.030245913    0.585          0.0060491825 
    118000   245.83648     -44385.127     -50387.425     -420.85716      0.039920694    0.59           0.0079841388 
    119000   243.82902     -44264.196     -50217.481     -156.51331      0.017941076    0.595          0.0035882152 
    120000   244.77629     -44308.802     -50285.215     -358.3546       0.034453638    0.6            0.0068907277 
    121000   249.69881     -44223.603     -50320.203     -64.320932      0.0082117058   0.605          0.0016423412 
    122000   246.18859     -44143.291     -50154.186     -342.1257       0.030228961    0.61           0.0060457921 
    123000   245.45549     -44279.482     -50272.478     -355.74823      0.036512683    0.615          0.0073025367 
    124000   244.54922     -44221.561     -50192.429     -386.9555       0.037180534    0.62           0.0074361067 
    125000   246.57686     -44268.449     -50288.824     -350.96668      0.035261524    0.625          0.0070523047 
    126000   247.355       -44237.69      -50277.064     -402.9993       0.037796589    0.63           0.0075593179 
    127000   246.55404     -44276.457     -50296.275     -98.599777      0.008447697    0.635          0.0016895394 
    128000   247.63233     -44048.631     -50094.776      101.27733     -0.0076895247   0.64          -0.0015379049 
    129000   243.68145     -44172.246     -50121.928     -259.82033      0.027066296    0.645          0.0054132593 
    130000   244.43474     -44277.05      -50245.124     -276.7503       0.029066922    0.65           0.0058133844 
    131000   243.5334      -44191.659     -50137.725     -81.331851      0.0063550796   0.655          0.0012710159 
    132000   247.02571     -44130.553     -50161.887     -205.4659       0.01769941     0.66           0.003539882  
    133000   245.92842     -44268.823     -50273.366     -288.35323      0.028660688    0.665          0.0057321377 
    134000   246.82708     -44188.879     -50215.363     -393.72792      0.039209731    0.67           0.0078419463 
    135000   243.35257     -44298.537     -50240.189     -288.7287       0.02896728     0.675          0.005793456  
    136000   246.64515     -44183.533     -50205.576     -109.39795      0.011829281    0.68           0.0023658562 
    137000   245.43638     -44272.904     -50265.433     -302.8998       0.030084347    0.685          0.0060168694 
    138000   248.52838     -44198.004     -50266.027     -7.0040043      0.0024305884   0.69           0.00048611769
    139000   243.8315      -44358.868     -50312.213      7.5860718     -0.0050886131   0.695         -0.0010177226 
    140000   252.68613     -44118.341     -50287.879     -503.87206      0.049494358    0.7            0.0098988716 
    141000   241.51995     -44507.024     -50403.93      -362.05666      0.03603606     0.705          0.0072072121 
    142000   248.11891     -44246.346     -50304.371     -493.01128      0.047005991    0.71           0.0094011983 
    143000   245.93514     -44292.505     -50297.212     -260.07711      0.025068606    0.715          0.0050137211 
    144000   247.45848     -44321.365     -50363.265     -171.14701      0.016777408    0.72           0.0033554816 
    145000   243.08591     -44423.492     -50358.633     -287.82412      0.031667143    0.725          0.0063334287 
    146000   248.58853     -44317.059     -50386.55      -372.15705      0.041205274    0.73           0.0082410547 
    147000   244.31058     -44380.497     -50345.539     -16.795566      0.0062796194   0.735          0.0012559239 
    148000   244.46536     -44317.739     -50286.56      -187.93319      0.022485876    0.74           0.0044971752 
    149000   242.08346     -44339.666     -50250.331     -192.61772      0.01773553     0.745          0.003547106  
    150000   248.4645      -44205.615     -50272.078      43.80918      -0.0016873217   0.75          -0.00033746434
    151000   248.65089     -44278.571     -50349.585     -337.86897      0.032051653    0.755          0.0064103306 
    152000   241.3766      -44352.762     -50246.168     -109.63888      0.012399749    0.76           0.0024799497 
    153000   244.81274     -44353.342     -50330.645      30.376484     -0.0013668775   0.765         -0.00027337551
    154000   249.49814     -44204.763     -50296.464     -204.95676      0.022213747    0.77           0.0044427495 
    155000   251.292       -44160.903     -50296.402     -320.28722      0.032337094    0.775          0.0064674188 
    156000   242.15637     -44310.874     -50223.319     -131.8646       0.014612311    0.78           0.0029224622 
    157000   245.83716     -44117.367     -50119.682     -483.80158      0.048564981    0.785          0.0097129962 
    158000   244.73704     -44271.174     -50246.628     -204.64336      0.021535162    0.79           0.0043070324 
    159000   243.53182     -44216.496     -50162.524     -453.79055      0.045968643    0.795          0.0091937286 
    160000   247.77933     -44197.621     -50247.355     -344.28452      0.034178601    0.8            0.0068357203 
    161000   246.30634     -44297.824     -50311.594     -38.503945      0.0041285813   0.805          0.00082571626
    162000   246.25361     -44165.693     -50178.175     -481.47235      0.04318453     0.81           0.008636906  
    163000   245.76016     -44253.045     -50253.48      -182.04903      0.018314874    0.815          0.0036629749 
    164000   244.25596     -44459.743     -50423.451     -402.80848      0.039109421    0.82           0.0078218842 
    165000   250.31101     -44099.242     -50210.789     -134.54163      0.011204444    0.825          0.0022408887 
    166000   244.25981     -44354.819     -50318.621     -126.78569      0.0085375727   0.83           0.0017075145 
    167000   250.91824     -44120.616     -50246.989     -357.00689      0.033364852    0.835          0.0066729705 
    168000   243.36282     -44380.334     -50322.236     -394.17448      0.037511162    0.84           0.0075022323 
    169000   250.13576     -44225.188     -50332.456     -266.14066      0.0253516      0.845          0.0050703201 
    170000   246.9701      -44195.216     -50225.192     -270.96458      0.027233335    0.85           0.0054466669 
    171000   247.01702     -44326.413     -50357.535     -294.28736      0.028365461    0.855          0.0056730921 
    172000   248.30626     -44227.568     -50290.168     -16.849185     -5.5483232e-05  0.86          -1.1096646e-05
    173000   240.54065     -44332.019     -50205.016     -446.45695      0.044513821    0.865          0.0089027643 
    174000   241.68031     -44369.444     -50270.266     -102.66989      0.012207125    0.87           0.0024414251 
    175000   248.94432     -44132.879     -50211.057     -230.88158      0.023266748    0.875          0.0046533495 
    176000   245.46061     -44344.012     -50337.133      55.436579     -0.0040518876   0.88          -0.00081037753
    177000   249.91396     -44252.768     -50354.621     -42.138807      0.0034180822   0.885          0.00068361643
    178000   240.9377      -44283.389     -50166.08      -76.093075      0.0074629887   0.89           0.0014925977 
    179000   245.51693     -44355.036     -50349.532     -281.66062      0.025509384    0.895          0.0051018767 
    180000   244.8192      -44309.383     -50286.843     -197.87478      0.016747511    0.9            0.0033495022 
    181000   249.75376     -44184.772     -50282.714     -98.860174      0.0041674664   0.905          0.00083349328
    182000   244.66016     -44267.818     -50241.396     -280.48939      0.030926661    0.91           0.0061853322 
    183000   244.74857     -44421.686     -50397.422     -39.03373       0.0059634015   0.915          0.0011926803 
    184000   247.49688     -44312.456     -50355.294     -221.54315      0.022257065    0.92           0.004451413  
    185000   243.58973     -44425.703     -50373.144     -15.761922      0.00074082056  0.925          0.00014816411
    186000   246.8894      -44323.144     -50351.15       44.348939     -0.0040477951   0.93          -0.00080955902
    187000   247.14555     -44217.098     -50251.359     -165.77239      0.018008603    0.935          0.0036017206 
    188000   245.54697     -44418.7       -50413.929     -52.993581      0.0039665573   0.94           0.00079331147
    189000   248.29279     -44213.33      -50275.601     -97.483382      0.0082802736   0.945          0.0016560547 
    190000   244.63911     -44286.347     -50259.41      -283.79933      0.024600121    0.95           0.0049200241 
    191000   246.58523     -44189.115     -50209.695     -359.4111       0.034582633    0.955          0.0069165265 
    192000   247.45208     -44281.574     -50323.319     -210.1195       0.017634553    0.96           0.0035269107 
    193000   243.52097     -44547.994     -50493.757     -526.96525      0.050829833    0.965          0.010165967  
    194000   248.5145      -44225.398     -50293.082     -395.06708      0.033379585    0.97           0.006675917  
    195000   241.37258     -44485.287     -50378.596     -234.79914      0.023431792    0.975          0.0046863584 
    196000   248.10091     -44249.273     -50306.859     -450.92493      0.049767984    0.98           0.0099535968 
    197000   245.13251     -44430.845     -50415.955     -463.27957      0.048003822    0.985          0.0096007644 
    198000   247.56152     -44192.342     -50236.758     -257.14126      0.026977275    0.99           0.005395455  
    199000   243.49883     -44318.152     -50263.374     -438.63398      0.043032721    0.995          0.0086065442 
    200000   247.05981     -44125.238     -50157.405     -387.42451      0.036474002    1              0.0072948004 
Loop time of 495.709 on 56 procs for 100000 steps with 12288 atoms

Performance: 17.430 ns/day, 1.377 hours/ns, 201.731 timesteps/s, 2.479 Matom-step/s
99.8% CPU use with 56 MPI tasks x no OpenMP threads

MPI task timing breakdown:
Section |  min time  |  avg time  |  max time  |%varavg| %total
---------------------------------------------------------------
Pair    | 188.9      | 200.1      | 208.47     |  29.2 | 40.37
Bond    | 0.018667   | 0.031204   | 0.042747   |   3.1 |  0.01
Kspace  | 150.36     | 159.61     | 171.81     |  33.7 | 32.20
Neigh   | 22.534     | 22.545     | 22.556     |   0.1 |  4.55
Comm    | 15.858     | 17.831     | 19.343     |  21.3 |  3.60
Output  | 0.22036    | 0.39621    | 0.56545    |  16.2 |  0.08
Modify  | 73.081     | 79.86      | 92.637     |  52.6 | 16.11
Other   |            | 15.33      |            |       |  3.09

Nlocal:        219.429 ave         246 max         202 min
Histogram: 4 6 11 10 6 9 4 5 0 1
Nghost:        6856.54 ave        6918 max        6791 min
Histogram: 5 3 4 5 7 11 7 6 4 4
Neighs:        96085.6 ave      110185 max       87968 min
Histogram: 6 7 10 10 5 10 4 3 0 1

Total # of neighbors = 5380792
Ave neighs/atom = 437.88997
Ave special neighs/atom = 2
Neighbor list builds = 1935
Dangerous builds = 0
kspace_style pppm/tip4p 1.0e-5
next nloop
jump SELF loop_start
run 100000 # 100ps
PPPM initialization ...
  extracting TIP4P info from pair style
  using 12-bit tables for long-range coulomb
  G vector (1/distance) = 0.32815664
  grid = 50 50 50
  stencil order = 5
  estimated absolute RMS force accuracy = 0.0035802102
  estimated relative force accuracy = 1.0781697e-05
  using double precision KISS FFT
  3d grid and FFT values/proc = 11424 2800
Generated 0 of 1 mixed pair_coeff terms from geometric mixing rule
Per MPI rank memory allocation (min/avg/max) = 10.91 | 11.02 | 11.09 Mbytes
   Step          Temp          TotEng         PotEng          Pxy           v_sxy         v_strain     v_viscosity  
    200000   247.06012     -44125.225     -50157.399     -375.90375      0.035304119    1              0.0070608238 
    201000   243.91457     -44478.74      -50434.113     -104.27715      0.008241089    1.005          0.0016482178 
    202000   246.0942      -44338.777     -50347.368     -330.23845      0.031548264    1.01           0.0063096527 
    203000   247.04133     -44283.061     -50314.776     -363.98218      0.03143961     1.015          0.0062879219 
    204000   246.22309     -44469.146     -50480.883     -563.38594      0.056220041    1.02           0.011244008  
    205000   246.4353      -44294.164     -50311.082     -192.41619      0.019210078    1.025          0.0038420156 
    206000   244.15024     -44499.82      -50460.948     -411.64358      0.042195536    1.03           0.0084391071 
    207000   249.01488     -44309.707     -50389.608     -390.54322      0.041077731    1.035          0.0082155462 
    208000   244.88494     -44357.28      -50336.345     -150.37224      0.016150646    1.04           0.0032301292 
    209000   247.44105     -44359.518     -50400.993     -389.79644      0.03560146     1.045          0.0071202919 
    210000   251.31926     -44181.034     -50317.198     -273.15667      0.027668225    1.05           0.005533645  
    211000   245.11706     -44398.647     -50383.38      -332.31417      0.030116289    1.055          0.0060232577 
    212000   249.06417     -44110.222     -50191.327     -210.71456      0.02082974     1.06           0.0041659479 
    213000   246.84462     -44227.101     -50254.013     -549.53862      0.056890732    1.065          0.011378146  
    214000   244.31171     -44415.698     -50380.768     -563.12226      0.056040933    1.07           0.011208187  
    215000   246.35986     -44191.25      -50206.327     -202.61632      0.017802672    1.075          0.0035605343 
    216000   248.66012     -44324.805     -50396.045     -170.17212      0.019155035    1.08           0.0038310071 
    217000   246.33291     -44421.086     -50435.505      108.28097     -0.0081599949   1.085         -0.001631999  
    218000   249.59853     -44135.866     -50230.017     -132.48596      0.0097080444   1.09           0.0019416089 
    219000   245.50886     -44446.849     -50441.148     -310.13988      0.028983751    1.095          0.0057967503 
    220000   250.87039     -44133.496     -50258.701     -454.39261      0.045336967    1.1            0.0090673934 
    221000   245.89556     -44352.245     -50355.986     -288.39651      0.028306847    1.105          0.0056613693 
    222000   249.72377     -44306.258     -50403.467     -448.23781      0.046720131    1.11           0.0093440263 
    223000   243.69867     -44413.02      -50363.122     -417.13785      0.040733009    1.115          0.0081466018 
    224000   246.83415     -44323.13      -50349.787     -333.82355      0.033401145    1.12           0.0066802291 
    225000   242.54858     -44331.901     -50253.922     -366.13472      0.037170454    1.125          0.0074340907 
    226000   249.15792     -44271.003     -50354.397     -128.84838      0.016904167    1.13           0.0033808335 
    227000   248.23211     -44330.663     -50391.452     -545.12028      0.055091944    1.135          0.011018389  
    228000   245.94544     -44263.437     -50268.396     -190.30171      0.017695414    1.14           0.0035390827 
    229000   242.86207     -44403.056     -50332.732      47.314493     -0.0039712083   1.145         -0.00079424166
    230000   248.75728     -44226.557     -50300.168     -213.55679      0.022066024    1.15           0.0044132049 
    231000   246.34421     -44260.595     -50275.29      -356.98808      0.034404473    1.155          0.0068808947 
    232000   249.28348     -44167.503     -50253.963     -435.01163      0.042198363    1.16           0.0084396727 
    233000   245.34803     -44297.374     -50287.746     -648.06764      0.063409641    1.165          0.012681928  
    234000   248.19316     -44284.308     -50344.146     -279.92032      0.028987775    1.17           0.0057975549 
    235000   244.69152     -44256.327     -50230.67      -389.62376      0.037279705    1.175          0.0074559411 
    236000   245.42662     -44270.616     -50262.906     -311.51874      0.03304416     1.18           0.006608832  
    237000   247.1042      -44220.615     -50253.865     -271.00345      0.030537374    1.185          0.0061074748 
    238000   248.58782     -44172.328     -50241.802     -201.09645      0.021397862    1.19           0.0042795725 
    239000   245.37168     -44178.198     -50169.147     -125.98152      0.014166701    1.195          0.0028333402 
    240000   244.78152     -44191.583     -50168.123      8.766989       0.0019377821   1.2            0.00038755643
    241000   243.60536     -44404.14      -50351.964     -131.69784      0.010515565    1.205          0.002103113  
    242000   249.35401     -44213.392     -50301.574     -219.59367      0.020953985    1.21           0.0041907971 
    243000   246.17328     -44200.478     -50210.999     -100.80734      0.0076966313   1.215          0.0015393263 
    244000   242.85221     -44329.678     -50259.113     -393.17059      0.03615247     1.22           0.007230494  
    245000   243.41315     -44123.129     -50066.259     -173.51376      0.016817876    1.225          0.0033635752 
    246000   247.14847     -44094.652     -50128.983     -462.80904      0.045946573    1.23           0.0091893145 
    247000   248.78948     -44184.063     -50258.461     -162.87785      0.012467873    1.235          0.0024935745 
    248000   248.32533     -44181.422     -50244.488     -663.87417      0.068558199    1.24           0.01371164   
    249000   245.45719     -44362.184     -50355.222     -326.97829      0.029864369    1.245          0.0059728738 
    250000   247.23463     -44285.605     -50322.04      -526.97145      0.048781025    1.25           0.0097562049 
    251000   251.18432     -44205.192     -50338.062     -300.87836      0.031089008    1.255          0.0062178016 
    252000   244.56157     -44388.559     -50359.729     -267.98326      0.023937955    1.26           0.004787591  
    253000   242.83848     -44590.979     -50520.079     -496.13744      0.047971517    1.265          0.0095943034 
    254000   246.65932     -44453.246     -50475.634     -451.14461      0.047641675    1.27           0.0095283351 
    255000   245.71378     -44443.869     -50443.171     -473.02918      0.045604487    1.275          0.0091208975 
    256000   242.78469     -44468.403     -50396.189     -281.72858      0.029108032    1.28           0.0058216065 
    257000   247.37745     -44291.223     -50331.145     -268.51619      0.025982806    1.285          0.0051965612 
    258000   244.31953     -44373.938     -50339.198     -518.53957      0.055049364    1.29           0.011009873  
    259000   244.57873     -44358.478     -50330.067     -258.41176      0.025402444    1.295          0.0050804887 
    260000   240.81414     -44423.371     -50303.045     -180.53595      0.018495233    1.3            0.0036990467 
    261000   245.07533     -44147.791     -50131.505     -482.21573      0.049680307    1.305          0.0099360613 
    262000   246.28792     -44205.803     -50219.124     -470.71953      0.046461022    1.31           0.0092922043 
    263000   246.9508      -44241.611     -50271.116     -354.04342      0.036976284    1.315          0.0073952567 
    264000   247.87164     -44346.435     -50398.423     -334.22864      0.033605794    1.32           0.0067211588 
    265000   248.78623     -44227.865     -50302.183     -385.03702      0.038881895    1.325          0.0077763791 
    266000   244.43379     -44408.181     -50376.231     -260.07755      0.023249967    1.33           0.0046499934 
    267000   247.60538     -44413.808     -50459.295      15.712377     -0.0030944068   1.335         -0.00061888135
    268000   248.93466     -44298.284     -50376.226     -416.43081      0.04172887     1.34           0.008345774  
    269000   248.4525      -44230.954     -50297.125     -410.93242      0.038990537    1.345          0.0077981074 
    270000   248.09489     -44280.958     -50338.397     -265.92168      0.024402364    1.35           0.0048804728 
    271000   245.76476     -44299.575     -50300.122     -232.75218      0.021346848    1.355          0.0042693696 
    272000   243.33094     -44455.295     -50396.418     -295.42917      0.027346131    1.36           0.0054692263 
    273000   248.92172     -44197.929     -50275.556     -382.52599      0.039178935    1.365          0.0078357871 
    274000   244.28383     -44356.04      -50320.429     -173.01674      0.017284556    1.37           0.0034569112 
    275000   250.02039     -44229.327     -50333.779     -427.21918      0.040891467    1.375          0.0081782934 
    276000   244.81367     -44162.963     -50140.288      24.439335     -0.0039738088   1.38          -0.00079476176
    277000   243.89781     -44173.196     -50128.16      -390.10833      0.038227073    1.385          0.0076454147 
    278000   243.11288     -44360.969     -50296.768     -103.99462      0.0095923352   1.39           0.001918467  
    279000   247.6167      -44181.99      -50227.754     -139.99731      0.011265911    1.395          0.0022531822 
    280000   241.17046     -44529.668     -50418.042     -418.38585      0.04024561     1.4            0.008049122  
    281000   245.50043     -44324.808     -50318.902     -46.11929       0.0021967782   1.405          0.00043935563
    282000   244.44211     -44423.542     -50391.795     -364.88142      0.033293256    1.41           0.0066586511 
    283000   241.8456      -44363.301     -50268.158     -373.99377      0.036454762    1.415          0.0072909523 
    284000   248.09622     -44147.77      -50205.241      26.962316     -0.0041319832   1.42          -0.00082639664
    285000   245.31449     -44241.909     -50231.462     -603.96983      0.060461843    1.425          0.012092369  
    286000   246.13934     -44151.297     -50160.989     -191.28959      0.017272082    1.43           0.0034544164 
    287000   247.39653     -44256.163     -50296.551     -364.3071       0.03627425     1.435          0.00725485   
    288000   243.8347      -44224.017     -50177.44      -519.35013      0.047080863    1.44           0.0094161727 
    289000   245.1006      -44010.276     -49994.607     -326.56019      0.029654465    1.445          0.0059308931 
    290000   250.34251     -44113.435     -50225.751      25.333587     -0.0027225633   1.45          -0.00054451266
    291000   245.7502      -44178.335     -50178.526     -248.83734      0.026905753    1.455          0.0053811505 
    292000   245.74467     -44143.799     -50143.855      26.906805     -0.0015593478   1.46          -0.00031186957
    293000   247.14809     -44146.827     -50181.149     -389.88519      0.037421447    1.465          0.0074842895 
    294000   248.19973     -44073.247     -50133.245     -414.26625      0.040380284    1.47           0.0080760568 
    295000   245.61849     -44135.374     -50132.349     -58.104271      0.0034721299   1.475          0.00069442597
    296000   247.27514     -44080.918     -50118.342     -106.44316      0.0089885206   1.48           0.0017977041 
    297000   245.72806     -44163.136     -50162.787     -398.78756      0.041754313    1.485          0.0083508626 
    298000   249.57384     -44144.035     -50237.584     -128.77109      0.014110406    1.49           0.0028220812 
    299000   243.81461     -44149.071     -50102.003      48.449194     -0.0068774581   1.495         -0.0013754916 
    300000   248.417       -44131.302     -50196.606     -199.4466       0.023781685    1.5            0.004756337  
Loop time of 423.469 on 56 procs for 100000 steps with 12288 atoms

Performance: 20.403 ns/day, 1.176 hours/ns, 236.145 timesteps/s, 2.902 Matom-step/s
99.8% CPU use with 56 MPI tasks x no OpenMP threads

MPI task timing breakdown:
Section |  min time  |  avg time  |  max time  |%varavg| %total
---------------------------------------------------------------
Pair    | 187.97     | 197.66     | 206.79     |  30.7 | 46.68
Bond    | 0.014373   | 0.026239   | 0.037198   |   3.0 |  0.01
Kspace  | 110.14     | 118.64     | 127.81     |  38.6 | 28.02
Neigh   | 22.074     | 22.082     | 22.094     |   0.1 |  5.21
Comm    | 14.904     | 15.954     | 17.562     |  16.3 |  3.77
Output  | 0.22004    | 0.39539    | 0.56416    |  16.2 |  0.09
Modify  | 51.129     | 56.142     | 65.855     |  45.5 | 13.26
Other   |            | 12.57      |            |       |  2.97

Nlocal:        219.429 ave         243 max         204 min
Histogram: 2 4 11 12 16 2 6 2 0 1
Nghost:        7280.79 ave        7349 max        7214 min
Histogram: 3 2 6 10 9 9 5 7 2 3
Neighs:          96056 ave      106956 max       87164 min
Histogram: 1 1 10 11 12 10 6 3 1 1

Total # of neighbors = 5379135
Ave neighs/atom = 437.75513
Ave special neighs/atom = 2
Neighbor list builds = 1895
Dangerous builds = 0
kspace_style pppm/tip4p 1.0e-5
next nloop
jump SELF loop_start
run 100000 # 100ps
PPPM initialization ...
  extracting TIP4P info from pair style
  using 12-bit tables for long-range coulomb
  G vector (1/distance) = 0.32815664
  grid = 50 75 50
  stencil order = 5
  estimated absolute RMS force accuracy = 0.0035802102
  estimated relative force accuracy = 1.0781697e-05
  using double precision KISS FFT
  3d grid and FFT values/proc = 15776 4000
Generated 0 of 1 mixed pair_coeff terms from geometric mixing rule
Per MPI rank memory allocation (min/avg/max) = 11.21 | 11.33 | 11.44 Mbytes
   Step          Temp          TotEng         PotEng          Pxy           v_sxy         v_strain     v_viscosity  
    300000   248.4168      -44131.296     -50196.595     -189.43466      0.022759209    1.5            0.0045518417 
    301000   244.25424     -44408.486     -50372.153     -91.311971      0.0034315618   1.505          0.00068631236
    302000   245.89147     -44108.136     -50111.776     -399.91167      0.037949026    1.51           0.0075898053 
    303000   242.67179     -44258.759     -50183.789     -313.7083       0.032804409    1.515          0.0065608818 
    304000   245.98271     -44222.821     -50228.689     -209.03913      0.019097248    1.52           0.0038194496 
    305000   243.21329     -44273.064     -50211.314     -74.662877      0.0065371646   1.525          0.0013074329 
    306000   248.53446     -44212.076     -50280.247     -139.16624      0.016043398    1.53           0.0032086796 
    307000   244.79855     -44348.443     -50325.4       -386.49234      0.036906316    1.535          0.0073812633 
    308000   244.73171     -44322.272     -50297.596     -444.69587      0.041929108    1.54           0.0083858216 
    309000   243.85062     -44460.323     -50414.135     -483.98366      0.047293064    1.545          0.0094586128 
    310000   248.48795     -44188.362     -50255.398     -338.53924      0.03570816     1.55           0.0071416319 
    311000   244.0734      -44483.91      -50443.161     -49.024345      0.0096632901   1.555          0.001932658  
    312000   246.6989      -44212.146     -50235.501     -135.21886      0.010928432    1.56           0.0021856864 
    313000   244.12803     -44514.488     -50475.073     -295.08752      0.025493614    1.565          0.0050987229 
    314000   247.54501     -44375.726     -50419.739     -550.84265      0.054971161    1.57           0.010994232  
    315000   247.14921     -44231.573     -50265.923     -476.17649      0.049757445    1.575          0.0099514891 
    316000   243.05652     -44452.856     -50387.279     -728.93824      0.072594407    1.58           0.014518881  
    317000   244.56129     -44400.233     -50371.396     -301.16955      0.029797935    1.585          0.005959587  
    318000   246.78297     -44298.848     -50324.256     -14.262704      0.0026030076   1.59           0.00052060151
    319000   242.56852     -44249.943     -50172.451     -280.1214       0.025909097    1.595          0.0051818194 
    320000   241.49548     -44514.761     -50411.07      -443.11071      0.043769724    1.6            0.0087539449 
    321000   247.34749     -44248.974     -50288.165     -495.5693       0.051044398    1.605          0.01020888   
    322000   243.03621     -44397.708     -50331.635     -103.73578      0.0078911231   1.61           0.0015782246 
    323000   247.25826     -44333.926     -50370.938     -33.645926      0.0019061068   1.615          0.00038122137
    324000   244.43948     -44277.808     -50245.998     -209.12249      0.024675344    1.62           0.0049350688 
    325000   242.03213     -44390.176     -50299.588     -424.44428      0.041002161    1.625          0.0082004323 
    326000   244.44025     -44327.683     -50295.891     -181.07057      0.014519772    1.63           0.0029039544 
    327000   246.37324     -44283.363     -50298.767     -452.61741      0.042830336    1.635          0.0085660671 
    328000   247.18989     -44387.63      -50422.973     -287.51197      0.026875758    1.64           0.0053751516 
    329000   247.31103     -44187.202     -50225.502     -635.43376      0.063510846    1.645          0.012702169  
    330000   247.67275     -44319.369     -50366.501     -589.80648      0.057527778    1.65           0.011505556  
    331000   244.49283     -44469.864     -50439.355     -456.39396      0.042679854    1.655          0.0085359708 
    332000   249.13999     -44226.053     -50309.009      93.420125     -0.012346127    1.66          -0.0024692254 
    333000   243.50423     -44520.027     -50465.381      81.892932     -0.0060717916   1.665         -0.0012143583 
    334000   247.47256     -44589.021     -50631.266     -523.06403      0.053011358    1.67           0.010602272  
    335000   248.28932     -44407.437     -50469.624     -682.09856      0.066607384    1.675          0.013321477  
    336000   247.9581      -44487.556     -50541.656     -114.12715      0.014794878    1.68           0.0029589755 
    337000   250.04497     -44275.983     -50381.035     -563.9266       0.057196111    1.685          0.011439222  
    338000   241.72574     -44588.252     -50490.183     -95.655062      0.01338564     1.69           0.0026771281 
    339000   246.46438     -44385.774     -50403.403     -144.98262      0.014494903    1.695          0.0028989807 
    340000   245.20237     -44435.429     -50422.245     -110.51254      0.012454118    1.7            0.0024908235 
    341000   245.70294     -44415.453     -50414.49      -423.7875       0.04340296     1.705          0.008680592  
    342000   245.25586     -44383.664     -50371.786     -443.92876      0.047006188    1.71           0.0094012376 
    343000   243.38885     -44245.794     -50188.331     -426.45428      0.043207475    1.715          0.0086414949 
    344000   244.4961      -44241.601     -50211.173     -457.79805      0.044180758    1.72           0.0088361516 
    345000   243.57283     -44235.66      -50182.689     -416.49245      0.046129648    1.725          0.0092259295 
    346000   245.76743     -44106.472     -50107.084     -237.4575       0.02312759     1.73           0.0046255179 
    347000   245.13615     -44373.269     -50358.468     -514.55457      0.049668624    1.735          0.0099337248 
    348000   249.4937      -44083.949     -50175.541     -223.7893       0.025328049    1.74           0.0050656099 
    349000   242.69784     -44269.636     -50195.301     -351.16309      0.037517474    1.745          0.0075034947 
    350000   247.43179     -44285.736     -50326.985     -307.72268      0.031403953    1.75           0.0062807906 
    351000   248.69971     -44189.921     -50262.127     -291.50197      0.029834581    1.755          0.0059669163 
    352000   250.84819     -44210.143     -50334.805     -329.03231      0.030591526    1.76           0.0061183053 
    353000   245.09135     -44326.303     -50310.408     -651.49419      0.066031674    1.765          0.013206335  
    354000   248.61208     -44260.34      -50330.406      133.56849     -0.01674502     1.77          -0.0033490041 
    355000   243.34245     -44372.856     -50314.26      -354.68324      0.032769504    1.775          0.0065539008 
    356000   247.79186     -44258.639     -50308.679     -294.3834       0.029315518    1.78           0.0058631036 
    357000   243.81281     -44316.827     -50269.716     -426.27656      0.048939332    1.785          0.0097878663 
    358000   247.69684     -44272.504     -50320.225     -190.95345      0.01744961     1.79           0.003489922  
    359000   248.94662     -44285.032     -50363.266     -172.07555      0.021280456    1.795          0.0042560912 
    360000   247.76756     -44266.929     -50316.376     -208.06806      0.024808261    1.8            0.0049616523 
    361000   243.72189     -44490.397     -50441.065     -590.75252      0.059960873    1.805          0.011992175  
    362000   242.08544     -44351.528     -50262.242     -192.90962      0.018421596    1.81           0.0036843193 
    363000   248.3034      -44279.923     -50342.453      48.0873       -0.0060256649   1.815         -0.001205133  
    364000   250.51674     -44268.869     -50385.44      -670.86711      0.06999481     1.82           0.013998962  
    365000   244.32336     -44338.94      -50304.294     -203.36613      0.022196313    1.825          0.0044392625 
    366000   244.41671     -44268.251     -50235.884     -500.52923      0.04645722     1.83           0.009291444  
    367000   244.52444     -44344.31      -50314.574     -97.862525      0.0069780178   1.835          0.0013956036 
    368000   244.20855     -44171.694     -50134.245     -250.57033      0.026270463    1.84           0.0052540926 
    369000   244.09669     -44347.531     -50307.35      -388.34818      0.032559953    1.845          0.0065119906 
    370000   243.06119     -44323.695     -50258.232      33.152335     -0.0045206415   1.85          -0.0009041283 
    371000   250.7915      -44227.89      -50351.169     -254.53152      0.023450203    1.855          0.0046900405 
    372000   244.3582      -44161.946     -50128.15      -281.89457      0.026080446    1.86           0.0052160892 
    373000   248.02326     -44222.506     -50278.196     -144.39122      0.016579491    1.865          0.0033158981 
    374000   246.84385     -44235.818     -50262.712     -18.174707      0.0014478562   1.87           0.00028957124
    375000   247.75208     -44227.02      -50276.089      28.759185     -0.0024597165   1.875         -0.00049194331
    376000   246.91757     -44302.959     -50331.653     -141.62808      0.013791239    1.88           0.0027582478 
    377000   244.41289     -44270.504     -50238.044     -57.876206      0.0032779359   1.885          0.00065558718
    378000   246.62526     -44095.819     -50117.376     -172.13982      0.017360701    1.89           0.0034721402 
    379000   242.86666     -44426.047     -50355.835     -281.5008       0.031361766    1.895          0.0062723531 
    380000   244.5081      -44238.241     -50208.106     -481.64725      0.044951795    1.9            0.008990359  
    381000   246.24101     -44182.331     -50194.506     -181.59957      0.017460308    1.905          0.0034920616 
    382000   246.10799     -44223.254     -50232.181     -305.87009      0.031509957    1.91           0.0063019915 
    383000   242.42971     -44284.202     -50203.321     -82.791944      0.0058777883   1.915          0.0011755577 
    384000   246.60183     -44248.213     -50269.198     -209.68345      0.020778656    1.92           0.0041557313 
    385000   249.36901     -44053.068     -50141.615     -43.138683     -0.0018356525   1.925         -0.00036713051
    386000   243.64034     -44365.153     -50313.831     -62.17473       0.0056232711   1.93           0.0011246542 
    387000   246.54707     -44247.821     -50267.469     -290.82972      0.025070015    1.935          0.005014003  
    388000   240.37704     -44415.025     -50284.026     -201.90623      0.018116176    1.94           0.0036232353 
    389000   248.9057      -44251.342     -50328.577     -590.72146      0.05803994     1.945          0.011607988  
    390000   245.50563     -44265.087     -50259.308     -212.40065      0.01962898     1.95           0.0039257961 
    391000   245.88084     -44216.635     -50220.016     -343.34199      0.035543663    1.955          0.0071087326 
    392000   247.20524     -44118.211     -50153.929     -51.243663      0.0023125404   1.96           0.00046250809
    393000   250.21973     -44188.427     -50297.746     -529.43725      0.053967743    1.965          0.010793549  
    394000   245.37724     -44247.13      -50238.215     -356.25375      0.032909736    1.97           0.0065819472 
    395000   245.30419     -44156.814     -50146.116     -269.06887      0.02296904     1.975          0.0045938079 
    396000   247.12739     -44145.088     -50178.905     -134.58018      0.012568017    1.98           0.0025136033 
    397000   246.91588     -44134.499     -50163.151     -401.87608      0.038307697    1.985          0.0076615394 
    398000   246.73849     -44231.955     -50256.277     -413.72011      0.043710048    1.99           0.0087420096 
    399000   251.29905     -44028.594     -50164.266     -357.96888      0.032524445    1.995          0.006504889  
    400000   245.16232     -44281.113     -50266.951     -187.3037       0.018441562    2              0.0036883125 
Loop time of 494.367 on 56 procs for 100000 steps with 12288 atoms

Performance: 17.477 ns/day, 1.373 hours/ns, 202.279 timesteps/s, 2.486 Matom-step/s
99.8% CPU use with 56 MPI tasks x no OpenMP threads

MPI task timing breakdown:
Section |  min time  |  avg time  |  max time  |%varavg| %total
---------------------------------------------------------------
Pair    | 186.49     | 199.32     | 206.53     |  31.8 | 40.32
Bond    | 0.017283   | 0.030458   | 0.044951   |   3.2 |  0.01
Kspace  | 152.73     | 159.44     | 172.16     |  33.9 | 32.25
Neigh   | 22.439     | 22.45      | 22.46      |   0.1 |  4.54
Comm    | 15.911     | 17.72      | 19.524     |  20.0 |  3.58
Output  | 0.22145    | 0.39644    | 0.56443    |  16.1 |  0.08
Modify  | 73.089     | 79.88      | 92.362     |  52.5 | 16.16
Other   |            | 15.13      |            |       |  3.06

Nlocal:        219.429 ave         234 max         203 min
Histogram: 3 5 3 5 4 14 9 4 5 4
Nghost:        6859.12 ave        6920 max        6808 min
Histogram: 2 7 9 3 9 11 7 5 1 2
Neighs:        96049.7 ave      103140 max       87977 min
Histogram: 3 5 2 6 8 8 10 4 5 5

Total # of neighbors = 5378783
Ave neighs/atom = 437.72648
Ave special neighs/atom = 2
Neighbor list builds = 1921
Dangerous builds = 0
kspace_style pppm/tip4p 1.0e-5
next nloop
jump SELF loop_start
run 100000 # 100ps
PPPM initialization ...
  extracting TIP4P info from pair style
  using 12-bit tables for long-range coulomb
  G vector (1/distance) = 0.32815664
  grid = 50 50 50
  stencil order = 5
  estimated absolute RMS force accuracy = 0.0035802102
  estimated relative force accuracy = 1.0781697e-05
  using double precision KISS FFT
  3d grid and FFT values/proc = 11424 2800
Generated 0 of 1 mixed pair_coeff terms from geometric mixing rule
Per MPI rank memory allocation (min/avg/max) = 10.91 | 11.03 | 11.12 Mbytes
   Step          Temp          TotEng         PotEng          Pxy           v_sxy         v_strain     v_viscosity  
    400000   245.15919     -44281.196     -50266.957     -175.32713      0.017213474    2              0.0034426948 
    401000   248.40576     -44295.709     -50360.738     -224.27805      0.020285006    2.005          0.0040570012 
    402000   245.39562     -44180.712     -50172.246     -287.17305      0.029217986    2.01           0.0058435972 
    403000   244.82832     -44168.51      -50146.193     -252.19475      0.02300421     2.015          0.0046008421 
    404000   245.64063     -44155.96      -50153.477     -452.13534      0.04358417     2.02           0.0087168341 
    405000   243.46718     -44379.026     -50323.476     -520.3939       0.055922828    2.025          0.011184566  
    406000   244.89816     -44254.367     -50233.756     -561.01099      0.057282498    2.03           0.0114565    
    407000   244.48973     -44316.878     -50286.294     -479.22917      0.052327929    2.035          0.010465586  
    408000   244.75264     -44195.327     -50171.163     -504.30249      0.047369872    2.04           0.0094739745 
    409000   245.43543     -44284.07      -50276.576      24.652052      0.0016416167   2.045          0.00032832334
    410000   245.72882     -44355.652     -50355.322     -31.410733      0.00049510129  2.05           9.9020257e-05
    411000   243.74175     -44331.771     -50282.924     -342.52494      0.036587691    2.055          0.0073175382 
    412000   246.47694     -44278.812     -50296.747     -397.33392      0.03959765     2.06           0.00791953   
    413000   243.96164     -44426.195     -50382.718     -287.45287      0.028096173    2.065          0.0056192345 
    414000   248.09159     -44177.352     -50234.71      -257.17606      0.028004184    2.07           0.0056008367 
    415000   244.81456     -44324.372     -50301.719     -103.4854       0.0080690936   2.075          0.0016138187 
    416000   242.27475     -44302.719     -50218.054     -310.02328      0.030483539    2.08           0.0060967079 
    417000   248.87154     -44084.361     -50160.763     -334.00648      0.032375334    2.085          0.0064750669 
    418000   247.9093      -44155.998     -50208.905     -398.34735      0.035690874    2.09           0.0071381749 
    419000   243.82728     -44263.153     -50216.395     -206.57913      0.020075962    2.095          0.0040151923 
    420000   246.81287     -44192.101     -50218.238     -440.8753       0.041924328    2.1            0.0083848657 
    421000   243.7882      -44232.903     -50185.191     -212.0119       0.01951242     2.105          0.0039024839 
    422000   243.50169     -44142.56      -50087.852     -384.75373      0.039450265    2.11           0.0078900529 
    423000   247.23192     -44198.623     -50234.992     -180.63836      0.017232485    2.115          0.003446497  
    424000   245.6713      -44365.229     -50363.494     -386.12401      0.039080078    2.12           0.0078160157 
    425000   242.91453     -44366.98      -50297.936     -168.65456      0.017965204    2.125          0.0035930407 
    426000   247.15242     -44274.147     -50308.575     -289.4148       0.032077464    2.13           0.0064154928 
    427000   245.84588     -44313.499     -50316.027     -201.71833      0.017483089    2.135          0.0034966178 
    428000   241.56583     -44430.422     -50328.448      104.23067     -0.0086216682   2.14          -0.0017243336 
    429000   243.35197     -44282.911     -50224.548     -26.41571       0.0041243596   2.145          0.00082487193
    430000   243.92255     -44432.459     -50388.027     -226.44323      0.023090768    2.15           0.0046181537 
    431000   245.58934     -44445.184     -50441.448     -332.75999      0.033584044    2.155          0.0067168088 
    432000   244.98438     -44356.676     -50338.169     -541.90193      0.05343509     2.16           0.010687018  
    433000   246.46055     -44240.401     -50257.936     -115.98213      0.0093313603   2.165          0.0018662721 
    434000   246.94328     -44298.916     -50328.238     -189.11606      0.022907839    2.17           0.0045815678 
    435000   246.91279     -44127.808     -50156.385     -29.872503      0.0054568497   2.175          0.0010913699 
    436000   244.70265     -44302.649     -50277.264     -240.82001      0.020070741    2.18           0.0040141482 
    437000   244.55868     -44172.923     -50144.022     -301.37253      0.029693901    2.185          0.0059387803 
    438000   246.25546     -44180.122     -50192.65       155.42615     -0.01361576     2.19          -0.002723152  
    439000   246.86783     -44259.641     -50287.121     -197.1843       0.022277525    2.195          0.0044555051 
    440000   242.21186     -44244.84      -50158.64      -396.28691      0.035548959    2.2            0.0071097918 
    441000   244.67307     -44265.74      -50239.633     -72.399088      0.0035792462   2.205          0.00071584924
    442000   242.97219     -44382.442     -50314.806     -59.531674      0.0058469983   2.21           0.0011693997 
    443000   245.55698     -44169.713     -50165.187      4.3606576     -0.0027596099   2.215         -0.00055192198
    444000   246.30662     -44148.279     -50162.056     -636.79682      0.062229698    2.22           0.01244594   
    445000   244.79303     -44278.129     -50254.951     -83.18611       0.0052998895   2.225          0.0010599779 
    446000   246.16223     -44287.292     -50297.544      57.196536     -0.0069184621   2.23          -0.0013836924 
    447000   246.9708      -44351.75      -50381.744     -50.195443      0.0094946333   2.235          0.0018989267 
    448000   247.04519     -44221.516     -50253.326     -264.33177      0.028187511    2.24           0.0056375022 
    449000   245.10348     -44287.953     -50272.354     -235.20985      0.026262006    2.245          0.0052524011 
    450000   245.29098     -44316.49      -50305.47      -534.99735      0.052212124    2.25           0.010442425  
    451000   245.16306     -44137.397     -50123.253     -212.0543       0.023790771    2.255          0.0047581541 
    452000   242.48537     -44249.707     -50170.185     -270.74184      0.026359143    2.26           0.0052718287 
    453000   243.54728     -44196.598     -50143.004     -59.67062       0.0042971932   2.265          0.00085943864
    454000   251.78506     -44044.666     -50192.203      115.89197     -0.014675837    2.27          -0.0029351673 
    455000   247.09899     -44268.482     -50301.605     -253.20373      0.024927959    2.275          0.0049855918 
    456000   243.46044     -44150.703     -50094.988     -263.63674      0.02483332     2.28           0.0049666639 
    457000   244.18511     -44172.038     -50134.016     -294.84514      0.031742142    2.285          0.0063484284 
    458000   242.46337     -44299.938     -50219.879     -71.734432      0.0033483146   2.29           0.00066966292
    459000   244.76755     -44200.355     -50176.554     -175.06062      0.016333198    2.295          0.0032666396 
    460000   244.46362     -44227.15      -50195.929     -313.81473      0.029776618    2.3            0.0059553236 
    461000   246.88747     -44388.536     -50416.494     -396.34549      0.042293443    2.305          0.0084586885 
    462000   246.9065      -44177.076     -50205.5       -72.625187      0.0087233823   2.31           0.0017446765 
    463000   247.11483     -44192.399     -50225.908      40.336699     -0.0011218237   2.315         -0.00022436474
    464000   246.59627     -44278.834     -50299.683     -462.40882      0.03986294     2.32           0.0079725881 
    465000   246.22051     -44193.055     -50204.729     -467.03543      0.047645628    2.325          0.0095291255 
    466000   244.26328     -44389.255     -50353.142     -311.20013      0.027389526    2.33           0.0054779052 
    467000   247.05731     -44194.196     -50226.301     -339.75965      0.03317403     2.335          0.0066348059 
    468000   245.78173     -44185.339     -50186.3       -331.43741      0.03384304     2.34           0.0067686079 
    469000   249.22961     -44091.565     -50176.709     -428.56309      0.043177454    2.345          0.0086354907 
    470000   246.96348     -44304.206     -50334.021     -516.48186      0.056134748    2.35           0.01122695   
    471000   248.06262     -44152.333     -50208.984     -174.82584      0.017415873    2.355          0.0034831747 
    472000   245.86537     -44234.624     -50237.627     -49.334271      0.0046639291   2.36           0.00093278581
    473000   248.45588     -44241.252     -50307.505     -282.21806      0.02513629     2.365          0.0050272579 
    474000   242.96018     -44347.884     -50279.955     -109.96479      0.0073264474   2.37           0.0014652895 
    475000   249.10321     -44182.871     -50264.929     -85.201735      0.0080981973   2.375          0.0016196395 
    476000   243.19395     -44363.282     -50301.061     -352.46352      0.032459906    2.38           0.0064919812 
    477000   246.55302     -44332.893     -50352.686     -180.17643      0.020194067    2.385          0.0040388134 
    478000   248.23977     -44421.068     -50482.044     -364.35597      0.033357861    2.39           0.0066715721 
    479000   249.5982      -44193.957     -50288.1       -115.27952      0.0084470894   2.395          0.0016894179 
    480000   243.47586     -44365.125     -50309.786     -140.53831      0.012030503    2.4            0.0024061006 
    481000   252.02851     -44161.215     -50314.696     -219.91815      0.021364764    2.405          0.0042729527 
    482000   249.33247     -44283.59      -50371.246     -222.28249      0.021295697    2.41           0.0042591393 
    483000   243.78851     -44430.678     -50382.973     -295.33951      0.028248742    2.415          0.0056497484 
    484000   247.05888     -44145.962     -50178.106     -106.38889      0.010728       2.42           0.0021456001 
    485000   243.59796     -44383.336     -50330.979     -257.17833      0.026879047    2.425          0.0053758094 
    486000   244.63238     -44510.529     -50483.428     -368.93565      0.035131408    2.43           0.0070262816 
    487000   245.9226      -44153.149     -50157.549     -331.27422      0.034246905    2.435          0.0068493809 
    488000   244.26819     -44262.454     -50226.461     -12.75418       0.0046362561   2.44           0.00092725122
    489000   242.59766     -44351.765     -50274.985     -93.174895      0.0078430227   2.445          0.0015686045 
    490000   244.80835     -44151.539     -50128.735     -238.19351      0.024991875    2.45           0.004998375  
    491000   246.15779     -44274.464     -50284.607     -207.4881       0.01932169     2.455          0.003864338  
    492000   244.69323     -44258.998     -50233.382     -127.23954      0.010516482    2.46           0.0021032963 
    493000   246.65228     -44242.344     -50264.56       10.864469     -0.0002968298   2.465         -5.9365959e-05
    494000   242.68907     -44276.489     -50201.941     -449.00251      0.040915137    2.47           0.0081830274 
    495000   244.60148     -44338.917     -50311.061     -242.34371      0.02670497     2.475          0.0053409941 
    496000   243.93637     -44278.867     -50234.772     -571.84188      0.054597454    2.48           0.010919491  
    497000   247.46244     -44237.746     -50279.743     -678.93278      0.066872601    2.485          0.01337452   
    498000   247.17895     -44272.672     -50307.747     -66.722749      0.0059398959   2.49           0.0011879792 
    499000   246.19315     -44267.521     -50278.527     -25.729799      0.0010067394   2.495          0.00020134788
    500000   240.25038     -44345.871     -50211.779     -177.31566      0.019549549    2.5            0.0039099097 
Loop time of 426.856 on 56 procs for 100000 steps with 12288 atoms

Performance: 20.241 ns/day, 1.186 hours/ns, 234.271 timesteps/s, 2.879 Matom-step/s
99.7% CPU use with 56 MPI tasks x no OpenMP threads

MPI task timing breakdown:
Section |  min time  |  avg time  |  max time  |%varavg| %total
---------------------------------------------------------------
Pair    | 186.26     | 196.96     | 203.83     |  27.9 | 46.14
Bond    | 0.014302   | 0.02577    | 0.037221   |   3.1 |  0.01
Kspace  | 114.15     | 120.16     | 130.33     |  33.3 | 28.15
Neigh   | 22.247     | 22.256     | 22.265     |   0.1 |  5.21
Comm    | 15.33      | 16.556     | 18.112     |  16.3 |  3.88
Output  | 0.80981    | 1.1501     | 1.5493     |  21.2 |  0.27
Modify  | 51.801     | 56.73      | 66.269     |  45.1 | 13.29
Other   |            | 13.02      |            |       |  3.05

Nlocal:        219.429 ave         234 max         194 min
Histogram: 1 0 1 3 5 12 12 9 9 4
Nghost:        7288.11 ave        7351 max        7210 min
Histogram: 3 0 1 9 11 10 8 7 1 6
Neighs:        96048.7 ave      102713 max       83451 min
Histogram: 1 0 0 3 7 12 8 12 9 4

Total # of neighbors = 5378729
Ave neighs/atom = 437.72209
Ave special neighs/atom = 2
Neighbor list builds = 1905
Dangerous builds = 0
kspace_style pppm/tip4p 1.0e-5
next nloop
jump SELF loop_start
run 100000 # 100ps
PPPM initialization ...
  extracting TIP4P info from pair style
  using 12-bit tables for long-range coulomb
  G vector (1/distance) = 0.32815664
  grid = 50 75 50
  stencil order = 5
  estimated absolute RMS force accuracy = 0.0035802102
  estimated relative force accuracy = 1.0781697e-05
  using double precision KISS FFT
  3d grid and FFT values/proc = 15776 4000
Generated 0 of 1 mixed pair_coeff terms from geometric mixing rule
Per MPI rank memory allocation (min/avg/max) = 11.21 | 11.34 | 11.45 Mbytes
   Step          Temp          TotEng         PotEng          Pxy           v_sxy         v_strain     v_viscosity  
    500000   240.24961     -44345.868     -50211.759     -168.10211      0.01860413     2.5            0.003720826  
    501000   243.74794     -44091.853     -50043.158     -543.68221      0.055021874    2.505          0.011004375  
    502000   248.09091     -44243.026     -50300.368     -132.58727      0.0090711884   2.51           0.0018142377 
    503000   240.69264     -44402.062     -50278.769     -395.87323      0.037655985    2.515          0.0075311971 
    504000   245.5011      -44286.259     -50280.368     -429.81831      0.04275065     2.52           0.0085501299 
    505000   246.45663     -44303.213     -50320.652     -327.85429      0.032776092    2.525          0.0065552183 
    506000   246.43717     -44168.546     -50185.51      -393.08174      0.036445726    2.53           0.0072891453 
    507000   249.71186     -44133.271     -50230.19      -202.24349      0.017427362    2.535          0.0034854723 
    508000   244.46399     -44163.181     -50131.968      17.616266     -0.0016821042   2.54          -0.00033642084
    509000   245.94715     -44252.346     -50257.346      103.81703     -0.0090351929   2.545         -0.0018070386 
    510000   246.25621     -44138.386     -50150.932     -328.26822      0.030714604    2.55           0.0061429208 
    511000   246.44207     -44199.036     -50216.12      -217.96328      0.017967405    2.555          0.003593481  
    512000   243.98703     -44280.72      -50237.862     -175.83729      0.013641317    2.56           0.0027282635 
    513000   247.76856     -44113.422     -50162.893     -207.18095      0.017160246    2.565          0.0034320493 
    514000   246.51069     -44130.788     -50149.547     -213.25313      0.017054351    2.57           0.0034108702 
    515000   243.59049     -44382.127     -50329.587     -508.98741      0.054000463    2.575          0.010800093  
    516000   248.89278     -44148.726     -50225.647     -220.20592      0.021563974    2.58           0.0043127948 
    517000   245.27982     -44328.864     -50317.57      -237.66451      0.020894771    2.585          0.0041789542 
    518000   245.52912     -44253.138     -50247.932     -399.59522      0.038308903    2.59           0.0076617806 
    519000   246.68177     -44192.292     -50215.229     -284.28295      0.024255535    2.595          0.0048511069 
    520000   246.10085     -44293.592     -50302.345      30.400971     -0.0045525804   2.6           -0.00091051608
    521000   244.62601     -44256.917     -50229.661     -95.572627      0.014415384    2.605          0.0028830768 
    522000   248.88934     -43989.579     -50066.415     -108.25875      0.0094040137   2.61           0.0018808027 
    523000   246.27781     -44252.078     -50265.152     -402.64424      0.042747626    2.615          0.0085495252 
    524000   247.87919     -44199.962     -50252.135     -214.20587      0.015978308    2.62           0.0031956616 
    525000   244.4759      -44310.546     -50279.625     -350.73617      0.036478862    2.625          0.0072957723 
    526000   247.62782     -44344.379     -50390.414     -505.28642      0.053340581    2.63           0.010668116  
    527000   242.07412     -44345.878     -50256.315     -275.79462      0.026309952    2.635          0.0052619903 
    528000   244.65106     -44280.235     -50253.591     -367.20778      0.035961573    2.64           0.0071923146 
    529000   248.54802     -44209.544     -50278.047     -299.48067      0.025321198    2.645          0.0050642396 
    530000   242.65408     -44452.205     -50376.802     -245.27779      0.0242218      2.65           0.00484436   
    531000   248.14558     -44187.402     -50246.079      31.216994     -0.0032266331   2.655         -0.00064532663
    532000   247.19751     -44226.303     -50261.832     -343.43722      0.032992843    2.66           0.0065985686 
    533000   245.50912     -44368.892     -50363.197     -229.57549      0.024243831    2.665          0.0048487661 
    534000   244.08054     -44331.304     -50290.729     -295.07858      0.026146706    2.67           0.0052293412 
    535000   249.13266     -44066.299     -50149.076     -70.165804      0.0067118977   2.675          0.0013423795 
    536000   240.61109     -44339.716     -50214.432     -137.22047      0.011939051    2.68           0.0023878103 
    537000   250.10464     -44060.364     -50166.873     -434.03288      0.044965221    2.685          0.0089930442 
    538000   246.62798     -44292.49      -50314.113     -365.48391      0.034893641    2.69           0.0069787282 
    539000   245.24009     -44301.493     -50289.23      -208.17113      0.021946536    2.695          0.0043893072 
    540000   244.12787     -44199.348     -50159.929     -224.37928      0.020914535    2.7            0.0041829071 
    541000   243.59727     -44228.693     -50176.319     -97.852408      0.01258883     2.705          0.002517766  
    542000   247.35733     -44226.397     -50265.828     -272.40763      0.03065909     2.71           0.006131818  
    543000   248.81125     -44100.478     -50175.408     -172.63778      0.015213782    2.715          0.0030427564 
    544000   244.24685     -44147.493     -50110.978     -237.42712      0.021642315    2.72           0.0043284629 
    545000   242.66194     -44476.888     -50401.677     -184.07006      0.019755015    2.725          0.0039510031 
    546000   246.20793     -44227.039     -50238.407     -490.441        0.049294566    2.73           0.0098589133 
    547000   246.20002     -44231.981     -50243.155     -264.28864      0.023012606    2.735          0.0046025213 
    548000   242.89667     -44247.327     -50177.847     -323.81902      0.033288678    2.74           0.0066577356 
    549000   244.65697     -44315.553     -50289.052     -17.217072      0.001393689    2.745          0.0002787378 
    550000   245.77138     -44151.976     -50152.685     -26.32303       0.0019440818   2.75           0.00038881635
    551000   247.31409     -44113.239     -50151.614     -297.00911      0.033683261    2.755          0.0067366522 
    552000   246.36793     -44144.362     -50159.636     -313.65227      0.029277396    2.76           0.0058554792 
    553000   249.62134     -44189.125     -50283.833     -162.99932      0.015678695    2.765          0.0031357389 
    554000   246.37647     -44141.631     -50157.113     -154.7928       0.015629408    2.77           0.0031258816 
    555000   243.38105     -44387.531     -50329.878      150.4357      -0.014708122    2.775         -0.0029416244 
    556000   248.30041     -44209.855     -50272.312     -205.0734       0.021172472    2.78           0.0042344944 
    557000   248.4254      -44154.988     -50220.496     -310.14951      0.028311478    2.785          0.0056622956 
    558000   248.06645     -44196.199     -50252.943     -161.51547      0.012788943    2.79           0.0025577886 
    559000   251.23527     -43995.751     -50129.865      93.012731     -0.006931957    2.795         -0.0013863914 
    560000   247.89663     -44280.771     -50333.369     -181.29936      0.018510375    2.8            0.003702075  
    561000   245.28477     -44157.315     -50146.142     -370.32986      0.036724452    2.805          0.0073448904 
    562000   244.53393     -44236.102     -50206.598     -571.93537      0.053452516    2.81           0.010690503  
    563000   241.59598     -44276.001     -50174.763     -396.52087      0.040728436    2.815          0.0081456872 
    564000   247.58973     -44145.061     -50190.166     -333.76059      0.027820923    2.82           0.0055641846 
    565000   246.94971     -44200.922     -50230.401     -232.58156      0.022691546    2.825          0.0045383091 
    566000   247.41329     -44100.849     -50141.647     -445.41364      0.04845012     2.83           0.009690024  
    567000   249.99874     -44253.126     -50357.049     -557.94401      0.056451114    2.835          0.011290223  
    568000   248.76719     -44151.855     -50225.709     -447.70203      0.043295979    2.84           0.0086591957 
    569000   243.91291     -44484.727     -50440.06      -320.80981      0.024164051    2.845          0.0048328102 
    570000   245.56423     -44190.985     -50186.635     -481.6493       0.044669506    2.85           0.0089339012 
    571000   243.68221     -44322.134     -50271.834     -557.45056      0.05649866     2.855          0.011299732  
    572000   247.21232     -44143.434     -50179.325     -432.49619      0.04233594     2.86           0.008467188  
    573000   244.28146     -44348.874     -50313.205     -315.95366      0.028073992    2.865          0.0056147984 
    574000   243.37854     -44320.332     -50262.618     -112.21631      0.010269899    2.87           0.0020539798 
    575000   245.32248     -44294.733     -50284.481     -463.32186      0.047512218    2.875          0.0095024436 
    576000   243.51304     -44294.77      -50240.339     -455.07511      0.041947692    2.88           0.0083895385 
    577000   246.93621     -44307.194     -50336.343     -36.679966      0.0036674975   2.885          0.0007334995 
    578000   242.70411     -44315.816     -50241.635      72.262501     -0.0088108525   2.89          -0.0017621705 
    579000   246.14786     -44217.213     -50227.114     -346.41934      0.030737962    2.895          0.0061475924 
    580000   246.35517     -44168.554     -50183.516     -414.3856       0.04358075     2.9            0.0087161501 
    581000   246.44088     -44240.344     -50257.399     -416.53059      0.042749118    2.905          0.0085498236 
    582000   244.31256     -44295.413     -50260.504     -100.09167      0.0068360059   2.91           0.0013672012 
    583000   245.22719     -44243.367     -50230.789     -454.08323      0.049992915    2.915          0.0099985829 
    584000   245.44554     -44307.981     -50300.734     -705.56868      0.071455918    2.92           0.014291184  
    585000   246.23304     -44292.307     -50304.287     -489.36419      0.046865628    2.925          0.0093731256 
    586000   247.33296     -44147.383     -50186.219     -397.94685      0.042197326    2.93           0.0084394653 
    587000   246.45021     -44165.564     -50182.847     -286.97704      0.026733657    2.935          0.0053467315 
    588000   242.85598     -44387.467     -50316.994     -392.70082      0.038623545    2.94           0.007724709  
    589000   245.67587     -44260.845     -50259.222     -391.18755      0.036907834    2.945          0.0073815668 
    590000   248.71557     -44220.015     -50292.608     -289.8901       0.026181705    2.95           0.005236341  
    591000   246.85216     -44309.647     -50336.743     -243.14648      0.023048867    2.955          0.0046097733 
    592000   246.14578     -44282.273     -50292.123     -346.42561      0.032404905    2.96           0.006480981  
    593000   245.05896     -44266.111     -50249.425     -245.08603      0.022091463    2.965          0.0044182927 
    594000   248.88571     -44179.531     -50256.279     -42.591897      0.00049866051  2.97           9.9732101e-05
    595000   246.40358     -44144.723     -50160.867     -143.61097      0.016160468    2.975          0.0032320935 
    596000   243.41067     -44342.174     -50285.244     -226.19414      0.022158681    2.98           0.0044317363 
    597000   251.0567      -44088.822     -50218.576     -113.51313      0.010325701    2.985          0.0020651401 
    598000   245.15243     -44316.9       -50302.496     -497.31463      0.042772516    2.99           0.0085545032 
    599000   247.03402     -44198.32      -50229.857     -288.98747      0.026873353    2.995          0.0053746706 
    600000   242.6236      -44348.423     -50272.276     -354.80617      0.034961411    3              0.0069922822 
Loop time of 493.851 on 56 procs for 100000 steps with 12288 atoms

Performance: 17.495 ns/day, 1.372 hours/ns, 202.490 timesteps/s, 2.488 Matom-step/s
99.8% CPU use with 56 MPI tasks x no OpenMP threads

MPI task timing breakdown:
Section |  min time  |  avg time  |  max time  |%varavg| %total
---------------------------------------------------------------
Pair    | 187.94     | 198.48     | 207.25     |  32.3 | 40.19
Bond    | 0.01755    | 0.029363   | 0.045178   |   3.5 |  0.01
Kspace  | 152.2      | 159.65     | 170.03     |  34.5 | 32.33
Neigh   | 22.354     | 22.362     | 22.374     |   0.1 |  4.53
Comm    | 15.816     | 17.778     | 19.53      |  21.2 |  3.60
Output  | 0.22147    | 0.39792    | 0.56758    |  16.2 |  0.08
Modify  | 73.094     | 79.854     | 92.348     |  52.7 | 16.17
Other   |            | 15.29      |            |       |  3.10

Nlocal:        219.429 ave         235 max         194 min
Histogram: 1 0 1 4 13 5 13 8 5 6
Nghost:        6858.55 ave        6915 max        6807 min
Histogram: 2 5 8 5 8 10 10 3 2 3
Neighs:        96080.6 ave      104643 max       83228 min
Histogram: 1 0 0 7 8 13 9 10 6 2

Total # of neighbors = 5380512
Ave neighs/atom = 437.86719
Ave special neighs/atom = 2
Neighbor list builds = 1919
Dangerous builds = 0
kspace_style pppm/tip4p 1.0e-5
next nloop
jump SELF loop_start
run 100000 # 100ps
PPPM initialization ...
  extracting TIP4P info from pair style
  using 12-bit tables for long-range coulomb
  G vector (1/distance) = 0.32815664
  grid = 50 50 50
  stencil order = 5
  estimated absolute RMS force accuracy = 0.0035802102
  estimated relative force accuracy = 1.0781697e-05
  using double precision KISS FFT
  3d grid and FFT values/proc = 11424 2800
Generated 0 of 1 mixed pair_coeff terms from geometric mixing rule
Per MPI rank memory allocation (min/avg/max) = 10.91 | 11.03 | 11.12 Mbytes
   Step          Temp          TotEng         PotEng          Pxy           v_sxy         v_strain     v_viscosity  
    600000   242.62423     -44348.381     -50272.249     -346.29725      0.034096813    3              0.0068193625 
    601000   246.92696     -44181.028     -50209.951     -292.21927      0.031569628    3.005          0.0063139257 
    602000   246.33156     -44281.208     -50295.594     -181.80412      0.017851507    3.01           0.0035703014 
    603000   243.57541     -44214.368     -50161.46      -103.23201      0.010992017    3.015          0.0021984035 
    604000   243.83489     -44222.147     -50175.574     -69.583414      0.0033441167   3.02           0.00066882335
    605000   247.44058     -44194.885     -50236.348     -136.97833      0.012260989    3.025          0.0024521978 
    606000   243.62429     -44429.522     -50377.808     -78.143338      0.01027688     3.03           0.002055376  
    607000   248.33378     -44025.268     -50088.54      -122.64395      0.01213668     3.035          0.002427336  
    608000   244.60266     -44323.553     -50295.727     -171.52041      0.017237974    3.04           0.0034475947 
    609000   248.23726     -44162.301     -50223.216     -472.0727       0.048573988    3.045          0.0097147976 
    610000   242.31446     -44481.25      -50397.555     -414.7716       0.04067209     3.05           0.0081344181 
    611000   248.69544     -44120.08      -50192.182     -144.89606      0.013801679    3.055          0.0027603359 
    612000   246.75907     -44308.875     -50333.699     -236.80572      0.025629316    3.06           0.0051258631 
    613000   246.29178     -44271.154     -50284.569     -81.948504      0.007256609    3.065          0.0014513218 
    614000   244.11043     -44258.871     -50219.027     -38.221592      0.0016888104   3.07           0.00033776208
    615000   248.1991      -44223.823     -50283.806     -387.93664      0.042495375    3.075          0.0084990749 
    616000   243.67511     -44420.399     -50369.925     -104.66774      0.010601447    3.08           0.0021202895 
    617000   244.54599     -44376.151     -50346.941     -84.095021      0.0051090231   3.085          0.0010218046 
    618000   246.38199     -44300.001     -50315.618     -492.01626      0.049524457    3.09           0.0099048915 
    619000   246.66054     -44362.07      -50384.488     -308.18244      0.027145004    3.095          0.0054290008 
    620000   247.33635     -44224.609     -50263.527     -276.14705      0.028884912    3.1            0.0057769825 
    621000   243.45186     -44415.782     -50359.857     -84.711541      0.013030605    3.105          0.002606121  
    622000   245.84877     -44280.794     -50283.392     -341.17405      0.030692143    3.11           0.0061384285 
    623000   245.26695     -44131.399     -50119.792     -516.29212      0.051038407    3.115          0.010207681  
    624000   249.8524      -44115.978     -50216.328     -107.7773       0.01132862     3.12           0.0022657241 
    625000   244.87594     -44140.612     -50119.458     -411.82708      0.04231553     3.125          0.008463106  
    626000   244.37234     -44511.939     -50478.489     -366.33285      0.037945974    3.13           0.0075891949 
    627000   248.13029     -44245.427     -50303.731     -177.70294      0.020937886    3.135          0.0041875773 
    628000   244.06427     -44459.17      -50418.199     -238.56041      0.026856735    3.14           0.0053713469 
    629000   244.69559     -44164.354     -50138.797     -425.25013      0.040688593    3.145          0.0081377186 
    630000   245.42495     -44228.086     -50220.337     -334.23594      0.02929917     3.15           0.0058598341 
    631000   245.21391     -44251.946     -50239.044     -280.33298      0.028139563    3.155          0.0056279127 
    632000   243.08083     -44310.201     -50245.218     -187.6903       0.01802803     3.16           0.0036056059 
    633000   245.24084     -44277.886     -50265.641     -247.53505      0.024693144    3.165          0.0049386288 
    634000   244.31861     -44311.633     -50276.871     -297.33516      0.032127246    3.17           0.0064254492 
    635000   245.60118     -44212.891     -50209.444     -168.24949      0.019150357    3.175          0.0038300713 
    636000   247.22633     -44290.649     -50326.881     -329.94472      0.030018965    3.18           0.006003793  
    637000   244.08255     -44201.116     -50160.591     -251.33924      0.025778757    3.185          0.0051557514 
    638000   244.16103     -44303.377     -50264.767     -350.95123      0.033523017    3.19           0.0067046034 
    639000   239.64466     -44349.15      -50200.27      -196.84692      0.019074878    3.195          0.0038149756 
    640000   248.65266     -44094.43      -50165.487     -180.91777      0.018499033    3.2            0.0036998067 
    641000   248.11873     -44070.99      -50129.011     -226.83895      0.022794397    3.205          0.0045588794 
    642000   245.59342     -44404.131     -50400.494     -66.977845      0.0014858092   3.21           0.00029716184
    643000   245.28353     -44321.856     -50310.653     -297.16656      0.028579347    3.215          0.0057158694 
    644000   250.04387     -44208.538     -50313.563     -342.56688      0.033741378    3.22           0.0067482756 
    645000   243.52617     -44354.272     -50300.162      20.11206       0.0013510114   3.225          0.00027020228
    646000   245.72994     -44228.333     -50228.03      -387.22221      0.040713381    3.23           0.0081426761 
    647000   246.19346     -44232.883     -50243.897     -219.46891      0.022055892    3.235          0.0044111784 
    648000   243.83959     -44312.338     -50265.88      -381.42696      0.040107561    3.24           0.0080215121 
    649000   249.60311     -44234.288     -50328.552     -270.38619      0.023495402    3.245          0.0046990804 
    650000   242.6709      -44412.895     -50337.903     -550.31677      0.054271911    3.25           0.010854382  
    651000   243.89504     -44231.524     -50186.42      -373.43817      0.036777764    3.255          0.0073555528 
    652000   245.36928     -44265.298     -50256.189     -453.99889      0.043999435    3.26           0.0087998871 
    653000   244.83203     -44259.77      -50237.544     -288.9593       0.024887654    3.265          0.0049775308 
    654000   246.00665     -44283.253     -50289.706     -531.6374       0.053981948    3.27           0.01079639   
    655000   246.29413     -44081.627     -50095.099     -31.638886     -0.0011399087   3.275         -0.00022798174
    656000   241.51857     -44355.253     -50252.126     -420.55929      0.040403457    3.28           0.0080806915 
    657000   250.09211     -44109.713     -50215.916     -293.71427      0.028340602    3.285          0.0056681205 
    658000   247.65904     -44181.214     -50228.011      26.808737     -0.0042579417   3.29          -0.00085158834
    659000   244.05437     -44341.902     -50300.688     -385.92425      0.033850844    3.295          0.0067701688 
    660000   245.04972     -44356.309     -50339.398     -78.20684       0.0053059325   3.3            0.0010611865 
    661000   249.62585     -44119.94      -50214.759     -451.77824      0.042194114    3.305          0.0084388228 
    662000   244.23636     -44314.461     -50277.691     -357.52241      0.033869962    3.31           0.0067739923 
    663000   245.43085     -44267.273     -50259.667     -92.37215       0.0075851749   3.315          0.001517035  
    664000   247.57897     -44065.259     -50110.101     -719.56846      0.066849191    3.32           0.013369838  
    665000   246.37096     -44117.022     -50132.37      -184.23226      0.016824864    3.325          0.0033649729 
    666000   242.53195     -44175.998     -50097.614     -109.76822      0.010072484    3.33           0.0020144969 
    667000   250.59026     -43967.463     -50085.829     -347.21409      0.03240922     3.335          0.0064818439 
    668000   247.19602     -44129.137     -50164.629     -185.19078      0.017337048    3.34           0.0034674096 
    669000   245.00962     -44254.801     -50236.91       190.29755     -0.019336085    3.345         -0.0038672171 
    670000   245.62976     -44131.953     -50129.204      91.507338     -0.0078597013   3.35          -0.0015719403 
    671000   248.94147     -44072.867     -50150.976     -56.709267      0.0019128045   3.355          0.0003825609 
    672000   248.38423     -44225.367     -50289.87      -55.289285      0.0074716822   3.36           0.0014943364 
    673000   244.91134     -44163.545     -50143.256     -312.47969      0.032295525    3.365          0.0064591049 
    674000   244.45076     -44221.07      -50189.535     -503.10396      0.04948864     3.37           0.0098977281 
    675000   247.02972     -44137.665     -50169.097      36.925569     -0.0023271678   3.375         -0.00046543356
    676000   249.19931     -44055.971     -50140.376     -448.96038      0.042595467    3.38           0.0085190934 
    677000   245.60515     -44231.606     -50228.257     -398.21329      0.040264409    3.385          0.0080528819 
    678000   245.81259     -44218.853     -50220.568     -218.07305      0.017153774    3.39           0.0034307549 
    679000   242.77209     -44296.028     -50223.506     -178.02974      0.018078594    3.395          0.0036157187 
    680000   245.68934     -44354.236     -50352.942     -315.09493      0.029810054    3.4            0.0059620108 
    681000   245.26429     -44318.593     -50306.92       127.49073     -0.013625828    3.405         -0.0027251656 
    682000   246.03198     -44080.262     -50087.334     -13.008941      0.00096618172  3.41           0.00019323634
    683000   249.22371     -44081.565     -50166.566     -65.84827       0.0065519557   3.415          0.0013103911 
    684000   243.85419     -44224.709     -50178.608     -358.86488      0.037836386    3.42           0.0075672773 
    685000   247.30925     -44211.937     -50250.194     -375.24067      0.03750217     3.425          0.0075004341 
    686000   247.49592     -44042.755     -50085.57      -284.98885      0.02896097     3.43           0.005792194  
    687000   241.90465     -44367.837     -50274.136     -397.09734      0.037959111    3.435          0.0075918222 
    688000   248.24315     -44206.873     -50267.932     -118.03238      0.016452797    3.44           0.0032905594 
    689000   244.14359     -44149.913     -50110.877     -432.98422      0.046699573    3.445          0.0093399145 
    690000   245.94356     -44241.912     -50246.825     -572.43765      0.061193       3.45           0.0122386    
    691000   249.12921     -44190.29      -50272.983     -160.14235      0.018174484    3.455          0.0036348968 
    692000   248.87669     -44224.672     -50301.2       -266.28559      0.026377897    3.46           0.0052755794 
    693000   245.65557     -44271.576     -50269.457     -256.50921      0.024249901    3.465          0.0048499803 
    694000   245.1086      -44150.965     -50135.491     -410.90477      0.040427884    3.47           0.0080855768 
    695000   243.54798     -44141.313     -50087.736     -415.4071       0.040388652    3.475          0.0080777304 
    696000   242.47142     -44353.895     -50274.032     -107.40115      0.012500811    3.48           0.0025001621 
    697000   245.29414     -44308.715     -50297.771     -213.47285      0.020809485    3.485          0.004161897  
    698000   248.47963     -44052.193     -50119.026     -185.52601      0.018127024    3.49           0.0036254048 
    699000   247.8079      -44249.946     -50300.378     -168.87523      0.013806188    3.495          0.0027612377 
    700000   251.80767     -44162.29      -50310.379     -211.02745      0.021321843    3.5            0.0042643686 
Loop time of 421.096 on 56 procs for 100000 steps with 12288 atoms

Performance: 20.518 ns/day, 1.170 hours/ns, 237.475 timesteps/s, 2.918 Matom-step/s
99.8% CPU use with 56 MPI tasks x no OpenMP threads

MPI task timing breakdown:
Section |  min time  |  avg time  |  max time  |%varavg| %total
---------------------------------------------------------------
Pair    | 184.7      | 195.84     | 204.81     |  30.8 | 46.51
Bond    | 0.011101   | 0.024708   | 0.039029   |   3.4 |  0.01
Kspace  | 108.85     | 117.99     | 128.92     |  39.6 | 28.02
Neigh   | 22.179     | 22.187     | 22.196     |   0.1 |  5.27
Comm    | 14.892     | 15.893     | 17.44      |  15.3 |  3.77
Output  | 0.22256    | 0.39988    | 0.57023    |  16.3 |  0.09
Modify  | 51.298     | 56.211     | 65.923     |  45.4 | 13.35
Other   |            | 12.55      |            |       |  2.98

Nlocal:        219.429 ave         237 max         195 min
Histogram: 1 0 2 4 13 10 11 8 3 4
Nghost:        7282.75 ave        7336 max        7206 min
Histogram: 1 4 4 2 7 8 7 10 11 2
Neighs:        96037.3 ave      105884 max       84153 min
Histogram: 1 1 1 8 11 10 15 4 4 1

Total # of neighbors = 5378090
Ave neighs/atom = 437.67008
Ave special neighs/atom = 2
Neighbor list builds = 1899
Dangerous builds = 0
kspace_style pppm/tip4p 1.0e-5
next nloop
jump SELF loop_start
run 100000 # 100ps
PPPM initialization ...
  extracting TIP4P info from pair style
  using 12-bit tables for long-range coulomb
  G vector (1/distance) = 0.32815664
  grid = 50 75 50
  stencil order = 5
  estimated absolute RMS force accuracy = 0.0035802102
  estimated relative force accuracy = 1.0781697e-05
  using double precision KISS FFT
  3d grid and FFT values/proc = 15776 4000
Generated 0 of 1 mixed pair_coeff terms from geometric mixing rule
Per MPI rank memory allocation (min/avg/max) = 11.21 | 11.34 | 11.45 Mbytes
   Step          Temp          TotEng         PotEng          Pxy           v_sxy         v_strain     v_viscosity  
    700000   251.80948     -44162.251     -50310.385     -200.26195      0.020217299    3.5            0.0040434598 
    701000   244.18314     -44245.736     -50207.666     -435.8768       0.041232081    3.505          0.0082464161 
    702000   245.224       -44218.079     -50205.423     -41.738772      0.0036183676   3.51           0.00072367351
    703000   245.85015     -44195.434     -50198.065     -239.16111      0.025908929    3.515          0.0051817859 
    704000   244.99732     -44367.393     -50349.202      124.0601      -0.013991599    3.52          -0.0027983199 
    705000   245.48548     -44226.712     -50220.44      -202.67078      0.019406665    3.525          0.003881333  
    706000   250.93826     -44049.066     -50175.928     -303.99303      0.029270675    3.53           0.0058541349 
    707000   244.87042     -44331.38      -50310.091     -371.64299      0.036092826    3.535          0.0072185652 
    708000   249.60437     -44144.996     -50239.29      -220.08496      0.021758535    3.54           0.0043517069 
    709000   247.6957      -44167.427     -50215.119     -235.8797       0.023679822    3.545          0.0047359645 
    710000   242.04892     -44393.735     -50303.557     -57.489698      0.0053192124   3.55           0.0010638425 
    711000   247.44814     -44261.926     -50303.574     -246.57933      0.025866971    3.555          0.0051733942 
    712000   248.7987      -44136.6       -50211.223     -237.52984      0.024429924    3.56           0.0048859848 
    713000   246.71233     -44277.002     -50300.685     -235.12314      0.026103106    3.565          0.0052206212 
    714000   245.4593      -44353.812     -50346.901     -319.15266      0.030596253    3.57           0.0061192506 
    715000   242.96252     -44442.422     -50374.55      -363.91373      0.037154105    3.575          0.0074308211 
    716000   244.71637     -44415.54      -50390.49      -502.60568      0.050116395    3.58           0.010023279  
    717000   247.0469      -44308.034     -50339.885      96.8487       -0.0069797533   3.585         -0.0013959507 
    718000   241.04167     -44541.735     -50426.964     -466.75206      0.045607029    3.59           0.0091214058 
    719000   248.57303     -44349.118     -50418.232     -139.64298      0.010579561    3.595          0.0021159121 
    720000   247.91614     -44331.964     -50385.039     -565.49159      0.057819107    3.6            0.011563821  
    721000   248.43844     -44235.446     -50301.273     -339.18706      0.035104069    3.605          0.0070208138 
    722000   247.30418     -44353.367     -50391.5       -667.56397      0.066213437    3.61           0.013242687  
    723000   245.71862     -44336.309     -50335.73      -231.6632       0.020739499    3.615          0.0041478997 
    724000   248.80052     -44377.158     -50451.825     -557.83353      0.054928915    3.62           0.010985783  
    725000   247.74781     -44373.949     -50422.914     -394.83302      0.039467114    3.625          0.0078934227 
    726000   245.52677     -44396.03      -50390.766     -126.31628      0.011789666    3.63           0.0023579333 
    727000   247.27373     -44398.974     -50436.364     -265.90566      0.025577985    3.635          0.005115597  
    728000   243.39741     -44357.543     -50300.289     -136.62635      0.010392243    3.64           0.0020784487 
    729000   242.82506     -44490.02      -50418.792     -461.78989      0.048532163    3.645          0.0097064325 
    730000   246.60179     -44215.407     -50236.391     -359.17447      0.037652844    3.65           0.0075305689 
    731000   246.18327     -44319.903     -50330.668     -471.43009      0.047415341    3.655          0.0094830682 
    732000   245.99865     -44285.246     -50291.503     -200.17683      0.013200776    3.66           0.0026401552 
    733000   250.75597     -44114.844     -50237.255     -492.00868      0.044249336    3.665          0.0088498673 
    734000   242.01023     -44511.29      -50420.167     -320.08601      0.030345531    3.67           0.0060691062 
    735000   244.75733     -44432.77      -50408.719      74.830726     -0.0071846018   3.675         -0.0014369204 
    736000   245.21337     -44320.821     -50307.905     -245.19812      0.027027495    3.68           0.005405499  
    737000   245.7827      -44251.764     -50252.749     -263.79623      0.023105589    3.685          0.0046211178 
    738000   250.81757     -44237.38      -50361.296     -312.98184      0.033983435    3.69           0.006796687  
    739000   245.37265     -44305.983     -50296.956     -365.8536       0.035333768    3.695          0.0070667536 
    740000   246.97454     -44284.808     -50314.892     -19.883016      0.0050699056   3.7            0.0010139811 
    741000   248.30567     -44207.902     -50270.487     -349.18463      0.038570346    3.705          0.0077140693 
    742000   246.72018     -44284.577     -50308.451     -235.45889      0.023020425    3.71           0.004604085  
    743000   244.1977      -44325.802     -50288.088     -417.68124      0.040795396    3.715          0.0081590791 
    744000   244.51381     -44289.889     -50259.893     -672.20711      0.06538251     3.72           0.013076502  
    745000   244.4946      -44454.724     -50424.259     -498.93405      0.04925698     3.725          0.009851396  
    746000   246.24285     -44231.925     -50244.145     -346.70224      0.033345406    3.73           0.0066690813 
    747000   242.5572      -44389.198     -50311.429     -214.79091      0.021702498    3.735          0.0043404995 
    748000   245.85931     -44273.022     -50275.878     -272.43787      0.020989593    3.74           0.0041979186 
    749000   250.12637     -44206.567     -50313.606     -238.47558      0.02295801     3.745          0.004591602  
    750000   245.66518     -44358.241     -50356.356     -176.35897      0.018472394    3.75           0.0036944789 
    751000   247.22724     -44272.661     -50308.916     -67.045588      0.0049270071   3.755          0.00098540143
    752000   245.0092      -44390.681     -50372.781     -245.07793      0.024640415    3.76           0.0049280829 
    753000   250.49932     -44124.9       -50241.045      102.55941     -0.011955913    3.765         -0.0023911826 
    754000   246.47644     -44288.433     -50306.357     -422.16209      0.042372686    3.77           0.0084745371 
    755000   242.95166     -44421.779     -50353.642     -193.94515      0.019702958    3.775          0.0039405917 
    756000   245.59013     -44137.928     -50134.212     -341.10548      0.036312153    3.78           0.0072624305 
    757000   244.81107     -44308.147     -50285.409      113.59188     -0.01470232     3.785         -0.002940464  
    758000   244.13216     -44334.244     -50294.93      -231.02991      0.020563878    3.79           0.0041127755 
    759000   245.15648     -44296.521     -50282.216     -279.30604      0.029180388    3.795          0.0058360777 
    760000   246.2582      -44176.088     -50188.683     -119.15782      0.0074343682   3.8            0.0014868736 
    761000   244.13893     -44291.726     -50252.577      52.548147     -0.0035158231   3.805         -0.00070316461
    762000   245.00397     -44245.807     -50227.778     -101.40603      0.0091472579   3.81           0.0018294516 
    763000   249.66374     -44124.571     -50220.314     -387.75142      0.044086996    3.815          0.0088173992 
    764000   245.88972     -44384.763     -50388.361     -423.29498      0.044981351    3.82           0.0089962702 
    765000   245.19043     -44303.204     -50289.728      6.520025      -0.0032836969   3.825         -0.00065673937
    766000   244.79515     -44210.241     -50187.114     -76.562288      0.0084172048   3.83           0.001683441  
    767000   247.88327     -44033.009     -50085.281     -310.51227      0.025407939    3.835          0.0050815878 
    768000   241.53093     -44187.736     -50084.91      -39.685207      0.002560864    3.84           0.00051217281
    769000   246.84953     -44104.707     -50131.74      -230.32459      0.021283227    3.845          0.0042566454 
    770000   246.51682     -44196.579     -50215.488     -400.77614      0.039201663    3.85           0.0078403326 
    771000   246.74971     -44236.577     -50261.172     -474.47369      0.045783675    3.855          0.0091567349 
    772000   246.81245     -44089.469     -50115.597     -720.1017       0.072630291    3.86           0.014526058  
    773000   244.76607     -44320.645     -50296.808     -440.16557      0.039303637    3.865          0.0078607273 
    774000   248.21782     -44159.828     -50220.268     -207.02231      0.02019715     3.87           0.00403943   
    775000   245.03955     -44232.581     -50215.422      115.36592     -0.015655152    3.875         -0.0031310305 
    776000   246.17075     -44164.565     -50175.024     -389.97368      0.039300436    3.88           0.0078600872 
    777000   251.87106     -44176.744     -50326.382     -280.6396       0.029158281    3.885          0.0058316561 
    778000   246.37667     -44202.756     -50218.243     -193.143        0.015417406    3.89           0.0030834812 
    779000   245.597       -44323.515     -50319.966     -365.58878      0.036738972    3.895          0.0073477944 
    780000   247.49998     -44180.596     -50223.51      -10.013385     -0.0017024242   3.9           -0.00034048485
    781000   245.09587     -44343.207     -50327.422     -250.80257      0.025945109    3.905          0.0051890218 
    782000   245.27338     -44355.664     -50344.213     -566.33512      0.054242913    3.91           0.010848583  
    783000   245.20112     -44434.155     -50420.941     -25.282098      0.0031827687   3.915          0.00063655373
    784000   244.56978     -44265.724     -50237.095     -89.9997        0.0097735475   3.92           0.0019547095 
    785000   245.20558     -44313.044     -50299.938      90.729822     -0.0096665282   3.925         -0.0019333056 
    786000   246.59473     -44122.791     -50143.602     -558.00104      0.053793822    3.93           0.010758764  
    787000   244.82622     -44180.703     -50158.334     -271.19913      0.028455127    3.935          0.0056910253 
    788000   244.4252      -44255.749     -50223.59      -381.36524      0.036502984    3.94           0.0073005968 
    789000   246.79884     -44142.025     -50167.82      -243.8064       0.024954285    3.945          0.0049908569 
    790000   244.16501     -44167.51      -50128.998     -283.26211      0.026825811    3.95           0.0053651622 
    791000   245.76782     -44257.052     -50257.674     -277.31679      0.025618498    3.955          0.0051236996 
    792000   244.60461     -44093.971     -50066.192     -327.31986      0.031469805    3.96           0.006293961  
    793000   242.98808     -44438.851     -50371.603     -289.5994       0.028841831    3.965          0.0057683662 
    794000   248.56767     -44133.095     -50202.078     -137.30947      0.014134304    3.97           0.0028268609 
    795000   245.84313     -44323.508     -50325.969     -183.81484      0.015121398    3.975          0.0030242797 
    796000   249.48257     -44098.131     -50189.451     -317.122        0.035250151    3.98           0.0070500301 
    797000   242.70151     -44271.3       -50197.055     -272.95831      0.030305686    3.985          0.0060611372 
    798000   243.19337     -44378.423     -50316.187      141.43642     -0.013335018    3.99          -0.0026670036 
    799000   245.82833     -44257.361     -50259.46       84.55917      -0.010763039    3.995         -0.0021526079 
    800000   243.82428     -44490.706     -50443.875     -300.72507      0.03219708     4              0.0064394161 
Loop time of 492.906 on 56 procs for 100000 steps with 12288 atoms

Performance: 17.529 ns/day, 1.369 hours/ns, 202.879 timesteps/s, 2.493 Matom-step/s
99.8% CPU use with 56 MPI tasks x no OpenMP threads

MPI task timing breakdown:
Section |  min time  |  avg time  |  max time  |%varavg| %total
---------------------------------------------------------------
Pair    | 183.11     | 197.56     | 207.99     |  38.4 | 40.08
Bond    | 0.012837   | 0.028259   | 0.045251   |   3.8 |  0.01
Kspace  | 149.1      | 159.86     | 175.1      |  41.9 | 32.43
Neigh   | 22.197     | 22.204     | 22.218     |   0.1 |  4.50
Comm    | 15.854     | 17.77      | 19.967     |  20.0 |  3.61
Output  | 0.22297    | 0.40069    | 0.57154    |  16.3 |  0.08
Modify  | 73.177     | 79.772     | 92.433     |  52.7 | 16.18
Other   |            | 15.31      |            |       |  3.11

Nlocal:        219.429 ave         238 max         206 min
Histogram: 5 7 10 11 2 6 4 5 4 2
Nghost:        6853.52 ave        6910 max        6800 min
Histogram: 3 4 5 6 8 10 11 7 1 1
Neighs:        96055.5 ave      104939 max       88843 min
Histogram: 4 5 10 10 6 3 8 4 4 2

Total # of neighbors = 5379108
Ave neighs/atom = 437.75293
Ave special neighs/atom = 2
Neighbor list builds = 1895
Dangerous builds = 0
kspace_style pppm/tip4p 1.0e-5
next nloop
jump SELF loop_start
run 100000 # 100ps
PPPM initialization ...
  extracting TIP4P info from pair style
  using 12-bit tables for long-range coulomb
  G vector (1/distance) = 0.32815664
  grid = 50 50 50
  stencil order = 5
  estimated absolute RMS force accuracy = 0.0035802102
  estimated relative force accuracy = 1.0781697e-05
  using double precision KISS FFT
  3d grid and FFT values/proc = 11424 2800
Generated 0 of 1 mixed pair_coeff terms from geometric mixing rule
Per MPI rank memory allocation (min/avg/max) = 10.91 | 11.03 | 11.12 Mbytes
   Step          Temp          TotEng         PotEng          Pxy           v_sxy         v_strain     v_viscosity  
    800000   243.83041     -44490.53      -50443.848     -291.57482      0.031254458    4              0.0062508916 
    801000   243.80232     -44272.714     -50225.346     -346.73054      0.034586558    4.005          0.0069173115 
    802000   247.40665     -44367.89      -50408.525     -559.52762      0.054675826    4.01           0.010935165  
    803000   246.16064     -44249.249     -50259.462     -54.966743      0.004639687    4.015          0.00092793741
    804000   245.83891     -44276.099     -50278.457     -367.71702      0.034562548    4.02           0.0069125095 
    805000   245.89726     -44249.909     -50253.691     -448.10894      0.046988353    4.025          0.0093976705 
    806000   245.41688     -44360.491     -50352.544     -12.611497      0.002810739    4.03           0.0005621478 
    807000   246.61509     -44211.1       -50232.408     -454.633        0.047484343    4.035          0.0094968685 
    808000   243.47066     -44388.248     -50332.782     -100.63872      0.008769613    4.04           0.0017539226 
    809000   246.19829     -44237.473     -50248.605     -210.43215      0.016492819    4.045          0.0032985639 
    810000   248.58533     -44318.013     -50387.426     -12.492076      0.004407734    4.05           0.00088154681
    811000   247.17619     -44195.771     -50230.779     -174.87034      0.014779285    4.055          0.002955857  
    812000   245.93741     -44424.57      -50429.333     -294.16043      0.026084783    4.06           0.0052169566 
    813000   247.99324     -44330.866     -50385.824      42.247768     -0.0022454115   4.065         -0.0004490823 
    814000   243.00876     -44460.781     -50394.038     -240.52271      0.023421627    4.07           0.0046843253 
    815000   245.35635     -44280.748     -50271.323     -189.65092      0.016487894    4.075          0.0032975789 
    816000   246.80065     -44240.248     -50266.087     -466.24451      0.047643065    4.08           0.0095286129 
    817000   246.43342     -44386.685     -50403.558     -392.60792      0.039085011    4.085          0.0078170022 
    818000   242.95179     -44324.1       -50255.966     -273.36651      0.024258235    4.09           0.0048516471 
    819000   245.57458     -44203.423     -50199.326     -425.1689       0.042754952    4.095          0.0085509904 
    820000   244.57751     -44280.165     -50251.724     -203.52561      0.016999971    4.1            0.0033999941 
    821000   242.57165     -44257.135     -50179.72      -36.147588      0.0037078825   4.105          0.0007415765 
    822000   250.62584     -44132.291     -50251.526     -293.11243      0.032824002    4.11           0.0065648004 
    823000   244.10405     -44204.219     -50164.218     -431.74713      0.041503015    4.115          0.0083006029 
    824000   246.18809     -44150.042     -50160.925     -332.8318       0.034065919    4.12           0.0068131838 
    825000   248.24649     -44025.295     -50086.436     -270.69516      0.025653124    4.125          0.0051306248 
    826000   248.71351     -44120.568     -50193.111     -148.01417      0.014508562    4.13           0.0029017123 
    827000   244.11099     -44183.633     -50143.802     -421.89658      0.034670295    4.135          0.0069340591 
    828000   242.55955     -43973.514     -49895.803     -149.07506      0.0099497451   4.14           0.001989949  
    829000   246.52744     -44022.479     -50041.647     -318.2175       0.029755624    4.145          0.0059511247 
    830000   246.16436     -44228.426     -50238.73      -145.83344      0.01103794     4.15           0.0022075879 
    831000   243.66457     -44339.551     -50288.82      -458.56673      0.046336088    4.155          0.0092672176 
    832000   248.41375     -44145.296     -50210.521      37.95513      -0.0034482453   4.16          -0.00068964907
    833000   248.22753     -44116.591     -50177.268     -157.67717      0.013665132    4.165          0.0027330263 
    834000   243.1898      -44220.847     -50158.524      22.092569     -0.0037737305   4.17          -0.0007547461 
    835000   245.83937     -44247.604     -50249.972     -166.95668      0.012734563    4.175          0.0025469125 
    836000   247.14521     -44275.906     -50310.158      55.501777     -0.00285621     4.18          -0.00057124201
    837000   245.23806     -44337.424     -50325.111     -208.1562       0.017355809    4.185          0.0034711619 
    838000   246.44915     -44310.269     -50327.526     -50.890535      0.0041705909   4.19           0.00083411819
    839000   244.31806     -44128.047     -50093.271      0.54773764    -0.0025838457   4.195         -0.00051676914
    840000   247.15556     -44136.208     -50170.713     -204.78705      0.021205744    4.2            0.0042411487 
    841000   244.72647     -44247.92      -50223.117     -223.12837      0.021689894    4.205          0.0043379787 
    842000   245.6325      -44268.273     -50265.591      43.071189     -0.0010413403   4.21          -0.00020826807
    843000   247.25164     -44166.085     -50202.935     -389.33786      0.040441236    4.215          0.0080882471 
    844000   244.45352     -44054.021     -50022.553     -293.67912      0.029685298    4.22           0.0059370596 
    845000   243.62158     -44263.396     -50211.616     -282.17862      0.026527039    4.225          0.0053054079 
    846000   244.56789     -44207.102     -50178.426     -480.66655      0.048032053    4.23           0.0096064106 
    847000   246.21633     -44145.841     -50157.414     -70.510627      0.0048846916   4.235          0.00097693831
    848000   243.13583     -44230.239     -50166.599     -241.834        0.021764518    4.24           0.0043529036 
    849000   247.40297     -44250.166     -50290.711     -304.46624      0.029126963    4.245          0.0058253925 
    850000   243.56794     -44253.367     -50200.277     -194.23776      0.020329882    4.25           0.0040659765 
    851000   246.46143     -44295.706     -50313.263      18.540411     -0.0017300136   4.255         -0.00034600271
    852000   246.0577      -44229.864     -50237.564     -180.10509      0.018799109    4.26           0.0037598218 
    853000   249.30191     -44166.047     -50252.957     -638.63687      0.064501827    4.265          0.012900365  
    854000   245.35368     -44256.866     -50247.376     -144.43152      0.0094554454   4.27           0.0018910891 
    855000   247.29018     -44129.684     -50167.476     -235.47945      0.022155834    4.275          0.0044311668 
    856000   244.13799     -44192.696     -50153.524     -226.35458      0.020254472    4.28           0.0040508944 
    857000   244.90898     -44244.393     -50224.045     -402.71936      0.038055053    4.285          0.0076110107 
    858000   245.15894     -44320.676     -50306.432     -184.84596      0.017963552    4.29           0.0035927104 
    859000   246.53469     -44245.316     -50264.662     -210.84241      0.023209181    4.295          0.0046418363 
    860000   248.55936     -44153.612     -50222.392      19.759986     -0.0060241221   4.3           -0.0012048244 
    861000   245.87097     -44251.853     -50254.994     -41.528728      0.0011605128   4.305          0.00023210255
    862000   247.13677     -44131.474     -50165.519     -345.16513      0.031942593    4.31           0.0063885187 
    863000   245.76151     -44265.165     -50265.632     -144.08601      0.014943526    4.315          0.0029887053 
    864000   245.36417     -44180.171     -50170.937     -509.5137       0.049191371    4.32           0.0098382742 
    865000   246.34774     -44273.289     -50288.07      -323.94068      0.032540973    4.325          0.0065081946 
    866000   245.1443      -44223.358     -50208.756     -548.8548       0.054470048    4.33           0.01089401   
    867000   248.49779     -44223.89      -50291.166     -190.30685      0.020129569    4.335          0.0040259138 
    868000   242.7698      -44343.825     -50271.247     -279.31829      0.026575384    4.34           0.0053150769 
    869000   244.7323      -44253.419     -50228.758     -311.81154      0.029812054    4.345          0.0059624108 
    870000   247.34212     -44136.347     -50175.407     -40.631299      0.0048290266   4.35           0.00096580533
    871000   241.55903     -44563.059     -50460.92      -311.65274      0.029062203    4.355          0.0058124407 
    872000   246.58453     -44265.217     -50285.779     -290.23087      0.024304204    4.36           0.0048608409 
    873000   243.08127     -44376.827     -50311.854     -222.93292      0.020102244    4.365          0.0040204489 
    874000   248.24647     -44249.322     -50310.462     -246.74377      0.023583336    4.37           0.0047166672 
    875000   242.95683     -44403.783     -50335.772     -403.06278      0.041973165    4.375          0.008394633  
    876000   243.63687     -44289.476     -50238.069     -75.28654       0.0090534448   4.38           0.001810689  
    877000   243.02884     -44349.216     -50282.963     -387.16497      0.037116733    4.385          0.0074233466 
    878000   246.04164     -44232.742     -50240.049     -125.85467      0.013585832    4.39           0.0027171663 
    879000   246.17426     -44226.797     -50237.343     -73.022254      0.0083303278   4.395          0.0016660656 
    880000   249.8128      -44243.571     -50342.954     -338.85022      0.032885878    4.4            0.0065771756 
    881000   245.65705     -44332.194     -50330.111     -184.08491      0.021094131    4.405          0.0042188262 
    882000   245.67615     -44171.314     -50169.697     -258.34817      0.026384737    4.41           0.0052769474 
    883000   244.54727     -44369.485     -50340.306     -52.284563      0.0010177542   4.415          0.00020355084
    884000   248.74583     -44230.983     -50304.315     -383.65793      0.03969976     4.42           0.0079399521 
    885000   247.05807     -44156.576     -50188.7       -201.54669      0.017846685    4.425          0.0035693369 
    886000   244.54307     -44261.625     -50232.343     -312.02668      0.030239035    4.43           0.0060478069 
    887000   243.9003      -44305.059     -50260.083      39.467133     -0.0032451569   4.435         -0.00064903138
    888000   245.41638     -44258.134     -50250.175     -157.11907      0.018751048    4.44           0.0037502097 
    889000   246.71005     -44265.633     -50289.26      -307.64723      0.031602905    4.445          0.0063205809 
    890000   245.0199      -44281.041     -50263.401     -35.418001      0.0042790626   4.45           0.00085581252
    891000   237.49192     -44432.964     -50231.522      126.95622     -0.011964193    4.455         -0.0023928386 
    892000   243.99739     -44174.307     -50131.702      315.93501     -0.033613285    4.46          -0.0067226569 
    893000   242.01701     -44157.191     -50066.234     -219.55848      0.021933632    4.465          0.0043867264 
    894000   244.01782     -44192.892     -50150.786     -212.89477      0.021188259    4.47           0.0042376518 
    895000   243.96019     -44208.847     -50165.334     -457.51262      0.044250726    4.475          0.0088501453 
    896000   248.70429     -44224.854     -50297.172     -293.31804      0.026873366    4.48           0.0053746733 
    897000   244.46566     -44337.373     -50306.201     -0.78105281     0.00018217889  4.485          3.6435777e-05
    898000   242.94474     -44325.063     -50256.757     -181.75245      0.016738124    4.49           0.0033476248 
    899000   247.04778     -44246.645     -50278.519     -177.88906      0.016105996    4.495          0.0032211992 
    900000   246.65434     -44233.088     -50255.355     -36.948995      0.0033431553   4.5            0.00066863106
Loop time of 420.856 on 56 procs for 100000 steps with 12288 atoms

Performance: 20.530 ns/day, 1.169 hours/ns, 237.611 timesteps/s, 2.920 Matom-step/s
99.8% CPU use with 56 MPI tasks x no OpenMP threads

MPI task timing breakdown:
Section |  min time  |  avg time  |  max time  |%varavg| %total
---------------------------------------------------------------
Pair    | 185.54     | 194.9      | 204.86     |  33.0 | 46.31
Bond    | 0.012355   | 0.024043   | 0.037193   |   3.4 |  0.01
Kspace  | 107.79     | 118.57     | 128.75     |  41.8 | 28.17
Neigh   | 22.432     | 22.44      | 22.451     |   0.1 |  5.33
Comm    | 14.746     | 15.831     | 17.314     |  15.4 |  3.76
Output  | 0.22386    | 0.40174    | 0.57237    |  16.3 |  0.10
Modify  | 51.296     | 56.094     | 65.788     |  45.6 | 13.33
Other   |            | 12.59      |            |       |  2.99

Nlocal:        219.429 ave         236 max         196 min
Histogram: 1 1 2 7 6 8 8 17 3 3
Nghost:        7281.96 ave        7355 max        7212 min
Histogram: 3 4 6 5 10 11 8 3 5 1
Neighs:        96056.6 ave      104375 max       84062 min
Histogram: 1 0 4 7 5 7 14 11 3 4

Total # of neighbors = 5379167
Ave neighs/atom = 437.75773
Ave special neighs/atom = 2
Neighbor list builds = 1922
Dangerous builds = 0
kspace_style pppm/tip4p 1.0e-5
next nloop
jump SELF loop_start
run 100000 # 100ps
PPPM initialization ...
  extracting TIP4P info from pair style
  using 12-bit tables for long-range coulomb
  G vector (1/distance) = 0.32815664
  grid = 50 75 50
  stencil order = 5
  estimated absolute RMS force accuracy = 0.0035802102
  estimated relative force accuracy = 1.0781697e-05
  using double precision KISS FFT
  3d grid and FFT values/proc = 15776 4000
Generated 0 of 1 mixed pair_coeff terms from geometric mixing rule
Per MPI rank memory allocation (min/avg/max) = 11.21 | 11.34 | 11.45 Mbytes
   Step          Temp          TotEng         PotEng          Pxy           v_sxy         v_strain     v_viscosity  
    900000   246.65933     -44232.997     -50255.385     -28.458326      0.0024729964   4.5            0.00049459928
    901000   241.62906     -44429.533     -50329.103     -303.82388      0.030692316    4.505          0.0061384632 
    902000   248.08377     -44293.075     -50350.242     -255.22881      0.025265113    4.51           0.0050530227 
    903000   242.48609     -44406.479     -50326.974     -202.92969      0.01829839     4.515          0.003659678  
    904000   248.73428     -44167.448     -50240.498     -398.39638      0.042623291    4.52           0.0085246582 
    905000   245.26379     -44363.979     -50352.295     -108.73332      0.0081000045   4.525          0.0016200009 
    906000   245.95857     -44310.188     -50315.467     -421.10324      0.037756236    4.53           0.0075512472 
    907000   247.75515     -44261.092     -50310.236     -444.57297      0.04471266     4.535          0.0089425319 
    908000   244.93434     -44330.896     -50311.168     -192.91154      0.021402797    4.54           0.0042805593 
    909000   246.58354     -44211.349     -50231.887     -362.82723      0.037494681    4.545          0.0074989362 
    910000   245.16637     -44402.511     -50388.447     -168.58179      0.016211598    4.55           0.0032423196 
    911000   246.96331     -44280.777     -50310.587     -73.688897      0.005799887    4.555          0.0011599774 
    912000   245.71046     -44235.249     -50234.471      87.292989     -0.010466343    4.56          -0.0020932685 
    913000   243.92638     -44206.997     -50162.659     -481.6957       0.042054212    4.565          0.0084108423 
    914000   246.3859      -44316.926     -50332.639     -417.86835      0.042376642    4.57           0.0084753284 
    915000   250.93099     -44187.592     -50314.276     -324.13755      0.033860842    4.575          0.0067721684 
    916000   247.84728     -44235.922     -50287.315     -352.12124      0.031386478    4.58           0.0062772956 
    917000   242.61685     -44424.291     -50347.98      -312.449        0.027037876    4.585          0.0054075753 
    918000   247.2509      -44343.238     -50380.07      -222.67702      0.022482056    4.59           0.0044964112 
    919000   247.8845      -44312.378     -50364.68      -262.7662       0.027100164    4.595          0.0054200327 
    920000   243.13518     -44446.142     -50382.486     -511.00076      0.05192613     4.6            0.010385226  
    921000   249.35714     -44317.42      -50405.678     -333.99951      0.034605597    4.605          0.0069211195 
    922000   245.42096     -44353.702     -50345.855     -169.17499      0.011549976    4.61           0.0023099952 
    923000   241.8005      -44421.422     -50325.178     -12.034869     -0.0010799121   4.615         -0.00021598241
    924000   242.98799     -44274.181     -50206.931     -163.18081      0.015169889    4.62           0.0030339778 
    925000   243.91653     -44337.963     -50293.384     -295.64803      0.029614617    4.625          0.0059229235 
    926000   245.60496     -44148.591     -50145.236     -309.65977      0.030172072    4.63           0.0060344144 
    927000   243.58034     -44273.455     -50220.668     -386.82551      0.038171047    4.635          0.0076342094 
    928000   247.34407     -44277.014     -50316.122     -214.84071      0.019303743    4.64           0.0038607486 
    929000   246.38152     -44178.774     -50194.38      -277.73142      0.024700446    4.645          0.0049400891 
    930000   247.38629     -44274.166     -50314.304     -197.83209      0.01943184     4.65           0.0038863681 
    931000   247.17717     -44230.514     -50265.546     -412.70191      0.041319487    4.655          0.0082638975 
    932000   247.72483     -44217.733     -50266.137      151.83479     -0.015297198    4.66          -0.0030594396 
    933000   244.7161      -44314.048     -50288.992     -257.6649       0.025102071    4.665          0.0050204143 
    934000   242.66636     -44269.396     -50194.293     -136.36095      0.010973916    4.67           0.0021947831 
    935000   248.69618     -44115.538     -50187.658     -199.64496      0.01823208     4.675          0.0036464159 
    936000   245.89064     -44286.777     -50290.397     -59.680002      0.0039190888   4.68           0.00078381775
    937000   248.67533     -44000.193     -50071.804     -141.40439      0.014954014    4.685          0.0029908029 
    938000   244.46576     -44288.585     -50257.416     -288.18392      0.022928157    4.69           0.0045856315 
    939000   244.92874     -44173.547     -50153.681     -361.07658      0.033109369    4.695          0.0066218738 
    940000   246.97336     -44304.144     -50334.2       -73.999112      0.0053369457   4.7            0.0010673891 
    941000   249.08098     -44057.739     -50139.254     -462.2782       0.046578311    4.705          0.0093156622 
    942000   244.24665     -44232.631     -50196.112      67.450872     -0.0072443772   4.71          -0.0014488754 
    943000   249.02717     -44091.077     -50171.278     -430.65719      0.045113336    4.715          0.0090226671 
    944000   239.3711      -44257.34      -50101.781     -175.11348      0.016356014    4.72           0.0032712028 
    945000   246.48705     -44098.282     -50116.464     -519.08229      0.051542008    4.725          0.010308402  
    946000   245.27149     -44223.55      -50212.054     -20.74139      -0.00037341475  4.73          -7.468295e-05 
    947000   244.27308     -44006.93      -49971.056     -186.84887      0.015872051    4.735          0.0031744102 
    948000   249.63375     -44115.024     -50210.035     -369.86694      0.040690994    4.74           0.0081381988 
    949000   248.34806     -44143.043     -50206.663     -148.1398       0.012429546    4.745          0.0024859091 
    950000   245.88451     -44186.494     -50189.965     -244.46585      0.024842026    4.75           0.0049684052 
    951000   242.19154     -44208.182     -50121.486     -259.7324       0.028558969    4.755          0.0057117937 
    952000   248.05784     -44219.02      -50275.554     -190.37268      0.019326857    4.76           0.0038653714 
    953000   246.15417     -44095.416     -50105.471     -214.60095      0.024223944    4.765          0.0048447887 
    954000   244.87914     -44269.645     -50248.569     -267.87312      0.02712679     4.77           0.0054253579 
    955000   244.62391     -44194.005     -50166.697     -52.391746      0.007658482    4.775          0.0015316964 
    956000   243.00233     -44416.521     -50349.621     -267.3877       0.024502415    4.78           0.0049004831 
    957000   244.8499      -44238.268     -50216.478     -227.10776      0.024688044    4.785          0.0049376088 
    958000   246.87874     -44265.116     -50292.862     -234.41589      0.020873159    4.79           0.0041746318 
    959000   243.7501      -44355.548     -50306.906     -396.25697      0.04017647     4.795          0.008035294  
    960000   246.13744     -44197.885     -50207.531     -191.28816      0.017104231    4.8            0.0034208463 
    961000   246.24111     -44058.946     -50071.124      125.40381     -0.0090669265   4.805         -0.0018133853 
    962000   245.06204     -44345.569     -50328.958     -193.68955      0.01830796     4.81           0.003661592  
    963000   247.67171     -44192.477     -50239.584      39.161917     -0.0044762581   4.815         -0.00089525162
    964000   248.00528     -44194.678     -50249.929     -181.26966      0.019367275    4.82           0.003873455  
    965000   246.95955     -44238.43      -50268.149     -86.874021      0.0049405801   4.825          0.00098811601
    966000   240.10487     -44471.548     -50333.904     -657.38311      0.066792982    4.83           0.013358596  
    967000   245.82206     -44199.347     -50201.293     -628.31873      0.060298451    4.835          0.01205969   
    968000   247.49968     -44273.594     -50316.501     -311.2465       0.03039864     4.84           0.006079728  
    969000   243.45395     -44311.616     -50255.743     -137.15665      0.01208036     4.845          0.0024160721 
    970000   244.35836     -44323.104     -50289.313      1.6203197      0.0013578887   4.85           0.00027157775
    971000   245.40262     -44290.536     -50282.241      4.1539654     -0.0021793561   4.855         -0.00043587122
    972000   245.78131     -44304.892     -50305.843     -456.72044      0.044999531    4.86           0.0089999063 
    973000   247.09272     -44220.598     -50253.569     -137.45663      0.008899039    4.865          0.0017798078 
    974000   239.76013     -44553.247     -50407.186     -459.3629       0.044530116    4.87           0.0089060232 
    975000   247.5987      -44153.491     -50198.815     -310.62586      0.031397319    4.875          0.0062794637 
    976000   247.16112     -44263.865     -50298.506     -381.73412      0.042954289    4.88           0.0085908578 
    977000   245.88254     -44285.92      -50289.342     -372.21174      0.037590694    4.885          0.0075181388 
    978000   244.12827     -44332.893     -50293.484     -36.643266      0.0030370746   4.89           0.00060741492
    979000   248.59616     -44325.923     -50395.601     -308.00705      0.029970835    4.895          0.0059941671 
    980000   247.66767     -44298.5       -50345.508     -241.50243      0.023594116    4.9            0.0047188232 
    981000   245.99845     -44332.8       -50339.052     -101.4721       0.0086071414   4.905          0.0017214283 
    982000   241.50717     -44405.11      -50301.704     -227.25711      0.019969183    4.91           0.0039938367 
    983000   247.71898     -44358.673     -50406.934     -536.88037      0.056731493    4.915          0.011346299  
    984000   245.14937     -44339.837     -50325.359     -308.97941      0.02789266     4.92           0.005578532  
    985000   244.08247     -44325.184     -50284.657     -238.50886      0.025513041    4.925          0.0051026082 
    986000   246.13834     -44220.54      -50230.208     -355.15502      0.039005983    4.93           0.0078011966 
    987000   243.54296     -44217.015     -50163.315     -451.87592      0.04613678     4.935          0.0092273561 
    988000   244.295       -44363.971     -50328.633     -352.98575      0.033260056    4.94           0.0066520113 
    989000   246.68244     -44344.224     -50367.177     -188.04307      0.019580468    4.945          0.0039160937 
    990000   244.12085     -44395.49      -50355.9       -91.436241      0.01091215     4.95           0.00218243   
    991000   247.10991     -44291.183     -50324.573     -344.71686      0.036399392    4.955          0.0072798783 
    992000   248.22523     -44295.712     -50356.334     -66.004423      0.0057108415   4.96           0.0011421683 
    993000   242.61492     -44533.797     -50457.438     -270.75555      0.026331017    4.965          0.0052662033 
    994000   244.19718     -44392.8       -50355.074     -349.50899      0.033795915    4.97           0.0067591831 
    995000   246.46285     -44328.689     -50346.28      -297.7055       0.029506329    4.975          0.0059012657 
    996000   245.82768     -44387.319     -50389.403     -708.92302      0.070876832    4.98           0.014175366  
    997000   247.95142     -44357.556     -50411.492     -440.51058      0.043128453    4.985          0.0086256906 
    998000   242.28472     -44273.744     -50189.323     -162.6741       0.01338761     4.99           0.002677522  
    999000   247.6747      -44318.062     -50365.242     -105.34007      0.014321039    4.995          0.0028642077 
   1000000   241.19297     -44578.457     -50467.38      -165.11457      0.015806967    5              0.0031613935 
Loop time of 492.402 on 56 procs for 100000 steps with 12288 atoms

Performance: 17.547 ns/day, 1.368 hours/ns, 203.086 timesteps/s, 2.496 Matom-step/s
99.8% CPU use with 56 MPI tasks x no OpenMP threads

MPI task timing breakdown:
Section |  min time  |  avg time  |  max time  |%varavg| %total
---------------------------------------------------------------
Pair    | 182.97     | 196.73     | 207.86     |  34.6 | 39.95
Bond    | 0.012769   | 0.027302   | 0.042418   |   3.7 |  0.01
Kspace  | 149.09     | 160.18     | 173.82     |  36.9 | 32.53
Neigh   | 22.422     | 22.431     | 22.443     |   0.1 |  4.56
Comm    | 15.989     | 17.589     | 19.166     |  19.1 |  3.57
Output  | 0.23958    | 0.41665    | 0.58722    |  15.9 |  0.08
Modify  | 73.137     | 79.722     | 92.452     |  52.4 | 16.19
Other   |            | 15.3       |            |       |  3.11

Nlocal:        219.429 ave         235 max         201 min
Histogram: 1 2 6 6 8 12 6 4 9 2
Nghost:        6845.05 ave        6894 max        6792 min
Histogram: 4 5 4 6 3 11 6 10 4 3
Neighs:        96063.7 ave      102741 max       86726 min
Histogram: 1 3 1 7 7 14 5 4 8 6

Total # of neighbors = 5379567
Ave neighs/atom = 437.79028
Ave special neighs/atom = 2
Neighbor list builds = 1922
Dangerous builds = 0
kspace_style pppm/tip4p 1.0e-5
next nloop
jump SELF loop_start
run 100000 # 100ps
PPPM initialization ...
  extracting TIP4P info from pair style
  using 12-bit tables for long-range coulomb
  G vector (1/distance) = 0.32815664
  grid = 50 50 50
  stencil order = 5
  estimated absolute RMS force accuracy = 0.0035802102
  estimated relative force accuracy = 1.0781697e-05
  using double precision KISS FFT
  3d grid and FFT values/proc = 11424 2800
Generated 0 of 1 mixed pair_coeff terms from geometric mixing rule
Per MPI rank memory allocation (min/avg/max) = 10.91 | 11.03 | 11.12 Mbytes
   Step          Temp          TotEng         PotEng          Pxy           v_sxy         v_strain     v_viscosity  
   1000000   241.19385     -44578.412     -50467.356     -152.85459      0.014546799    5              0.0029093598 
   1001000   245.719       -44170.346     -50169.775     -386.37079      0.036055042    5.005          0.0072110083 
   1002000   245.12258     -44387.815     -50372.683     -92.899896      0.0095712101   5.01           0.001914242  
   1003000   249.43585     -44129.318     -50219.498     -563.75944      0.05751801     5.015          0.011503602  
   1004000   243.09944     -44327.923     -50263.394     -469.40556      0.045772656    5.02           0.0091545312 
   1005000   251.29701     -44055.798     -50191.419     -198.54524      0.020596459    5.025          0.0041192917 
   1006000   244.67276     -44230.767     -50204.652     -133.96884      0.011566812    5.03           0.0023133624 
   1007000   249.60535     -44137.279     -50231.597     -375.80538      0.034980798    5.035          0.0069961596 
   1008000   245.54733     -44310.092     -50305.33      -259.12688      0.025774609    5.04           0.0051549219 
   1009000   245.70548     -44359.002     -50358.102     -171.6413       0.018066399    5.045          0.0036132797 
   1010000   245.42177     -44307.9       -50300.073     -44.445099      0.0050188093   5.05           0.0010037619 
   1011000   246.7223      -44243.491     -50267.417     -353.81564      0.034108785    5.055          0.0068217569 
   1012000   249.06446     -44126.937     -50208.049     -402.12182      0.04108224     5.06           0.0082164479 
   1013000   245.22254     -44270.846     -50258.154     -545.63393      0.051092141    5.065          0.010218428  
   1014000   245.02305     -44309.981     -50292.418     -112.37245      0.01127865     5.07           0.00225573   
   1015000   245.55026     -44237.51      -50232.82      -264.91916      0.027240065    5.075          0.0054480131 
   1016000   246.35398     -44360.13      -50375.064     -282.11832      0.025481013    5.08           0.0050962026 
   1017000   244.6004      -44336.845     -50308.963     -163.66665      0.019336057    5.085          0.0038672115 
   1018000   247.93577     -44239.686     -50293.24      -273.21135      0.030210999    5.09           0.0060421997 
   1019000   243.59555     -44352.099     -50299.683     -30.295978      0.0050930227   5.095          0.0010186045 
   1020000   246.58021     -44260.026     -50280.483     -142.78213      0.012414553    5.1            0.0024829107 
   1021000   248.31476     -44461.288     -50524.095     -289.9765       0.026477166    5.105          0.0052954332 
   1022000   248.10689     -44406.673     -50464.405     -220.85715      0.020459178    5.11           0.0040918355 
   1023000   243.51915     -44316.229     -50261.947     -306.16917      0.026772198    5.115          0.0053544397 
   1024000   244.7543      -44249.199     -50225.075     -82.229015      0.0084803833   5.12           0.0016960767 
   1025000   243.26945     -44323.374     -50262.996     -265.70345      0.030822202    5.125          0.0061644404 
   1026000   244.22918     -44284.351     -50247.405     -327.31105      0.033523262    5.13           0.0067046525 
   1027000   243.26628     -44431.376     -50370.921     -179.06619      0.02140878     5.135          0.0042817559 
   1028000   245.73607     -44128.156     -50128.002     -310.36084      0.027973129    5.14           0.0055946258 
   1029000   246.57609     -44404.038     -50424.394     -248.21412      0.027704754    5.145          0.0055409507 
   1030000   245.94121     -44307.666     -50312.521     -411.80482      0.040085092    5.15           0.0080170184 
   1031000   244.50578     -44412.473     -50382.281     -360.22924      0.038687377    5.155          0.0077374755 
   1032000   243.36292     -44277.486     -50219.39      -217.78219      0.022334643    5.16           0.0044669286 
   1033000   246.51888     -44317.36      -50336.319     -666.84486      0.065095762    5.165          0.013019152  
   1034000   246.66087     -44251.155     -50273.582      67.555005     -0.011912558    5.17          -0.0023825116 
   1035000   247.99476     -44290.017     -50345.012     -446.01237      0.040805209    5.175          0.0081610418 
   1036000   245.12973     -44339.24      -50324.282     -248.93318      0.020314441    5.18           0.0040628881 
   1037000   244.87927     -44288.457     -50267.384     -459.07363      0.045487054    5.185          0.0090974109 
   1038000   244.4405      -44264.103     -50232.317     -173.06208      0.021233244    5.19           0.0042466488 
   1039000   245.23443     -44233.359     -50220.957     -206.8042       0.023827246    5.195          0.0047654493 
   1040000   240.02161     -44433.59      -50293.914     -510.66109      0.052450752    5.2            0.01049015   
   1041000   245.46824     -44138.588     -50131.895     -247.33802      0.025888918    5.205          0.0051777836 
   1042000   243.92906     -44270.584     -50226.311     -421.56054      0.040980957    5.21           0.0081961915 
   1043000   245.52152     -44183.909     -50178.517     -78.233888      0.0093669759   5.215          0.0018733952 
   1044000   245.27336     -44226.253     -50214.802     -495.46135      0.048592895    5.22           0.0097185791 
   1045000   244.62362     -44223.938     -50196.623     -369.82602      0.036152885    5.225          0.0072305771 
   1046000   252.0567      -44016.292     -50170.462     -227.97318      0.022064852    5.23           0.0044129705 
   1047000   244.21616     -44095.152     -50057.888     -356.14062      0.033094559    5.235          0.0066189119 
   1048000   247.97972     -44084.258     -50138.885     -332.99662      0.030153344    5.24           0.0060306687 
   1049000   244.46836     -44284.645     -50253.54       65.514432     -0.0066989805   5.245         -0.0013397961 
   1050000   241.51008     -44352.651     -50249.316     -248.40017      0.027671524    5.25           0.0055343049 
   1051000   245.55074     -44251.3       -50246.621     -260.63543      0.02514072     5.255          0.005028144  
   1052000   247.14436     -44192.153     -50226.383     -115.09484      0.008080057    5.26           0.0016160114 
   1053000   244.79182     -44215.169     -50191.96      -68.314545      0.004759717    5.265          0.00095194341
   1054000   243.77768     -44321.5       -50273.531     -271.40795      0.029540724    5.27           0.0059081449 
   1055000   249.42151     -44146.899     -50236.728     -357.86655      0.036276133    5.275          0.0072552267 
   1056000   244.38354     -44200.679     -50167.503     -250.26884      0.026012471    5.28           0.0052024942 
   1057000   248.20087     -44181.918     -50241.944     -238.82833      0.024837735    5.285          0.004967547  
   1058000   247.24195     -44309.745     -50346.359     -376.00258      0.038871313    5.29           0.0077742627 
   1059000   244.36287     -44327.509     -50293.828     -273.00298      0.027684526    5.295          0.0055369052 
   1060000   247.92445     -44093.189     -50146.466     -77.448163      0.0060533209   5.3            0.0012106642 
   1061000   245.20668     -44329.598     -50316.519     -251.09942      0.023411137    5.305          0.0046822274 
   1062000   247.28055     -44234.479     -50272.035     -68.990161      0.0064735976   5.31           0.0012947195 
   1063000   242.14642     -44432.811     -50345.013      4.0358476      0.00011591943  5.315          2.3183886e-05
   1064000   248.60293     -44070.51      -50140.353      110.57565     -0.015226607    5.32          -0.0030453214 
   1065000   245.41169     -44142.301     -50134.227     -494.41399      0.049841094    5.325          0.0099682187 
   1066000   246.19061     -44211.024     -50221.968     -244.38128      0.02426528     5.33           0.0048530561 
   1067000   245.25827     -44248.778     -50236.958     -387.34544      0.038862942    5.335          0.0077725885 
   1068000   245.19249     -44220.083     -50206.657     -336.89597      0.033504896    5.34           0.0067009791 
   1069000   245.27951     -44183.132     -50171.831     -429.79444      0.044028849    5.345          0.0088057699 
   1070000   250.26331     -44198.693     -50309.076     -375.94038      0.035232141    5.35           0.0070464281 
   1071000   244.72785     -44316.189     -50291.419     -382.38981      0.037761       5.355          0.0075522001 
   1072000   246.3947      -44266.398     -50282.326     -184.08577      0.0169971      5.36           0.00339942   
   1073000   244.56556     -44304.329     -50275.596     -291.1687       0.028594714    5.365          0.0057189427 
   1074000   246.80187     -44231.307     -50257.176     -294.49305      0.029235543    5.37           0.0058471085 
   1075000   245.91994     -44211.694     -50216.03      -8.7610074     -0.0010462392   5.375         -0.00020924784
   1076000   245.06269     -44343.215     -50326.62      -94.017415      0.0071051493   5.38           0.0014210299 
   1077000   245.42433     -44240.172     -50232.407     -15.86046       0.00066691721  5.385          0.00013338344
   1078000   244.23559     -44279.747     -50242.958     -421.01125      0.041636022    5.39           0.0083272044 
   1079000   245.64928     -44188.726     -50186.453      118.3366      -0.013350165    5.395         -0.0026700331 
   1080000   247.86051     -44297.176     -50348.892     -327.67743      0.033285531    5.4            0.0066571063 
   1081000   250.10736     -44316.89      -50423.465     -323.0329       0.031246959    5.405          0.0062493919 
   1082000   245.99209     -44325.419     -50331.517     -300.60331      0.022669417    5.41           0.0045338835 
   1083000   250.00625     -44307.726     -50411.832     -428.40285      0.044890845    5.415          0.0089781689 
   1084000   244.37716     -44321.827     -50288.495     -539.24666      0.052553402    5.42           0.01051068   
   1085000   244.24814     -44402.005     -50365.522     -752.80357      0.073541775    5.425          0.014708355  
   1086000   245.26824     -44280.193     -50268.617     -280.58572      0.026388398    5.43           0.0052776795 
   1087000   248.30507     -44346.432     -50409.002     -250.29306      0.025838741    5.435          0.0051677481 
   1088000   244.33959     -44480.933     -50446.683     -382.93589      0.040437412    5.44           0.0080874823 
   1089000   249.45033     -44272.284     -50362.817     -384.71816      0.039653753    5.445          0.0079307506 
   1090000   246.3688      -44418.068     -50433.364     -53.775999      0.0054804879   5.45           0.0010960976 
   1091000   241.40256     -44460.925     -50354.965     -558.83412      0.052962606    5.455          0.010592521  
   1092000   244.98162     -44378.91      -50360.336     -272.60713      0.029613764    5.46           0.0059227528 
   1093000   246.2362      -44360.885     -50372.943     -612.01318      0.062725404    5.465          0.012545081  
   1094000   244.82491     -44354.664     -50332.264     -326.07285      0.035066433    5.47           0.0070132866 
   1095000   243.61776     -44244.503     -50192.629     -609.90683      0.065879824    5.475          0.013175965  
   1096000   242.04561     -44210.449     -50120.19      -539.59298      0.052914272    5.48           0.010582854  
   1097000   246.89279     -44367.586     -50395.674     -340.11074      0.032590917    5.485          0.0065181834 
   1098000   246.94517     -44221.298     -50250.666     -187.02398      0.0161476      5.49           0.00322952   
   1099000   246.98748     -44209.791     -50240.192     -291.55419      0.028360574    5.495          0.0056721149 
   1100000   243.22908     -44303.435     -50242.072     -226.82108      0.027759563    5.5            0.0055519125 
Loop time of 419.669 on 56 procs for 100000 steps with 12288 atoms

Performance: 20.588 ns/day, 1.166 hours/ns, 238.283 timesteps/s, 2.928 Matom-step/s
99.8% CPU use with 56 MPI tasks x no OpenMP threads

MPI task timing breakdown:
Section |  min time  |  avg time  |  max time  |%varavg| %total
---------------------------------------------------------------
Pair    | 185.77     | 194.25     | 204.99     |  33.2 | 46.29
Bond    | 0.01209    | 0.0232     | 0.036151   |   3.3 |  0.01
Kspace  | 107.43     | 118.47     | 126.48     |  41.5 | 28.23
Neigh   | 22.266     | 22.275     | 22.286     |   0.1 |  5.31
Comm    | 14.741     | 15.898     | 17.493     |  16.2 |  3.79
Output  | 0.22308    | 0.39888    | 0.56767    |  16.2 |  0.10
Modify  | 51.025     | 56.009     | 65.462     |  45.2 | 13.35
Other   |            | 12.34      |            |       |  2.94

Nlocal:        219.429 ave         238 max         203 min
Histogram: 4 2 5 8 11 10 8 6 0 2
Nghost:        7298.45 ave        7343 max        7252 min
Histogram: 3 5 2 8 6 12 7 5 4 4
Neighs:        96037.7 ave      104540 max       87548 min
Histogram: 3 3 3 10 8 12 7 7 1 2

Total # of neighbors = 5378110
Ave neighs/atom = 437.67171
Ave special neighs/atom = 2
Neighbor list builds = 1914
Dangerous builds = 0
kspace_style pppm/tip4p 1.0e-5
next nloop
jump SELF loop_start
run 100000 # 100ps
PPPM initialization ...
  extracting TIP4P info from pair style
  using 12-bit tables for long-range coulomb
  G vector (1/distance) = 0.32815664
  grid = 50 75 50
  stencil order = 5
  estimated absolute RMS force accuracy = 0.0035802102
  estimated relative force accuracy = 1.0781697e-05
  using double precision KISS FFT
  3d grid and FFT values/proc = 15776 4000
Generated 0 of 1 mixed pair_coeff terms from geometric mixing rule
Per MPI rank memory allocation (min/avg/max) = 11.21 | 11.34 | 11.45 Mbytes
   Step          Temp          TotEng         PotEng          Pxy           v_sxy         v_strain     v_viscosity  
   1100000   243.22855     -44303.478     -50242.101     -217.42561      0.026795641    5.5            0.0053591281 
   1101000   246.8831      -44275.286     -50303.138     -282.60545      0.025341152    5.505          0.0050682305 
   1102000   247.67734     -44232.272     -50279.516     -358.43145      0.033728427    5.51           0.0067456855 
   1103000   242.69481     -44535.374     -50460.966     -709.29775      0.070493932    5.515          0.014098786  
   1104000   249.28875     -44277.432     -50364.02      -320.02689      0.031590336    5.52           0.0063180672 
   1105000   246.00119     -44251.086     -50257.406     -323.16953      0.037412674    5.525          0.0074825348 
   1106000   245.67511     -44452.625     -50450.983     -87.343531      0.0072722442   5.53           0.0014544488 
   1107000   249.76941     -44187.654     -50285.978     -70.18816       0.0052137845   5.535          0.0010427569 
   1108000   244.80909     -44312.392     -50289.606     -135.56875      0.013273251    5.54           0.0026546501 
   1109000   246.92535     -44363.102     -50391.986     -217.75642      0.020328161    5.545          0.0040656323 
   1110000   243.4293      -44349.306     -50292.831     -242.54326      0.022977262    5.55           0.0045954524 
   1111000   242.10608     -44416.914     -50328.131      45.365413     -0.001938293    5.555         -0.00038765861
   1112000   249.27327     -44095.779     -50181.989     -314.26515      0.033255605    5.56           0.0066511209 
   1113000   243.34308     -44312.093     -50253.513     -107.65533      0.0082500581   5.565          0.0016500116 
   1114000   243.5276      -44356.734     -50302.659     -263.10016      0.027379734    5.57           0.0054759467 
   1115000   243.38608     -44276.889     -50219.359     -534.25413      0.050107744    5.575          0.010021549  
   1116000   243.97678     -44319.234     -50276.126     -338.30505      0.033125029    5.58           0.0066250058 
   1117000   245.51974     -44381.735     -50376.3       -10.194527     -0.0027198183   5.585         -0.00054396366
   1118000   247.31179     -44332.773     -50371.092     -31.514766      0.0014412264   5.59           0.00028824528
   1119000   246.97068     -44392.373     -50422.363     -665.6982       0.068415418    5.595          0.013683084  
   1120000   246.47452     -44314.702     -50332.578     -436.12834      0.042026033    5.6            0.0084052066 
   1121000   246.59644     -44268.856     -50289.709     -463.79445      0.043007065    5.605          0.008601413  
   1122000   248.0497      -44164.525     -50220.86      -704.64418      0.069629727    5.61           0.013925945  
   1123000   246.46512     -44402.417     -50420.064     -395.5417       0.039550998    5.615          0.0079101997 
   1124000   245.14044     -44501.133     -50486.437     -374.33417      0.036427775    5.62           0.0072855551 
   1125000   246.33239     -44291.757     -50306.163     -463.94182      0.04562923     5.625          0.009125846  
   1126000   246.76876     -44289.885     -50314.945     -666.40384      0.067391059    5.63           0.013478212  
   1127000   246.12296     -44238.764     -50248.057     -485.34713      0.046776898    5.635          0.0093553797 
   1128000   244.92828     -44344.101     -50324.225     -236.28741      0.020052272    5.64           0.0040104543 
   1129000   248.50799     -44284.033     -50351.559     -51.28164       0.0019949709   5.645          0.00039899418
   1130000   241.90457     -44354.869     -50261.167     -570.42822      0.05622566     5.65           0.011245132  
   1131000   248.29722     -44084.605     -50146.984     -462.35072      0.048109843    5.655          0.0096219686 
   1132000   246.91803     -44258.947     -50287.652     -364.7563       0.039016204    5.66           0.0078032408 
   1133000   249.84202     -44271.462     -50371.559     -361.55343      0.035620566    5.665          0.0071241133 
   1134000   246.57853     -44244.573     -50264.989     -366.81974      0.039563149    5.67           0.0079126299 
   1135000   246.79213     -44277.858     -50303.489     -551.45664      0.056188621    5.675          0.011237724  
   1136000   248.9414      -44165.846     -50243.953     -460.94004      0.04523558     5.68           0.009047116  
   1137000   247.12361     -44201.664     -50235.389     -399.51237      0.038149205    5.685          0.007629841  
   1138000   244.84556     -44177.903     -50156.007     -231.28688      0.023848638    5.69           0.0047697277 
   1139000   247.48783     -44195.227     -50237.844     -291.23989      0.026697912    5.695          0.0053395823 
   1140000   244.64979     -44375.056     -50348.38      -205.75815      0.015254705    5.7            0.003050941  
   1141000   245.12515     -44181.872     -50166.802     -223.31727      0.021497131    5.705          0.0042994262 
   1142000   244.2121      -44315.938     -50278.575      92.430102     -0.014074276    5.71          -0.0028148551 
   1143000   246.21971     -44210.788     -50222.443     -245.16664      0.021905331    5.715          0.0043810662 
   1144000   246.02799     -44318.814     -50325.788     -226.54069      0.020248205    5.72           0.004049641  
   1145000   247.34126     -44149.672     -50188.71      -124.08468      0.011546545    5.725          0.002309309  
   1146000   246.65504     -44176.449     -50198.733      124.09997     -0.0083696481   5.73          -0.0016739296 
   1147000   245.72039     -44172.729     -50172.192     -4.1008916     -0.00093835501  5.735         -0.000187671  
   1148000   243.72928     -44391.603     -50342.452     -203.13196      0.018224183    5.74           0.0036448366 
   1149000   243.74183     -44277.974     -50229.13      -467.69507      0.047509971    5.745          0.0095019942 
   1150000   244.47721     -44368.449     -50337.559     -347.20718      0.036128588    5.75           0.0072257176 
   1151000   247.2372      -44253.176     -50289.674     -423.59966      0.044071729    5.755          0.0088143458 
   1152000   245.63891     -44291.296     -50288.77      -360.89444      0.033150971    5.76           0.0066301943 
   1153000   251.59117     -43990.067     -50132.87      -440.02432      0.045039745    5.765          0.009007949  
   1154000   243.37801     -44386.703     -50328.976     -75.826437      0.0059779086   5.77           0.0011955817 
   1155000   246.00395     -44295.763     -50302.15      -286.27366      0.026573635    5.775          0.0053147271 
   1156000   248.8488      -44253.695     -50329.542     -312.89004      0.026602871    5.78           0.0053205742 
   1157000   246.52355     -44258.23      -50277.304     -291.77055      0.027281706    5.785          0.0054563413 
   1158000   245.22041     -44208.701     -50195.957     -292.31202      0.026072207    5.79           0.0052144413 
   1159000   245.06998     -44301.031     -50284.614     -282.19196      0.02548224     5.795          0.005096448  
   1160000   246.64535     -44189.879     -50211.926     -488.35098      0.048117652    5.8            0.0096235304 
   1161000   244.69604     -44270.852     -50245.305     -177.19727      0.014857256    5.805          0.0029714512 
   1162000   249.62549     -43984.322     -50079.132     -359.20179      0.036583979    5.81           0.0073167957 
   1163000   243.75051     -44182.15      -50133.517     -199.52924      0.016276729    5.815          0.0032553457 
   1164000   245.44364     -44121.883     -50114.589     -563.45832      0.054897613    5.82           0.010979523  
   1165000   245.79843     -44218.046     -50219.415     -62.680049      0.0085258157   5.825          0.0017051631 
   1166000   244.24342     -44247.789     -50211.191     -452.57134      0.042048804    5.83           0.0084097608 
   1167000   248.70482     -44221.862     -50294.192     -410.66353      0.040138929    5.835          0.0080277858 
   1168000   247.53464     -44088.955     -50132.715     -114.58695      0.012465595    5.84           0.002493119  
   1169000   242.83554     -44272.093     -50201.121     -317.88733      0.030761955    5.845          0.006152391  
   1170000   244.1401      -44236.251     -50197.13      -346.16118      0.032974807    5.85           0.0065949615 
   1171000   244.1784      -44228.859     -50190.673     -529.15435      0.051796749    5.855          0.01035935   
   1172000   248.8596      -43975.365     -50051.475     -196.09722      0.018611773    5.86           0.0037223546 
   1173000   245.07891     -44288.66      -50272.462     -278.07182      0.028982818    5.865          0.0057965636 
   1174000   246.04663     -44177.813     -50185.242     -195.96666      0.018659607    5.87           0.0037319215 
   1175000   244.30239     -44400.297     -50365.139     -409.89345      0.037518857    5.875          0.0075037714 
   1176000   244.46494     -44107.516     -50076.327     -455.60577      0.046634297    5.88           0.0093268593 
   1177000   242.28652     -44256.459     -50172.082     -175.69928      0.018450012    5.885          0.0036900025 
   1178000   244.36784     -44356.303     -50322.743     -74.642874      0.0071384166   5.89           0.0014276833 
   1179000   246.61862     -44183.019     -50204.413     -140.18577      0.012803732    5.895          0.0025607463 
   1180000   246.29724     -44176.333     -50189.881     -400.71605      0.037610415    5.9            0.0075220829 
   1181000   245.14858     -44303.608     -50289.111     -304.24998      0.030022085    5.905          0.006004417  
   1182000   246.43013     -44365.775     -50382.568      40.74816      -0.0066588432   5.91          -0.0013317686 
   1183000   247.87787     -44254.928     -50307.068     -400.44089      0.034664495    5.915          0.006932899  
   1184000   246.98454     -44329.38      -50359.709     -372.14572      0.036041669    5.92           0.0072083338 
   1185000   244.79591     -44401.538     -50378.43      -236.30015      0.021802802    5.925          0.0043605604 
   1186000   246.64453     -44289.483     -50311.51      -227.24893      0.020677113    5.93           0.0041354226 
   1187000   246.43279     -44225.613     -50242.471     -465.49407      0.045829621    5.935          0.0091659242 
   1188000   244.24544     -44224.424     -50187.875     -447.49495      0.041257622    5.94           0.0082515245 
   1189000   245.71614     -44302.026     -50301.386     -178.24598      0.015913294    5.945          0.0031826587 
   1190000   247.82963     -44312.341     -50363.303     -251.90685      0.027347133    5.95           0.0054694265 
   1191000   248.26246     -44231.711     -50293.241     -483.41052      0.045027084    5.955          0.0090054168 
   1192000   246.14481     -44220.073     -50229.899     -133.01381      0.015129532    5.96           0.0030259065 
   1193000   247.69176     -44185.687     -50233.283     -406.80835      0.041369708    5.965          0.0082739416 
   1194000   243.24147     -44220.574     -50159.513     -477.69021      0.048501432    5.97           0.0097002863 
   1195000   247.5164      -44253.814     -50297.128     -225.94854      0.020569376    5.975          0.0041138753 
   1196000   246.89191     -44224.666     -50252.734     -148.25691      0.012504403    5.98           0.0025008806 
   1197000   245.07967     -44404.046     -50387.866     -488.15339      0.046930887    5.985          0.0093861774 
   1198000   246.34682     -44343.71      -50358.468     -199.32297      0.017346939    5.99           0.0034693878 
   1199000   244.47862     -44234.104     -50203.249     -214.27083      0.023153485    5.995          0.004630697  
   1200000   243.17962     -44353.306     -50290.734     -417.90251      0.041338472    6              0.0082676944 
Loop time of 491.588 on 56 procs for 100000 steps with 12288 atoms

Performance: 17.576 ns/day, 1.366 hours/ns, 203.422 timesteps/s, 2.500 Matom-step/s
99.8% CPU use with 56 MPI tasks x no OpenMP threads

MPI task timing breakdown:
Section |  min time  |  avg time  |  max time  |%varavg| %total
---------------------------------------------------------------
Pair    | 186.58     | 195.84     | 206.6      |  37.1 | 39.84
Bond    | 0.013197   | 0.026438   | 0.040401   |   3.5 |  0.01
Kspace  | 149.76     | 160.54     | 168.01     |  38.3 | 32.66
Neigh   | 22.143     | 22.153     | 22.163     |   0.1 |  4.51
Comm    | 15.85      | 17.713     | 19.477     |  21.6 |  3.60
Output  | 0.22397    | 0.40073    | 0.57099    |  16.3 |  0.08
Modify  | 72.697     | 79.644     | 92.348     |  52.9 | 16.20
Other   |            | 15.27      |            |       |  3.11

Nlocal:        219.429 ave         237 max         201 min
Histogram: 2 4 4 7 5 15 6 8 3 2
Nghost:        6833.27 ave        6880 max        6759 min
Histogram: 2 1 4 2 5 10 8 13 4 7
Neighs:        96064.4 ave      105308 max       88361 min
Histogram: 3 6 8 4 11 8 8 5 1 2

Total # of neighbors = 5379604
Ave neighs/atom = 437.79329
Ave special neighs/atom = 2
Neighbor list builds = 1896
Dangerous builds = 0
kspace_style pppm/tip4p 1.0e-5
next nloop
jump SELF loop_start
run 100000 # 100ps
PPPM initialization ...
  extracting TIP4P info from pair style
  using 12-bit tables for long-range coulomb
  G vector (1/distance) = 0.32815664
  grid = 50 50 50
  stencil order = 5
  estimated absolute RMS force accuracy = 0.0035802102
  estimated relative force accuracy = 1.0781697e-05
  using double precision KISS FFT
  3d grid and FFT values/proc = 11424 2800
Generated 0 of 1 mixed pair_coeff terms from geometric mixing rule
Per MPI rank memory allocation (min/avg/max) = 10.91 | 11.03 | 11.12 Mbytes
   Step          Temp          TotEng         PotEng          Pxy           v_sxy         v_strain     v_viscosity  
   1200000   243.17815     -44353.35      -50290.743     -408.79767      0.040405294    6              0.0080810589 
   1201000   247.74529     -44162.352     -50211.255     -623.70074      0.058248111    6.005          0.011649622  
   1202000   243.23615     -44292.287     -50231.095     -504.20498      0.050245797    6.01           0.010049159  
   1203000   244.02672     -44302.75      -50260.862     -165.81666      0.017007074    6.015          0.0034014148 
   1204000   248.11244     -44175.242     -50233.11      -464.64291      0.044861199    6.02           0.0089722398 
   1205000   244.18909     -44186.499     -50148.575     -58.902977      0.0075414972   6.025          0.0015082994 
   1206000   245.63763     -44375.454     -50372.897     -78.747235      0.0091567632   6.03           0.0018313526 
   1207000   246.1141      -44230.812     -50239.888     -230.44163      0.018812891    6.035          0.0037625782 
   1208000   243.58613     -44292.45      -50239.804      163.97048     -0.015448402    6.04          -0.0030896804 
   1209000   249.45811     -44112.486     -50203.209     -19.926835      0.0038671132   6.045          0.00077342264
   1210000   247.7987      -44149.963     -50200.17       31.222469     -0.0053013203   6.05          -0.0010602641 
   1211000   241.98713     -44334.12      -50242.433     -148.49371      0.016442673    6.055          0.0032885347 
   1212000   244.65836     -44261.42      -50234.953     -376.29285      0.037280444    6.06           0.0074560888 
   1213000   247.67344     -44262.951     -50310.1        96.034057     -0.008488525    6.065         -0.001697705  
   1214000   246.71004     -44261.558     -50285.184     -101.09854      0.011045889    6.07           0.0022091777 
   1215000   243.83907     -44281.662     -50235.191     -587.69388      0.057889087    6.075          0.011577817  
   1216000   247.89325     -44138.098     -50190.614     -560.55298      0.056365414    6.08           0.011273083  
   1217000   244.32143     -44266.835     -50232.142     -416.08754      0.042640169    6.085          0.0085280338 
   1218000   244.93204     -44176.729     -50156.945      301.25138     -0.03020596     6.09          -0.0060411921 
   1219000   242.46254     -44206.02      -50125.941     -58.419016      0.0045527353   6.095          0.00091054707
   1220000   249.20835     -44173.986     -50258.611     -275.33848      0.02766111     6.1            0.0055322219 
   1221000   245.74947     -44151.026     -50151.199     -108.39616      0.0097058072   6.105          0.0019411614 
   1222000   243.94366     -44284.053     -50240.136     -276.19188      0.033435629    6.11           0.0066871259 
   1223000   247.55203     -44126.38      -50170.564     -291.33884      0.033428431    6.115          0.0066856861 
   1224000   245.15376     -44349.098     -50334.727     -591.05931      0.061295153    6.12           0.012259031  
   1225000   246.31149     -44277.833     -50291.729     -175.11565      0.018918751    6.125          0.0037837503 
   1226000   251.82324     -44173.3       -50321.769     -147.92897      0.015535844    6.13           0.0031071689 
   1227000   243.81515     -44384.1       -50337.046     -398.84756      0.039991768    6.135          0.0079983535 
   1228000   250.91624     -44150.179     -50276.503     -186.48931      0.018671836    6.14           0.0037343673 
   1229000   243.51818     -44333.941     -50279.636     -353.03107      0.033022635    6.145          0.0066045269 
   1230000   247.14451     -44189.952     -50224.187     -285.61109      0.028112769    6.15           0.0056225539 
   1231000   247.46681     -44097.365     -50139.469     -276.32972      0.025808693    6.155          0.0051617387 
   1232000   244.72902     -44264.947     -50240.206     -138.94461      0.012012396    6.16           0.0024024793 
   1233000   243.64012     -44120.807     -50069.479     -356.76513      0.038760694    6.165          0.0077521388 
   1234000   248.00406     -44188.536     -50243.757     -189.18686      0.018122844    6.17           0.0036245688 
   1235000   248.32433     -44078.87      -50141.912     -269.59175      0.026878639    6.175          0.0053757278 
   1236000   243.07316     -44241.86      -50176.689     -404.04391      0.039826002    6.18           0.0079652005 
   1237000   248.22422     -44092.164     -50152.761     -244.62126      0.025677634    6.185          0.0051355268 
   1238000   245.81205     -44253.829     -50255.53      -397.09836      0.038831687    6.19           0.0077663374 
   1239000   246.80526     -44255.404     -50281.356      27.350376     -0.0025582943   6.195         -0.00051165885
   1240000   240.99985     -44362.056     -50246.264     -161.92615      0.013091238    6.2            0.0026182477 
   1241000   245.55549     -44279.557     -50274.994     -29.159057      0.0004166931   6.205          8.333862e-05 
   1242000   246.34161     -44414.649     -50429.28      -62.573526      0.0066645612   6.21           0.0013329122 
   1243000   245.06009     -44277.157     -50260.499     -86.269642      0.0067380211   6.215          0.0013476042 
   1244000   248.31717     -44208.02      -50270.886     -213.33971      0.021082068    6.22           0.0042164136 
   1245000   250.11498     -44259.747     -50366.508     -167.24034      0.019348029    6.225          0.0038696058 
   1246000   244.01835     -44317.525     -50275.432     -214.82404      0.023031848    6.23           0.0046063696 
   1247000   244.65642     -44245.599     -50219.084     -437.93809      0.042863511    6.235          0.0085727021 
   1248000   240.66878     -44481.095     -50357.219     -191.90905      0.020576734    6.24           0.0041153467 
   1249000   244.22684     -44096.403     -50059.401     -546.70828      0.051518195    6.245          0.010303639  
   1250000   246.11667     -44316.393     -50325.532     -194.83276      0.019917484    6.25           0.0039834968 
   1251000   248.55656     -44280.274     -50348.985     -128.739        0.020279747    6.255          0.0040559494 
   1252000   244.43921     -44325.718     -50293.901     -239.63302      0.024283351    6.26           0.0048566703 
   1253000   244.63678     -44418.681     -50391.687     -291.85256      0.030490589    6.265          0.0060981179 
   1254000   244.16554     -44288.263     -50249.764     -77.046726      0.0036266828   6.27           0.00072533657
   1255000   246.06647     -44232.617     -50240.531     -206.01503      0.022023212    6.275          0.0044046424 
   1256000   244.74925     -44310.434     -50286.187     -416.67862      0.038949844    6.28           0.0077899687 
   1257000   247.79763     -44370.549     -50420.73      -337.86485      0.034909439    6.285          0.0069818878 
   1258000   245.52665     -44234.707     -50229.44      -461.09887      0.048018532    6.29           0.0096037064 
   1259000   246.71724     -44267.056     -50290.858     -310.08492      0.032613638    6.295          0.0065227275 
   1260000   248.95518     -44169.627     -50248.071     -405.64498      0.041524154    6.3            0.0083048308 
   1261000   244.55861     -44317.766     -50288.863     -262.4186       0.028015373    6.305          0.0056030745 
   1262000   246.94133     -44254.408     -50283.682     -234.11309      0.024142459    6.31           0.0048284919 
   1263000   246.50326     -44176.963     -50195.541     -95.459355      0.0133162      6.315          0.00266324   
   1264000   244.64852     -44341.958     -50315.251     -326.98588      0.031962059    6.32           0.0063924118 
   1265000   247.86533     -44158.49      -50210.324     -232.69541      0.017874015    6.325          0.003574803  
   1266000   245.62031     -44215.962     -50212.982     -272.72058      0.028401213    6.33           0.0056802426 
   1267000   242.38206     -44334.885     -50252.841     -283.39998      0.026275585    6.335          0.005255117  
   1268000   243.61072     -44301.898     -50249.853     -67.857916      0.0080840092   6.34           0.0016168018 
   1269000   248.32855     -44271.19      -50334.334     -336.76701      0.032549689    6.345          0.0065099378 
   1270000   243.6525      -44392.04      -50341.014     -356.73879      0.033100926    6.35           0.0066201852 
   1271000   241.23456     -44320.933     -50210.871     -491.04186      0.050709854    6.355          0.010141971  
   1272000   248.37324     -44134.009     -50198.244     -99.707727      0.007312897    6.36           0.0014625794 
   1273000   245.9839      -44336.497     -50342.395     -309.61426      0.023903623    6.365          0.0047807245 
   1274000   244.22615     -44475.318     -50438.298     -49.589592      0.0033004368   6.37           0.00066008736
   1275000   244.85957     -44407.738     -50386.184     -144.08506      0.0109018      6.375          0.00218036   
   1276000   244.87465     -44259.055     -50237.869     -171.04291      0.02132724     6.38           0.004265448  
   1277000   244.77819     -44413.485     -50389.944     -559.52321      0.058202293    6.385          0.011640459  
   1278000   242.15555     -44353.675     -50266.1       -195.3069       0.019432274    6.39           0.0038864548 
   1279000   244.92581     -44301.857     -50281.92       203.94576     -0.021932732    6.395         -0.0043865463 
   1280000   248.98438     -44379.33      -50458.487     -300.74117      0.030027235    6.4            0.006005447  
   1281000   248.93262     -44287.625     -50365.518     -216.42576      0.020473646    6.405          0.0040947291 
   1282000   245.52564     -44415.38      -50410.089      104.3588      -0.0083435259   6.41          -0.0016687052 
   1283000   245.06981     -44338.907     -50322.487     -409.61404      0.0404281      6.415          0.0080856201 
   1284000   243.46091     -44437.427     -50381.724     -118.4331       0.014243628    6.42           0.0028487256 
   1285000   242.89437     -44436.297     -50366.761     -127.31544      0.014632758    6.425          0.0029265517 
   1286000   245.95395     -44322.274     -50327.44      -296.89966      0.027965509    6.43           0.0055931018 
   1287000   244.70595     -44510.237     -50484.933     -256.45191      0.025910373    6.435          0.0051820746 
   1288000   244.9893      -44398.773     -50380.386     -373.91066      0.038367894    6.44           0.0076735788 
   1289000   243.12808     -44325.979     -50262.149     -233.37493      0.025160717    6.445          0.0050321434 
   1290000   246.21273     -44292.351     -50303.835     -374.99547      0.03273065     6.45           0.0065461299 
   1291000   249.57645     -44366.967     -50460.58      -472.88927      0.047791415    6.455          0.0095582829 
   1292000   243.64601     -44476.88      -50425.696     -405.5739       0.038484177    6.46           0.0076968355 
   1293000   244.48908     -44323.42      -50292.82      -539.98104      0.05217593     6.465          0.010435186  
   1294000   246.35173     -44231.327     -50246.205     -700.0114       0.071519674    6.47           0.014303935  
   1295000   246.66204     -44473.338     -50495.792     -744.51228      0.074746548    6.475          0.01494931   
   1296000   244.91546     -44501.921     -50481.732     -400.05817      0.038260501    6.48           0.0076521002 
   1297000   245.71243     -44403.491     -50402.76      -318.45183      0.035011192    6.485          0.0070022383 
   1298000   245.33504     -44380.497     -50370.551     -310.15509      0.029878636    6.49           0.0059757272 
   1299000   245.27434     -44362.626     -50351.199     -211.70507      0.020499669    6.495          0.0040999338 
   1300000   245.97095     -44222.242     -50227.824     -421.64168      0.043009425    6.5            0.0086018849 
Loop time of 418.445 on 56 procs for 100000 steps with 12288 atoms

Performance: 20.648 ns/day, 1.162 hours/ns, 238.980 timesteps/s, 2.937 Matom-step/s
99.8% CPU use with 56 MPI tasks x no OpenMP threads

MPI task timing breakdown:
Section |  min time  |  avg time  |  max time  |%varavg| %total
---------------------------------------------------------------
Pair    | 182.55     | 193.4      | 202.02     |  33.1 | 46.22
Bond    | 0.01179    | 0.022676   | 0.03247    |   3.3 |  0.01
Kspace  | 108.97     | 118.17     | 128.45     |  40.3 | 28.24
Neigh   | 22.147     | 22.157     | 22.166     |   0.1 |  5.29
Comm    | 14.69      | 15.879     | 17.246     |  16.1 |  3.79
Output  | 0.23422    | 0.41144    | 0.58086    |  16.0 |  0.10
Modify  | 50.678     | 55.94      | 65.553     |  45.5 | 13.37
Other   |            | 12.46      |            |       |  2.98

Nlocal:        219.429 ave         241 max         200 min
Histogram: 2 1 6 12 13 9 5 4 2 2
Nghost:        7280.89 ave        7324 max        7213 min
Histogram: 1 1 1 5 7 11 10 8 10 2
Neighs:        96063.4 ave      106508 max       87411 min
Histogram: 2 3 7 12 13 6 5 5 2 1

Total # of neighbors = 5379553
Ave neighs/atom = 437.78914
Ave special neighs/atom = 2
Neighbor list builds = 1910
Dangerous builds = 0
kspace_style pppm/tip4p 1.0e-5
next nloop
jump SELF loop_start
run 100000 # 100ps
PPPM initialization ...
  extracting TIP4P info from pair style
  using 12-bit tables for long-range coulomb
  G vector (1/distance) = 0.32815664
  grid = 50 75 50
  stencil order = 5
  estimated absolute RMS force accuracy = 0.0035802102
  estimated relative force accuracy = 1.0781697e-05
  using double precision KISS FFT
  3d grid and FFT values/proc = 15776 4000
Generated 0 of 1 mixed pair_coeff terms from geometric mixing rule
Per MPI rank memory allocation (min/avg/max) = 11.21 | 11.34 | 11.45 Mbytes
   Step          Temp          TotEng         PotEng          Pxy           v_sxy         v_strain     v_viscosity  
   1300000   245.97191     -44222.24      -50227.844     -411.15947      0.04194591     6.5            0.008389182  
   1301000   247.22018     -44361.146     -50397.228     -672.0292       0.066012879    6.505          0.013202576  
   1302000   244.29035     -44354.712     -50319.26      -261.90088      0.028205652    6.51           0.0056411304 
   1303000   245.33024     -44223.573     -50213.511     -443.03859      0.042261158    6.515          0.0084522316 
   1304000   244.53315     -44298.982     -50269.458      236.21632     -0.025521907    6.52          -0.0051043814 
   1305000   243.29739     -44314.876     -50255.18      -180.95179      0.015986404    6.525          0.0031972809 
   1306000   247.94429     -44180.038     -50233.8       -301.50692      0.027844418    6.53           0.0055688836 
   1307000   246.51632     -44363.822     -50382.719     -71.519657      0.0056921856   6.535          0.0011384371 
   1308000   246.23541     -44310.756     -50322.795     -473.03293      0.048193357    6.54           0.0096386714 
   1309000   245.36417     -44403.342     -50394.108     -252.6973       0.023383959    6.545          0.0046767919 
   1310000   246.92262     -44377.247     -50406.064     -552.49379      0.049146731    6.55           0.0098293462 
   1311000   248.3514      -44388.696     -50452.398     -186.52449      0.020874814    6.555          0.0041749627 
   1312000   246.91921     -44325.583     -50354.317     -357.89359      0.033893084    6.56           0.0067786168 
   1313000   246.37718     -44362.711     -50378.211     -327.86509      0.031102601    6.565          0.0062205201 
   1314000   243.71911     -44441.15      -50391.75       66.145378     -0.010270076    6.57          -0.0020540152 
   1315000   248.67678     -44267.825     -50339.472     -262.37222      0.026028325    6.575          0.005205665  
   1316000   241.81472     -44436.318     -50340.422     -65.195482      0.0065724309   6.58           0.0013144862 
   1317000   247.78561     -44268.987     -50318.875     -3.6410844      0.0019658863   6.585          0.00039317726
   1318000   244.65051     -44431.706     -50405.048     -131.9856       0.016285686    6.59           0.0032571372 
   1319000   249.56659     -44334.057     -50427.429      19.424337     -0.0011442554   6.595         -0.00022885107
   1320000   247.57137     -44217.581     -50262.238     -104.67329      0.0059008328   6.6            0.0011801666 
   1321000   247.02388     -44297.291     -50328.581     -351.50056      0.03466101     6.605          0.006932202  
   1322000   246.34334     -44197.934     -50212.608     -414.73288      0.040141046    6.61           0.0080282093 
   1323000   245.36434     -44194.52      -50185.29      -332.60504      0.03313984     6.615          0.0066279679 
   1324000   244.63295     -44356.097     -50329.01      -123.20961      0.011926497    6.62           0.0023852994 
   1325000   245.80358     -44290.276     -50291.771     -444.00593      0.043761801    6.625          0.0087523602 
   1326000   248.83397     -44278.513     -50353.997     -366.90587      0.034656897    6.63           0.0069313794 
   1327000   246.6614      -44320.024     -50342.464     -414.12705      0.040077727    6.635          0.0080155453 
   1328000   243.4298      -44470.995     -50414.532     -334.29297      0.035809087    6.64           0.0071618174 
   1329000   244.45935     -44341.762     -50310.437     -527.3567       0.052333659    6.645          0.010466732  
   1330000   243.43542     -44308.518     -50252.192     -146.69962      0.014414174    6.65           0.0028828349 
   1331000   249.45743     -44310.522     -50401.229     -181.78027      0.017438905    6.655          0.003487781  
   1332000   243.59625     -44469.213     -50416.814     -231.6591       0.022359363    6.66           0.0044718726 
   1333000   249.39545     -44157.696     -50246.89      -67.555576      0.0063552492   6.665          0.0012710498 
   1334000   239.68153     -44492.995     -50345.015     -531.21626      0.049977884    6.67           0.0099955768 
   1335000   247.83275     -44270.878     -50321.916     -349.8559       0.029654131    6.675          0.0059308263 
   1336000   247.79981     -44228.502     -50278.736     -100.56847      0.0055924679   6.68           0.0011184936 
   1337000   249.04212     -44214.355     -50294.921     -218.25496      0.021629676    6.685          0.0043259352 
   1338000   245.38203     -44297.983     -50289.186     -429.9359       0.043877676    6.69           0.0087755352 
   1339000   245.11633     -44387.098     -50371.813     -372.57231      0.035725586    6.695          0.0071451173 
   1340000   246.17554     -44247.57      -50258.146     -381.01764      0.036060188    6.7            0.0072120375 
   1341000   244.69697     -44381.257     -50355.734     -398.22417      0.035826674    6.705          0.0071653348 
   1342000   243.0122      -44293.754     -50227.095      391.40308     -0.039937355    6.71          -0.0079874709 
   1343000   241.83108     -44492.058     -50396.561     -313.66936      0.027352796    6.715          0.0054705592 
   1344000   248.29279     -44215.416     -50277.687     -72.716171      0.0069635204   6.72           0.0013927041 
   1345000   245.11246     -44247.841     -50232.461      19.513954     -0.0050471571   6.725         -0.0010094314 
   1346000   245.8644      -44516.385     -50519.365     -329.7243       0.032293637    6.73           0.0064587273 
   1347000   243.00366     -44316.802     -50249.935     -364.01239      0.031930761    6.735          0.0063861522 
   1348000   245.82908     -44281.73      -50283.848     -464.51861      0.04934366     6.74           0.009868732  
   1349000   244.54687     -44407.816     -50378.628     -364.37319      0.038244988    6.745          0.0076489977 
   1350000   245.04721     -44442.524     -50425.552     -119.81391      0.012599454    6.75           0.0025198908 
   1351000   247.04751     -44389.321     -50421.188     -464.6309       0.047610775    6.755          0.009522155  
   1352000   244.3309      -44368.884     -50334.422     -300.6929       0.031484056    6.76           0.0062968112 
   1353000   249.25149     -44276.188     -50361.866     -709.054        0.074694051    6.765          0.01493881   
   1354000   246.54484     -44228.029     -50247.622     -439.49657      0.044154353    6.77           0.0088308705 
   1355000   243.46817     -44338.575     -50283.049     -346.8192       0.036958956    6.775          0.0073917912 
   1356000   241.89849     -44445.121     -50351.269     -475.91672      0.049136184    6.78           0.0098272369 
   1357000   244.18911     -44307.031     -50269.107     -399.71361      0.038851365    6.785          0.007770273  
   1358000   246.39419     -44457.36      -50473.275     -388.53115      0.039444321    6.79           0.0078888642 
   1359000   245.15409     -44348.597     -50334.234     -489.40824      0.048162593    6.795          0.0096325187 
   1360000   241.51271     -44520.943     -50417.673     -502.7501       0.052201049    6.8            0.01044021   
   1361000   249.63186     -44229.903     -50324.868     -494.89462      0.050068222    6.805          0.010013644  
   1362000   245.94274     -44413.411     -50418.304     -226.45732      0.023027836    6.81           0.0046055671 
   1363000   245.36295     -44257.108     -50247.845     -196.82158      0.019958109    6.815          0.0039916218 
   1364000   246.26852     -44295.678     -50308.524     -222.18651      0.020724726    6.82           0.0041449452 
   1365000   246.69334     -44356.339     -50379.558     -510.92359      0.051547908    6.825          0.010309582  
   1366000   245.29365     -44235.993     -50225.037     -596.68758      0.057912779    6.83           0.011582556  
   1367000   240.60243     -44467.179     -50341.684     -299.35782      0.026787719    6.835          0.0053575437 
   1368000   246.85216     -44256.479     -50283.576     -178.00786      0.015350902    6.84           0.0030701804 
   1369000   244.83283     -44336.217     -50314.01      -438.96927      0.044248326    6.845          0.0088496652 
   1370000   245.64229     -44174.92      -50172.477     -204.18883      0.016366077    6.85           0.0032732155 
   1371000   244.27971     -44366.244     -50330.533     -39.408046      0.0010091063   6.855          0.00020182126
   1372000   249.24022     -44136.347     -50221.75      -558.74622      0.056359775    6.86           0.011271955  
   1373000   241.00305     -44243.448     -50127.734     -596.45833      0.059861137    6.865          0.011972227  
   1374000   246.66788     -44123.56      -50146.158     -214.67339      0.019813555    6.87           0.003962711  
   1375000   245.06407     -44260.921     -50244.36      -336.95637      0.034988766    6.875          0.0069977533 
   1376000   243.70903     -44298.261     -50248.616     -578.34851      0.054887545    6.88           0.010977509  
   1377000   250.3097      -44083.191     -50194.706     -561.57977      0.055173131    6.885          0.011034626  
   1378000   245.35765     -44199.038     -50189.645     -390.69216      0.034628821    6.89           0.0069257641 
   1379000   243.93291     -44215.12      -50170.941      54.478536     -0.0048329713   6.895         -0.00096659427
   1380000   244.6903      -44125.797     -50100.111     -304.79776      0.028625323    6.9            0.0057250646 
   1381000   249.1096      -44203.175     -50285.389     -564.80559      0.055466509    6.905          0.011093302  
   1382000   245.65066     -44221.126     -50218.887     -423.64373      0.043364343    6.91           0.0086728686 
   1383000   244.73082     -44132.624     -50107.927     -32.094979      0.0003831105   6.915          7.66221e-05  
   1384000   243.93003     -44368.26      -50324.011     -103.82321      0.0095443498   6.92           0.00190887   
   1385000   246.33802     -44243.15      -50257.693     -519.90217      0.052300479    6.925          0.010460096  
   1386000   247.30629     -44182.33      -50220.514     -233.40637      0.020507798    6.93           0.0041015595 
   1387000   246.63968     -44254.845     -50276.754     -256.79965      0.023476332    6.935          0.0046952664 
   1388000   244.29645     -44298.079     -50262.776     -423.38514      0.044053126    6.94           0.0088106251 
   1389000   247.27177     -44429.644     -50466.986     -369.80199      0.033461013    6.945          0.0066922027 
   1390000   247.04004     -44185.457     -50217.141     -356.22414      0.03483779     6.95           0.006967558  
   1391000   242.66889     -44420.463     -50345.422     -120.84703      0.01353942     6.955          0.0027078839 
   1392000   245.05969     -44288.507     -50271.839     -209.61893      0.019918833    6.96           0.0039837667 
   1393000   251.78758     -44049.343     -50196.942     -258.14995      0.027230672    6.965          0.0054461343 
   1394000   243.96078     -44195.093     -50151.594     -178.48954      0.020472355    6.97           0.004094471  
   1395000   242.86843     -44325.448     -50255.279     -456.63142      0.045987725    6.975          0.0091975449 
   1396000   247.04377     -44063.653     -50095.428     -492.12141      0.050248586    6.98           0.010049717  
   1397000   245.04945     -44203.273     -50186.355     -232.57567      0.024364087    6.985          0.0048728175 
   1398000   248.02573     -44154.082     -50209.833     -89.526259      0.0017134824   6.99           0.00034269648
   1399000   246.32837     -44352.899     -50367.207     -379.63791      0.036460073    6.995          0.0072920146 
   1400000   243.50303     -44216.812     -50162.137     -373.00742      0.03182494     7              0.006364988  
Loop time of 489.308 on 56 procs for 100000 steps with 12288 atoms

Performance: 17.658 ns/day, 1.359 hours/ns, 204.370 timesteps/s, 2.511 Matom-step/s
99.8% CPU use with 56 MPI tasks x no OpenMP threads

MPI task timing breakdown:
Section |  min time  |  avg time  |  max time  |%varavg| %total
---------------------------------------------------------------
Pair    | 186.04     | 195.23     | 206.57     |  31.0 | 39.90
Bond    | 0.012766   | 0.025691   | 0.038192   |   3.5 |  0.01
Kspace  | 147.17     | 158.57     | 166.29     |  34.2 | 32.41
Neigh   | 22.115     | 22.124     | 22.133     |   0.1 |  4.52
Comm    | 15.895     | 17.673     | 19.456     |  21.1 |  3.61
Output  | 0.22431    | 0.40143    | 0.57124    |  16.2 |  0.08
Modify  | 73.128     | 79.932     | 92.662     |  52.7 | 16.34
Other   |            | 15.35      |            |       |  3.14

Nlocal:        219.429 ave         241 max         201 min
Histogram: 3 5 5 7 12 8 5 6 3 2
Nghost:        6858.09 ave        6916 max        6797 min
Histogram: 3 4 4 8 5 11 6 7 6 2
Neighs:        96041.7 ave      106823 max       88010 min
Histogram: 5 7 6 6 12 7 5 5 2 1

Total # of neighbors = 5378337
Ave neighs/atom = 437.69019
Ave special neighs/atom = 2
Neighbor list builds = 1903
Dangerous builds = 0
kspace_style pppm/tip4p 1.0e-5
next nloop
jump SELF loop_start
run 100000 # 100ps
PPPM initialization ...
  extracting TIP4P info from pair style
  using 12-bit tables for long-range coulomb
  G vector (1/distance) = 0.32815664
  grid = 50 50 50
  stencil order = 5
  estimated absolute RMS force accuracy = 0.0035802102
  estimated relative force accuracy = 1.0781697e-05
  using double precision KISS FFT
  3d grid and FFT values/proc = 11424 2800
Generated 0 of 1 mixed pair_coeff terms from geometric mixing rule
Per MPI rank memory allocation (min/avg/max) = 10.91 | 11.03 | 11.12 Mbytes
   Step          Temp          TotEng         PotEng          Pxy           v_sxy         v_strain     v_viscosity  
   1400000   243.49794     -44216.887     -50162.088     -362.25844      0.030726406    7              0.0061452811 
   1401000   247.25799     -44288.616     -50325.622     -516.30784      0.05299332     7.005          0.010598664  
   1402000   248.95593     -44186.975     -50265.437     -364.74181      0.035442684    7.01           0.0070885369 
   1403000   246.13591     -44290.513     -50300.122     -238.47481      0.025549835    7.015          0.0051099669 
   1404000   244.84821     -44347.264     -50325.433     -534.82083      0.050928511    7.02           0.010185702  
   1405000   245.56645     -44215.848     -50211.553     -163.60966      0.017453898    7.025          0.0034907796 
   1406000   244.58182     -44295.234     -50266.899     -170.34683      0.016830384    7.03           0.0033660767 
   1407000   240.2179      -44430.69      -50295.806     -280.0428       0.0282118      7.035          0.0056423599 
   1408000   246.07447     -44175.254     -50183.362     -136.17432      0.011256067    7.04           0.0022512134 
   1409000   248.06875     -44181.781     -50238.581     -388.07579      0.041272602    7.045          0.0082545205 
   1410000   246.89841     -44427.852     -50456.078     -537.62177      0.051505938    7.05           0.010301188  
   1411000   248.16167     -44131.159     -50190.229     -5.3535344     -0.001892324    7.055         -0.00037846479
   1412000   243.55949     -44360.031     -50306.734     -457.97581      0.046167609    7.06           0.0092335218 
   1413000   245.36815     -44374.627     -50365.49      -253.66907      0.02306463     7.065          0.0046129259 
   1414000   244.83391     -44351.184     -50329.004     -494.17755      0.052998477    7.07           0.010599695  
   1415000   245.00357     -44339.537     -50321.498      12.509767     -0.0014900604   7.075         -0.00029801208
   1416000   244.37395     -44396.946     -50363.535     -60.550296      0.0060317282   7.08           0.0012063456 
   1417000   242.44602     -44386.735     -50306.252     -254.90827      0.025855046    7.085          0.0051710092 
   1418000   244.96856     -44305.189     -50286.296     -209.29202      0.018240221    7.09           0.0036480441 
   1419000   248.24692     -44148.072     -50209.223     -216.69809      0.02122702     7.095          0.0042454039 
   1420000   242.56653     -44399.827     -50322.286     -8.2528301      0.0011475862   7.1            0.00022951723
   1421000   245.54247     -44187.825     -50182.944     -61.053356      0.0065879893   7.105          0.0013175979 
   1422000   246.11568     -44329.748     -50338.863     -486.20354      0.046649097    7.11           0.0093298194 
   1423000   246.04561     -44266.497     -50273.901     -321.97444      0.032710698    7.115          0.0065421395 
   1424000   250.1343      -44206.207     -50313.44      -451.98524      0.046526108    7.12           0.0093052217 
   1425000   247.27396     -44307.786     -50345.181     -394.3782       0.040459145    7.125          0.0080918291 
   1426000   245.53995     -44215.654     -50210.713     -115.4473       0.0093657799   7.13           0.001873156  
   1427000   241.91614     -44447.958     -50354.538     -311.94968      0.028859371    7.135          0.0057718741 
   1428000   246.83091     -44177.632     -50204.21      -261.07694      0.022882627    7.14           0.0045765253 
   1429000   244.65233     -44275.921     -50249.307     -243.17074      0.022807381    7.145          0.0045614762 
   1430000   246.54046     -44184.908     -50204.394      3.3644626      0.0032051125   7.15           0.00064102249
   1431000   245.83562     -44301.196     -50303.473      3.9327014      7.0294084e-05  7.155          1.4058817e-05
   1432000   244.89978     -44273.369     -50252.797     -115.76304      0.011621362    7.16           0.0023242724 
   1433000   249.93205     -44236.932     -50339.227     -231.81599      0.02450214     7.165          0.0049004281 
   1434000   247.48397     -44205.916     -50248.439     -347.75103      0.035497012    7.17           0.0070994025 
   1435000   246.10355     -44174.441     -50183.26      -370.36794      0.034279208    7.175          0.0068558415 
   1436000   247.58339     -44121.032     -50165.982     -442.88569      0.045959016    7.18           0.0091918032 
   1437000   241.68736     -44373.418     -50274.412     -424.09232      0.036815667    7.185          0.0073631334 
   1438000   246.84828     -44216.595     -50243.597     -183.82628      0.01741017     7.19           0.003482034  
   1439000   246.4632      -44190.198     -50207.798     -271.08077      0.025595501    7.195          0.0051191002 
   1440000   244.71637     -44311.411     -50286.361     -367.85344      0.035163922    7.2            0.0070327844 
   1441000   245.85513     -44268.227     -50270.98      -1.2228565     -0.002020485    7.205         -0.000404097  
   1442000   245.71261     -44289.118     -50288.391     -580.09321      0.055812062    7.21           0.011162412  
   1443000   247.39354     -44089.666     -50129.981     -75.417634      0.0056743945   7.215          0.0011348789 
   1444000   243.43854     -44309.547     -50253.298     -425.62671      0.041262552    7.22           0.0082525104 
   1445000   252.03063     -44028.227     -50181.76      -316.38061      0.026045981    7.225          0.0052091962 
   1446000   248.6305      -44197.331     -50267.847     -323.36865      0.033809971    7.23           0.0067619942 
   1447000   243.38954     -44179.422     -50121.976     -298.88704      0.028763631    7.235          0.0057527261 
   1448000   241.95673     -44398.144     -50305.715     -64.673348      0.0071268436   7.24           0.0014253687 
   1449000   248.63901     -44198.962     -50269.686     -130.71568      0.011246415    7.245          0.002249283  
   1450000   246.20377     -44306.67      -50317.936     -182.30252      0.018326673    7.25           0.0036653347 
   1451000   243.69045     -44265.229     -50215.13      -363.00516      0.035930021    7.255          0.0071860041 
   1452000   246.69945     -44153.009     -50176.377     -218.16949      0.01910339     7.26           0.003820678  
   1453000   245.67082     -44316.205     -50314.458     -480.09633      0.05231289     7.265          0.010462578  
   1454000   248.36418     -44191.914     -50255.927     -223.99873      0.022420249    7.27           0.0044840498 
   1455000   245.7644      -44211.062     -50211.6       -327.2164       0.031605258    7.275          0.0063210517 
   1456000   244.51989     -44219.269     -50189.421     -234.99239      0.022658124    7.28           0.0045316248 
   1457000   244.87928     -44186.618     -50165.545      117.26587     -0.015001639    7.285         -0.0030003277 
   1458000   249.93435     -44098.35      -50200.701     -272.00605      0.028354092    7.29           0.0056708185 
   1459000   245.17555     -44285.583     -50271.744      105.29398     -0.014463644    7.295         -0.0028927288 
   1460000   248.71131     -44167.529     -50240.018     -70.155388      0.0029119417   7.3            0.00058238835
   1461000   248.7584      -44130.62      -50204.259     -131.60761      0.011718931    7.305          0.0023437861 
   1462000   244.27652     -44310.383     -50274.593     -461.69056      0.044709535    7.31           0.008941907  
   1463000   244.19666     -44174.095     -50136.356     -212.16926      0.018286866    7.315          0.0036573731 
   1464000   246.84367     -44220.714     -50247.604     -125.22201      0.012663363    7.32           0.0025326726 
   1465000   242.73119     -44302.288     -50228.767      33.571888     -0.0037917756   7.325         -0.00075835512
   1466000   248.09294     -44186.899     -50244.291     -678.20593      0.063008198    7.33           0.01260164   
   1467000   246.05476     -44367.324     -50374.952     -468.14966      0.044236917    7.335          0.0088473834 
   1468000   244.59325     -44271.196     -50243.14      -289.45205      0.026930775    7.34           0.0053861551 
   1469000   246.08386     -44081.72      -50090.058     -381.74662      0.036847033    7.345          0.0073694065 
   1470000   246.99585     -44159.987     -50190.592     -729.86442      0.069737591    7.35           0.013947518  
   1471000   244.22337     -44283.443     -50246.356     -479.96009      0.044982282    7.355          0.0089964563 
   1472000   244.24138     -44231.515     -50194.867     -104.14148      0.010167566    7.36           0.0020335133 
   1473000   244.4646      -44204.123     -50172.926     -334.42055      0.032955209    7.365          0.0065910418 
   1474000   245.72137     -44228.976     -50228.464     -189.13752      0.017022199    7.37           0.0034044398 
   1475000   249.80097     -44201.772     -50300.867     -98.878475      0.0098890643   7.375          0.0019778129 
   1476000   246.21486     -44305.648     -50317.185     -76.33432       0.0091805738   7.38           0.0018361148 
   1477000   248.07576     -44242.646     -50299.618     -557.00804      0.055961839    7.385          0.011192368  
   1478000   243.91641     -44283.702     -50239.12      -378.18112      0.032444922    7.39           0.0064889844 
   1479000   248.41462     -44100.947     -50166.192     -48.01696       0.0065382503   7.395          0.0013076501 
   1480000   245.0377      -44302.825     -50285.62      -152.51581      0.011000872    7.4            0.0022001745 
   1481000   245.83794     -44188.86      -50191.194     -117.7149       0.012858839    7.405          0.0025717678 
   1482000   246.43495     -44257.586     -50274.496     -309.6051       0.030577236    7.41           0.0061154473 
   1483000   244.72438     -44132.827     -50107.973     -247.15695      0.024771183    7.415          0.0049542366 
   1484000   243.26835     -44179.003     -50118.598     -383.77248      0.035504896    7.42           0.0071009793 
   1485000   246.88457     -44125.842     -50153.73      -393.7121       0.03932085     7.425          0.00786417   
   1486000   248.05985     -44093.777     -50150.36      -86.545177      0.012313596    7.43           0.0024627192 
   1487000   245.31282     -44158.465     -50147.977     -294.69754      0.029460428    7.435          0.0058920855 
   1488000   250.19945     -44024.022     -50132.846      137.85079     -0.013107465    7.44          -0.0026214929 
   1489000   244.78921     -44070.172     -50046.9       -50.341248      0.0019779146   7.445          0.00039558292
   1490000   247.03079     -44131.482     -50162.94      -274.4142       0.028565601    7.45           0.0057131203 
   1491000   247.6657      -44199.754     -50246.714     -285.15907      0.02770715     7.455          0.0055414301 
   1492000   243.72392     -44282.56      -50233.278     -165.80185      0.01697527     7.46           0.0033950541 
   1493000   249.38562     -44142.397     -50231.35      -61.212798      0.0032526784   7.465          0.00065053569
   1494000   246.91473     -44225.628     -50254.253      150.49071     -0.01163648     7.47          -0.0023272961 
   1495000   243.57561     -44454.734     -50401.831      93.631946     -0.010877335    7.475         -0.002175467  
   1496000   248.24359     -44140.555     -50201.625      1.3233548     -0.00087416839  7.48          -0.00017483368
   1497000   241.68188     -44383.567     -50284.427     -159.8565       0.015393394    7.485          0.0030786788 
   1498000   246.06977     -44308.977     -50316.971     -366.99984      0.034469068    7.49           0.0068938135 
   1499000   249.02589     -44186.022     -50266.192     -215.45545      0.021481649    7.495          0.0042963298 
   1500000   245.6781      -44363         -50361.431     -102.3326       0.012352183    7.5            0.0024704366 
Loop time of 417.475 on 56 procs for 100000 steps with 12288 atoms

Performance: 20.696 ns/day, 1.160 hours/ns, 239.535 timesteps/s, 2.943 Matom-step/s
99.8% CPU use with 56 MPI tasks x no OpenMP threads

MPI task timing breakdown:
Section |  min time  |  avg time  |  max time  |%varavg| %total
---------------------------------------------------------------
Pair    | 182.75     | 192.67     | 205.46     |  31.4 | 46.15
Bond    | 0.011902   | 0.021973   | 0.031055   |   3.0 |  0.01
Kspace  | 105.03     | 117.76     | 127.87     |  38.2 | 28.21
Neigh   | 22.13      | 22.142     | 22.149     |   0.1 |  5.30
Comm    | 14.687     | 15.827     | 17.295     |  14.8 |  3.79
Output  | 0.2241     | 0.40187    | 0.57194    |  16.3 |  0.10
Modify  | 50.788     | 55.959     | 65.806     |  45.6 | 13.40
Other   |            | 12.69      |            |       |  3.04

Nlocal:        219.429 ave         239 max         206 min
Histogram: 6 6 7 13 4 6 9 2 2 1
Nghost:        7277.89 ave        7344 max        7195 min
Histogram: 2 0 5 2 14 9 11 6 5 2
Neighs:        96034.4 ave      105684 max       89364 min
Histogram: 3 8 10 9 7 8 6 2 2 1

Total # of neighbors = 5377925
Ave neighs/atom = 437.65666
Ave special neighs/atom = 2
Neighbor list builds = 1901
Dangerous builds = 0
kspace_style pppm/tip4p 1.0e-5
next nloop
jump SELF loop_start
run 100000 # 100ps
PPPM initialization ...
  extracting TIP4P info from pair style
  using 12-bit tables for long-range coulomb
  G vector (1/distance) = 0.32815664
  grid = 50 75 50
  stencil order = 5
  estimated absolute RMS force accuracy = 0.0035802102
  estimated relative force accuracy = 1.0781697e-05
  using double precision KISS FFT
  3d grid and FFT values/proc = 15776 4000
Generated 0 of 1 mixed pair_coeff terms from geometric mixing rule
Per MPI rank memory allocation (min/avg/max) = 11.21 | 11.34 | 11.45 Mbytes
   Step          Temp          TotEng         PotEng          Pxy           v_sxy         v_strain     v_viscosity  
   1500000   245.67657     -44363.06      -50361.454     -92.784554      0.011381808    7.5            0.0022763617 
   1501000   247.75352     -44212.861     -50261.965     -200.17094      0.015303036    7.505          0.0030606072 
   1502000   244.6775      -44292.694     -50266.694     -467.3712       0.045850398    7.51           0.0091700796 
   1503000   248.76172     -44233.456     -50307.176     -245.95176      0.024192893    7.515          0.0048385786 
   1504000   242.75557     -44264.201     -50191.277      17.828822     -0.0047798411   7.52          -0.00095596823
   1505000   245.82863     -44191.637     -50193.744     -206.44193      0.017062759    7.525          0.0034125519 
   1506000   244.4656      -44139.205     -50108.032     -175.03926      0.015009453    7.53           0.0030018907 
   1507000   246.1972      -44339.793     -50350.898     -401.0905       0.037028547    7.535          0.0074057094 
   1508000   245.24056     -44147.882     -50135.63      -54.700178      0.0056054488   7.54           0.0011210898 
   1509000   248.5762      -44164.626     -50233.817     -360.37181      0.031095232    7.545          0.0062190463 
   1510000   243.84707     -44340.74      -50294.465     -179.94784      0.019921854    7.55           0.0039843708 
   1511000   248.39117     -44156.839     -50221.512     -526.74192      0.051480357    7.555          0.010296071  
   1512000   244.15887     -44305.362     -50266.7       -234.62134      0.02156124     7.56           0.0043122479 
   1513000   246.41296     -44366.386     -50382.759     -370.0421       0.037310403    7.565          0.0074620806 
   1514000   247.8028      -44107.45      -50157.757     -132.30687      0.013629966    7.57           0.0027259932 
   1515000   246.86736     -44275.971     -50303.438     -418.20091      0.044383116    7.575          0.0088766232 
   1516000   245.61076     -44266.876     -50263.663     -324.93116      0.029872709    7.58           0.0059745417 
   1517000   246.37824     -44337.634     -50353.16      -251.89063      0.018641575    7.585          0.0037283149 
   1518000   250.23865     -44069.59      -50179.371     -385.52451      0.038025168    7.59           0.0076050336 
   1519000   244.40221     -44148.19      -50115.469     -510.58215      0.052325978    7.595          0.010465196  
   1520000   246.80682     -44134.141     -50160.13      -268.6754       0.027961592    7.6            0.0055923184 
   1521000   244.69131     -44139.474     -50113.811     -365.19105      0.037202864    7.605          0.0074405728 
   1522000   246.20618     -44250.264     -50261.589     -306.10122      0.029430722    7.61           0.0058861444 
   1523000   246.34499     -44113.256     -50127.97      -470.28494      0.047855466    7.615          0.0095710932 
   1524000   245.94768     -44171.597     -50176.61      -330.18012      0.033346934    7.62           0.0066693869 
   1525000   249.0498      -43998.426     -50079.18      -406.52893      0.042297536    7.625          0.0084595071 
   1526000   247.14574     -44033.714     -50067.979     -352.79081      0.034982583    7.63           0.0069965167 
   1527000   243.12812     -44198.359     -50134.53      -451.33062      0.048545814    7.635          0.0097091627 
   1528000   248.83744     -44102.341     -50177.91      -230.89014      0.02383827     7.64           0.0047676541 
   1529000   246.63832     -44096.244     -50118.12      -394.87112      0.040475126    7.645          0.0080950252 
   1530000   239.68281     -44250.356     -50102.407     -164.41851      0.017302533    7.65           0.0034605066 
   1531000   249.50153     -43931.416     -50023.199     -361.29274      0.037010903    7.655          0.0074021805 
   1532000   246.11661     -44083.738     -50092.876     -547.3506       0.051703972    7.66           0.010340794  
   1533000   242.18083     -44338.012     -50251.055     -116.41996      0.0092116234   7.665          0.0018423247 
   1534000   245.86226     -44052.649     -50055.577     -91.360454      0.0094123595   7.67           0.0018824719 
   1535000   244.27954     -44060.698     -50024.982     -467.04983      0.051154305    7.675          0.010230861  
   1536000   244.62748     -44114.754     -50087.534     -379.10544      0.035184345    7.68           0.007036869  
   1537000   248.29012     -44073.897     -50136.102      97.408131     -0.0094610727   7.685         -0.0018922145 
   1538000   243.18047     -44234.087     -50171.536     -522.893        0.04936047     7.69           0.0098720941 
   1539000   245.4001      -44096.369     -50088.012     -161.66202      0.013784657    7.695          0.0027569314 
   1540000   243.4946      -44220.255     -50165.375     -122.31788      0.013539041    7.7            0.0027078083 
   1541000   247.59781     -44041.94      -50087.243      106.82212     -0.015798181    7.705         -0.0031596361 
   1542000   244.07225     -44239.491     -50198.714     -206.7596       0.020411593    7.71           0.0040823186 
   1543000   243.51087     -44153.66      -50099.176     -239.66014      0.02521532     7.715          0.0050430639 
   1544000   243.67868     -44188.135     -50137.749     -352.52048      0.036413658    7.72           0.0072827316 
   1545000   245.09955     -44151.771     -50136.076     -71.4099        0.0065317752   7.725          0.001306355  
   1546000   248.83118     -44022.542     -50097.958      185.71043     -0.018415587    7.73          -0.0036831174 
   1547000   244.93034     -44290.026     -50270.2       -155.52826      0.014308922    7.735          0.0028617845 
   1548000   241.17697     -44065.715     -49954.247     -93.033702      0.011590959    7.74           0.0023181917 
   1549000   246.59516     -44146.065     -50166.886     -16.308657      0.00098313028  7.745          0.00019662606
   1550000   244.61486     -44132.302     -50104.773     -237.50515      0.019497703    7.75           0.0038995405 
   1551000   247.63497     -43992.837     -50039.047     -206.84436      0.016708481    7.755          0.0033416963 
   1552000   245.92168     -44368.157     -50372.536     -55.058772      0.0048483462   7.76           0.00096966925
   1553000   242.23602     -44168.066     -50082.455     -304.13034      0.030087651    7.765          0.0060175302 
   1554000   242.92454     -44316.865     -50248.066     -289.129        0.028583432    7.77           0.0057166864 
   1555000   248.46765     -44115.671     -50182.212     -278.64617      0.025072023    7.775          0.0050144046 
   1556000   245.20381     -44113.84      -50100.691     -299.03496      0.026944854    7.78           0.0053889707 
   1557000   246.12943     -44233.13      -50242.581     -426.05614      0.042007199    7.785          0.0084014399 
   1558000   245.69127     -44323.703     -50322.456     -173.93458      0.017524248    7.79           0.0035048496 
   1559000   249.54188     -44338.255     -50431.023     -179.57029      0.01932578     7.795          0.003865156  
   1560000   247.08931     -44147.069     -50179.956     -218.48271      0.020850111    7.8            0.0041700221 
   1561000   245.50541     -44183.759     -50177.974      57.396648     -0.0034497672   7.805         -0.00068995343
   1562000   246.54706     -44198.136     -50217.783     -148.1898       0.014870176    7.81           0.0029740351 
   1563000   242.2661      -44225.479     -50140.604     -100.13946      0.0043218943   7.815          0.00086437886
   1564000   243.6806      -44303.865     -50253.525     -436.54013      0.04276363     7.82           0.008552726  
   1565000   244.54264     -44364.869     -50335.577     -294.11176      0.024807905    7.825          0.0049615811 
   1566000   243.71536     -44425.386     -50375.895     -224.12193      0.022732708    7.83           0.0045465417 
   1567000   248.937       -44331.29      -50409.29      -229.5617       0.022944022    7.835          0.0045888044 
   1568000   245.38131     -44341.413     -50332.598     -414.21014      0.039750793    7.84           0.0079501585 
   1569000   242.69675     -44372.181     -50297.82      -327.44742      0.032205852    7.845          0.0064411704 
   1570000   246.35598     -44283.889     -50298.871     -316.30204      0.03245567     7.85           0.006491134  
   1571000   244.41927     -44426.783     -50394.479     -514.67612      0.052251113    7.855          0.010450223  
   1572000   249.88727     -44257.527     -50358.729     -333.26322      0.032493451    7.86           0.0064986902 
   1573000   245.62181     -44341.414     -50338.471     -593.50572      0.056103104    7.865          0.011220621  
   1574000   241.05964     -44413.265     -50298.933     -25.990294      0.000179576    7.87           3.5915199e-05
   1575000   246.53289     -44266.713     -50286.014     -299.1195       0.031842923    7.875          0.0063685846 
   1576000   244.10063     -44393.39      -50353.305     -569.75918      0.056441002    7.88           0.0112882    
   1577000   247.57981     -44209.15      -50254.012     -439.31013      0.04312185     7.885          0.0086243699 
   1578000   243.75879     -44283.524     -50235.093     -349.60521      0.037512949    7.89           0.0075025898 
   1579000   250.44606     -44156.999     -50271.844     -378.93612      0.036037657    7.895          0.0072075315 
   1580000   245.04677     -44303.082     -50286.099     -459.79709      0.046796416    7.9            0.0093592832 
   1581000   245.61869     -44192.241     -50189.222     -380.52916      0.03485758     7.905          0.006971516  
   1582000   247.35082     -44081.548     -50120.82      -341.88858      0.031740254    7.91           0.0063480508 
   1583000   243.17456     -44395.117     -50332.422     -313.27643      0.030306904    7.915          0.0060613809 
   1584000   246.87763     -44026.936     -50054.654     -249.75665      0.02203921     7.92           0.004407842  
   1585000   244.44156     -44310.556     -50278.795     -226.00699      0.023019617    7.925          0.0046039235 
   1586000   245.27829     -44138.066     -50126.735      94.439625     -0.0096933953   7.93          -0.0019386791 
   1587000   246.09253     -44190.556     -50199.105     -256.06006      0.026376812    7.935          0.0052753624 
   1588000   244.43985     -44217.48      -50185.678     -250.88117      0.02760539     7.94           0.005521078  
   1589000   245.33509     -44199.951     -50190.007     -24.888387      0.0017878983   7.945          0.00035757967
   1590000   244.91948     -44242.472     -50222.381     -87.934031      0.0095293141   7.95           0.0019058628 
   1591000   246.5033      -44202.958     -50221.537     -658.10481      0.064349293    7.955          0.012869859  
   1592000   245.33463     -44307.12      -50297.165     -141.59252      0.013674682    7.96           0.0027349364 
   1593000   245.81204     -44208.293     -50209.994     -314.4896       0.030194855    7.965          0.006038971  
   1594000   245.03064     -44241.021     -50223.644     -311.78674      0.030099064    7.97           0.0060198127 
   1595000   243.33418     -44250.227     -50191.43      -99.911424      0.0055088577   7.975          0.0011017715 
   1596000   247.12021     -44194.597     -50228.239     -471.50499      0.043907279    7.98           0.0087814559 
   1597000   244.30331     -44141.47      -50106.335     -238.9371       0.022408785    7.985          0.004481757  
   1598000   248.35818     -44048.748     -50112.616     -226.29509      0.02233821     7.99           0.004467642  
   1599000   247.69002     -44180.869     -50228.423     -18.160383      0.0012887221   7.995          0.00025774443
   1600000   246.83327     -44124.399     -50151.034     -233.99695      0.022692716    8              0.0045385432 
Loop time of 487.989 on 56 procs for 100000 steps with 12288 atoms

Performance: 17.705 ns/day, 1.356 hours/ns, 204.923 timesteps/s, 2.518 Matom-step/s
99.8% CPU use with 56 MPI tasks x no OpenMP threads

MPI task timing breakdown:
Section |  min time  |  avg time  |  max time  |%varavg| %total
---------------------------------------------------------------
Pair    | 185.4      | 194.31     | 200.89     |  27.3 | 39.82
Bond    | 0.012736   | 0.024733   | 0.035771   |   3.0 |  0.01
Kspace  | 150.75     | 157.89     | 165.66     |  31.8 | 32.36
Neigh   | 22.273     | 22.287     | 22.299     |   0.1 |  4.57
Comm    | 15.935     | 17.517     | 19.297     |  20.5 |  3.59
Output  | 0.22446    | 0.40186    | 0.57193    |  16.2 |  0.08
Modify  | 72.645     | 79.872     | 92.942     |  54.5 | 16.37
Other   |            | 15.68      |            |       |  3.21

Nlocal:        219.429 ave         233 max         201 min
Histogram: 2 2 5 2 6 9 13 8 5 4
Nghost:        6851.96 ave        6931 max        6794 min
Histogram: 5 6 11 5 8 7 6 4 1 3
Neighs:        96043.6 ave      103021 max       87600 min
Histogram: 4 4 3 2 7 7 12 10 5 2

Total # of neighbors = 5378444
Ave neighs/atom = 437.69889
Ave special neighs/atom = 2
Neighbor list builds = 1905
Dangerous builds = 0
kspace_style pppm/tip4p 1.0e-5
next nloop
jump SELF loop_start
run 100000 # 100ps
PPPM initialization ...
  extracting TIP4P info from pair style
  using 12-bit tables for long-range coulomb
  G vector (1/distance) = 0.32815664
  grid = 50 50 50
  stencil order = 5
  estimated absolute RMS force accuracy = 0.0035802102
  estimated relative force accuracy = 1.0781697e-05
  using double precision KISS FFT
  3d grid and FFT values/proc = 11424 2800
Generated 0 of 1 mixed pair_coeff terms from geometric mixing rule
Per MPI rank memory allocation (min/avg/max) = 10.91 | 11.03 | 11.12 Mbytes
   Step          Temp          TotEng         PotEng          Pxy           v_sxy         v_strain     v_viscosity  
   1600000   246.83327     -44124.39      -50151.025     -222.77638      0.021555791    8              0.0043111583 
   1601000   245.59802     -44109.101     -50105.577     -219.74528      0.022715081    8.005          0.0045430162 
   1602000   246.64518     -44091.65      -50113.693     -92.87155       0.012731805    8.01           0.0025463611 
   1603000   246.08239     -44220.406     -50228.708     -182.1721       0.017951499    8.015          0.0035902999 
   1604000   246.63915     -44274.176     -50296.072     -244.86096      0.019914114    8.02           0.0039828228 
   1605000   245.30582     -44146.017     -50135.359     -139.64417      0.014282372    8.025          0.0028564744 
   1606000   242.22591     -44322.496     -50236.639     -626.21133      0.065335066    8.03           0.013067013  
   1607000   246.28907     -44241.05      -50254.398     -217.92408      0.018994949    8.035          0.0037989899 
   1608000   245.94653     -44197.385     -50202.37      -403.82049      0.041966083    8.04           0.0083932165 
   1609000   244.95763     -44374.079     -50354.919      4.9062872     -0.0031076179   8.045         -0.00062152358
   1610000   250.19668     -44182.053     -50290.809     -106.96259      0.012466832    8.05           0.0024933663 
   1611000   243.00967     -44347.924     -50281.203     -142.25687      0.012001398    8.055          0.0024002796 
   1612000   248.54019     -44232.181     -50300.492     -376.52306      0.03787276     8.06           0.007574552  
   1613000   246.35043     -44375.313     -50390.16      -139.20292      0.015348966    8.065          0.0030697932 
   1614000   248.64243     -44150.5       -50221.307     -440.93264      0.049027532    8.07           0.0098055065 
   1615000   246.925       -44281.64      -50310.515     -352.39918      0.03532729     8.075          0.007065458  
   1616000   247.00941     -44220.779     -50251.715     -347.00045      0.033086013    8.08           0.0066172027 
   1617000   242.17036     -44284.014     -50196.801     -534.46708      0.053715425    8.085          0.010743085  
   1618000   247.7288      -44091.979     -50140.48      -317.36104      0.02842364     8.09           0.005684728  
   1619000   242.54835     -44199.889     -50121.905     -182.65763      0.017523616    8.095          0.0035047232 
   1620000   247.1451      -44186.96      -50221.209     -342.6786       0.03246839     8.1            0.0064936779 
   1621000   243.94569     -44387.429     -50343.562     -398.75682      0.039725319    8.105          0.0079450638 
   1622000   247.22521     -44164.737     -50200.942     -136.55417      0.013458235    8.11           0.002691647  
   1623000   243.82301     -44145.947     -50099.085     -136.45058      0.014650264    8.115          0.0029300527 
   1624000   245.89309     -44162.382     -50166.062     -105.42788      0.011320388    8.12           0.0022640776 
   1625000   246.19739     -44081.095     -50092.205     -381.17951      0.035240751    8.125          0.0070481502 
   1626000   243.23197     -44130.264     -50068.971     -152.91754      0.016165691    8.13           0.0032331382 
   1627000   243.31662     -44290.886     -50231.66      -195.21908      0.019644055    8.135          0.003928811  
   1628000   248.39246     -44153.261     -50217.966     -77.249543      0.0066254703   8.14           0.0013250941 
   1629000   249.71635     -44067.972     -50165         -399.66899      0.040398038    8.145          0.0080796077 
   1630000   242.06397     -44252.189     -50162.378     -664.18654      0.064254724    8.15           0.012850945  
   1631000   245.64875     -44110.314     -50108.028     -348.91346      0.02770559     8.155          0.0055411179 
   1632000   246.34113     -44380.161     -50394.78      -264.18402      0.028257812    8.16           0.0056515623 
   1633000   244.88469     -44305.005     -50284.064     -258.4641       0.023945585    8.165          0.0047891171 
   1634000   244.91497     -44233.058     -50212.856      16.633949     -0.0012646644   8.17          -0.00025293289
   1635000   247.93402     -44207.987     -50261.498     -431.81492      0.042509683    8.175          0.0085019366 
   1636000   246.29454     -44270.049     -50283.531     -315.34164      0.029978544    8.18           0.0059957087 
   1637000   246.55065     -44372.361     -50392.097      174.77993     -0.016277773    8.185         -0.0032555545 
   1638000   248.56467     -44405.175     -50474.084     -216.00412      0.023577019    8.19           0.0047154038 
   1639000   246.67355     -44377.699     -50400.435     -168.46559      0.013724043    8.195          0.0027448085 
   1640000   247.10827     -44372.092     -50405.441     -470.92468      0.0478671      8.2            0.0095734199 
   1641000   241.67452     -44546.489     -50447.17      -291.65961      0.026968817    8.205          0.0053937634 
   1642000   248.28456     -44121.896     -50183.965     -330.99296      0.033824697    8.21           0.0067649393 
   1643000   246.83268     -44304.521     -50331.142     -266.27159      0.026490605    8.215          0.005298121  
   1644000   250.75896     -44240.791     -50363.275     -94.876003      0.0083690941   8.22           0.0016738188 
   1645000   242.56526     -44289.168     -50211.596     -111.69924      0.010049511    8.225          0.0020099022 
   1646000   241.90822     -44383.479     -50289.866     -308.82929      0.031286987    8.23           0.0062573973 
   1647000   243.56727     -44259.848     -50206.741     -393.65359      0.040153734    8.235          0.0080307468 
   1648000   247.01349     -44286.088     -50317.123      64.442918     -0.0060400716   8.24          -0.0012080143 
   1649000   248.35127     -44171.203     -50234.901     -183.656        0.017963078    8.245          0.0035926156 
   1650000   249.29492     -44182.361     -50269.1       -178.27086      0.016410008    8.25           0.0032820015 
   1651000   242.79652     -44410.573     -50338.648     -543.77993      0.055030289    8.255          0.011006058  
   1652000   250.96748     -44080.23      -50207.806     -255.43971      0.025508965    8.26           0.005101793  
   1653000   246.20788     -44234.214     -50245.58      -323.99997      0.030990621    8.265          0.0061981241 
   1654000   245.82322     -44110.668     -50112.642     -166.83521      0.020028157    8.27           0.0040056313 
   1655000   244.48247     -44320.611     -50289.849     -142.14529      0.016929836    8.275          0.0033859671 
   1656000   244.15392     -44334.892     -50296.109     -91.763965      0.013388998    8.28           0.0026777996 
   1657000   241.27512     -44227.035     -50117.964     -120.17031      0.012102587    8.285          0.0024205174 
   1658000   246.9442      -44104.742     -50134.086     -187.09087      0.018490963    8.29           0.0036981927 
   1659000   243.33183     -44313.624     -50254.769     -108.3113       0.010834144    8.295          0.0021668288 
   1660000   247.90481     -44167.44      -50220.238     -255.73987      0.025126889    8.3            0.0050253778 
   1661000   244.13319     -44257.915     -50218.626     -88.587473      0.0096068308   8.305          0.0019213662 
   1662000   242.51846     -44418.334     -50339.62      -242.59311      0.025326997    8.31           0.0050653994 
   1663000   244.2412      -44221.621     -50184.969     -184.35368      0.020598034    8.315          0.0041196068 
   1664000   246.2378      -44180.322     -50192.419     -282.61001      0.027549936    8.32           0.0055099871 
   1665000   249.09901     -44232.629     -50314.585     -101.96876      0.0070121388   8.325          0.0014024278 
   1666000   244.12445     -44168.265     -50128.763     -170.88368      0.017089995    8.33           0.0034179991 
   1667000   244.72937     -44153.352     -50128.619      18.294094     -0.0051477336   8.335         -0.0010295467 
   1668000   247.95182     -44055.979     -50109.924     -161.17514      0.018346882    8.34           0.0036693764 
   1669000   244.55323     -44332.926     -50303.892     -259.20301      0.02698483     8.345          0.0053969661 
   1670000   248.088       -44188.203     -50245.474     -105.80633      0.0090901461   8.35           0.0018180292 
   1671000   246.79519     -44214.513     -50240.219     -750.99103      0.073360545    8.355          0.014672109  
   1672000   243.82562     -44255.816     -50209.017      114.0906      -0.014525702    8.36          -0.0029051404 
   1673000   244.38901     -44234.507     -50201.464     -264.62664      0.027564175    8.365          0.0055128351 
   1674000   245.51638     -44270.5       -50264.983     -199.01269      0.018175257    8.37           0.0036350513 
   1675000   246.77044     -44047.911     -50073.012     -218.81506      0.02337106     8.375          0.0046742119 
   1676000   247.78841     -44222.059     -50272.015     -92.608076      0.0103046      8.38           0.00206092   
   1677000   244.8477      -44243.733     -50221.89      -28.156496      0.0042537498   8.385          0.00085074996
   1678000   244.96192     -44221.253     -50202.198     -267.00077      0.026364979    8.39           0.0052729957 
   1679000   245.47847     -44230.522     -50224.079     -258.96472      0.025927884    8.395          0.0051855767 
   1680000   248.19259     -44193.423     -50253.247     -15.937416     -0.00072521725  8.4           -0.00014504345
   1681000   247.69655     -44303.648     -50351.361      15.410883     -0.0014979128   8.405         -0.00029958257
   1682000   242.71704     -44274.028     -50200.162     -268.32715      0.027548213    8.41           0.0055096425 
   1683000   248.35771     -44202.147     -50266.003     -335.69552      0.03062785     8.415          0.00612557   
   1684000   246.75054     -44254.588     -50279.204     -67.449097      0.0039363159   8.42           0.00078726318
   1685000   245.07437     -44257.54      -50241.231     -651.66116      0.062794132    8.425          0.012558826  
   1686000   248.59638     -44156.37      -50226.054     -556.58818      0.052554963    8.43           0.010510993  
   1687000   243.20013     -44333.189     -50271.119     -408.50346      0.040913547    8.435          0.0081827093 
   1688000   244.62179     -44283.398     -50256.038     -547.45161      0.054916932    8.44           0.010983386  
   1689000   246.69011     -44163.715     -50186.855     -630.18912      0.061337345    8.445          0.012267469  
   1690000   244.51192     -44226.099     -50196.056     -564.98231      0.055041829    8.45           0.011008366  
   1691000   250.0674      -44064.037     -50169.636     -293.79204      0.029544251    8.455          0.0059088502 
   1692000   244.03649     -44226.143     -50184.493      37.075429      0.00096498193  8.46           0.00019299639
   1693000   249.54258     -43906.183     -49998.969     -511.48463      0.05434154     8.465          0.010868308  
   1694000   247.82222     -44066.432     -50117.213     -517.37924      0.052248936    8.47           0.010449787  
   1695000   244.36373     -43997.486     -49963.825     -334.10927      0.032652714    8.475          0.0065305428 
   1696000   247.09802     -44215.509     -50248.609     -161.83573      0.01496669     8.48           0.0029933381 
   1697000   246.52013     -44000.463     -50019.453      5.4155629     -0.0020868114   8.485         -0.00041736228
   1698000   242.18246     -44058.159     -49971.241     -478.41685      0.048734323    8.49           0.0097468645 
   1699000   244.90289     -44245.038     -50224.542     -462.81092      0.046526606    8.495          0.0093053211 
   1700000   244.91797     -44160.633     -50140.505     -253.05777      0.026633445    8.5            0.0053266889 
Loop time of 414.594 on 56 procs for 100000 steps with 12288 atoms

Performance: 20.840 ns/day, 1.152 hours/ns, 241.200 timesteps/s, 2.964 Matom-step/s
99.8% CPU use with 56 MPI tasks x no OpenMP threads

MPI task timing breakdown:
Section |  min time  |  avg time  |  max time  |%varavg| %total
---------------------------------------------------------------
Pair    | 185.68     | 192.02     | 198.79     |  21.5 | 46.32
Bond    | 0.011604   | 0.021746   | 0.031051   |   2.8 |  0.01
Kspace  | 107.57     | 115.55     | 121.67     |  29.0 | 27.87
Neigh   | 22.232     | 22.243     | 22.253     |   0.1 |  5.36
Comm    | 14.825     | 15.817     | 17.082     |  15.4 |  3.82
Output  | 0.22473    | 0.40325    | 0.57344    |  16.3 |  0.10
Modify  | 50.959     | 56.039     | 65.742     |  46.0 | 13.52
Other   |            | 12.5       |            |       |  3.01

Nlocal:        219.429 ave         234 max         199 min
Histogram: 1 2 3 5 11 7 6 7 10 4
Nghost:         7301.5 ave        7369 max        7226 min
Histogram: 2 2 4 8 12 7 7 7 5 2
Neighs:        96055.7 ave      102545 max       87538 min
Histogram: 3 1 5 7 8 5 6 10 5 6

Total # of neighbors = 5379118
Ave neighs/atom = 437.75374
Ave special neighs/atom = 2
Neighbor list builds = 1915
Dangerous builds = 0
kspace_style pppm/tip4p 1.0e-5
next nloop
jump SELF loop_start
run 100000 # 100ps
PPPM initialization ...
  extracting TIP4P info from pair style
  using 12-bit tables for long-range coulomb
  G vector (1/distance) = 0.32815664
  grid = 50 75 50
  stencil order = 5
  estimated absolute RMS force accuracy = 0.0035802102
  estimated relative force accuracy = 1.0781697e-05
  using double precision KISS FFT
  3d grid and FFT values/proc = 15776 4000
Generated 0 of 1 mixed pair_coeff terms from geometric mixing rule
Per MPI rank memory allocation (min/avg/max) = 11.21 | 11.34 | 11.45 Mbytes
   Step          Temp          TotEng         PotEng          Pxy           v_sxy         v_strain     v_viscosity  
   1700000   244.91719     -44160.614     -50140.467     -241.74486      0.025482242    8.5            0.0050964484 
   1701000   248.17694     -44018.235     -50077.677     -344.62414      0.031274887    8.505          0.0062549774 
   1702000   244.99707     -44133.59      -50115.393     -370.70881      0.034727349    8.51           0.0069454697 
   1703000   244.68015     -44127.604     -50101.669     -140.69068      0.014915091    8.515          0.0029830182 
   1704000   248.59618     -44049.22      -50118.899     -152.18365      0.014537114    8.52           0.0029074228 
   1705000   241.60318     -44232.676     -50131.615     -283.77973      0.027865017    8.525          0.0055730034 
   1706000   247.8944      -44264.653     -50317.197     -495.74868      0.042946408    8.53           0.0085892816 
   1707000   247.88337     -44170.363     -50222.637     -467.7709       0.043455296    8.535          0.0086910592 
   1708000   243.35974     -44204.932     -50146.758     -131.18584      0.010145706    8.54           0.0020291411 
   1709000   247.55014     -44158.072     -50202.21      -357.90981      0.030377648    8.545          0.0060755297 
   1710000   249.58798     -44236.073     -50329.967     -458.78751      0.047217753    8.55           0.0094435506 
   1711000   245.33065     -44270.083     -50260.031     -599.44462      0.060225683    8.555          0.012045137  
   1712000   243.40439     -44304.801     -50247.717     -199.13724      0.01756887     8.56           0.003513774  
   1713000   243.26316     -44140.14      -50079.609     -209.5184       0.021115129    8.565          0.0042230259 
   1714000   247.99879     -44143.641     -50198.733      24.821764      0.0006006714   8.57           0.00012013428
   1715000   245.74642     -44278.765     -50278.864     -290.51494      0.032742833    8.575          0.0065485665 
   1716000   245.16481     -44258.686     -50244.585     -384.26243      0.042033673    8.58           0.0084067346 
   1717000   247.23031     -44104.113     -50140.443     -371.86515      0.031999541    8.585          0.0063999083 
   1718000   243.29163     -44169.938     -50110.101     -457.26471      0.049304236    8.59           0.0098608473 
   1719000   245.55603     -44167.882     -50163.333     -278.73479      0.028499445    8.595          0.005699889  
   1720000   243.93221     -44218.571     -50174.375     -331.59364      0.032270166    8.6            0.0064540332 
   1721000   242.3467      -44304.049     -50221.141     -276.74365      0.025788782    8.605          0.0051577564 
   1722000   243.99788     -44228.757     -50186.164     -60.136487      0.0083597538   8.61           0.0016719508 
   1723000   244.68572     -44364.705     -50338.906     -262.30271      0.024268683    8.615          0.0048537365 
   1724000   249.16103     -44160.969     -50244.438     -476.65943      0.044454149    8.62           0.0088908297 
   1725000   244.88082     -44258.532     -50237.497     -260.32442      0.028602376    8.625          0.0057204751 
   1726000   245.60293     -44183.364     -50179.96      -488.79265      0.052387815    8.63           0.010477563  
   1727000   245.01716     -44283.919     -50266.213     -381.47649      0.036784467    8.635          0.0073568934 
   1728000   247.19465     -44258.065     -50293.524     -548.71941      0.05267701     8.64           0.010535402  
   1729000   242.94873     -44293.894     -50225.686     -85.003243      0.0031282969   8.645          0.00062565938
   1730000   242.21482     -44330.197     -50244.07      -217.6805       0.024043738    8.65           0.0048087477 
   1731000   248.58287     -44064.802     -50134.156     -387.87809      0.03794914     8.655          0.007589828  
   1732000   248.06374     -44144.675     -50201.353     -422.31491      0.043558084    8.66           0.0087116169 
   1733000   246.40245     -44130.743     -50146.86      -185.58966      0.018694737    8.665          0.0037389474 
   1734000   240.9826      -44225.786     -50109.573     -311.4691       0.030576965    8.67           0.0061153931 
   1735000   243.21414     -44266.874     -50205.146     -153.94882      0.018296512    8.675          0.0036593023 
   1736000   245.94389     -44197.463     -50202.384     -248.9182       0.025429396    8.68           0.0050858792 
   1737000   244.4108      -44098.742     -50066.231     -292.30674      0.028847897    8.685          0.0057695793 
   1738000   248.29111     -44241.83      -50304.06      -216.51396      0.021630899    8.69           0.0043261798 
   1739000   248.38832     -44227.317     -50291.92      -398.75965      0.038832614    8.695          0.0077665229 
   1740000   245.78061     -44434.284     -50435.218     -394.42077      0.041265237    8.7            0.0082530474 
   1741000   244.43382     -44326.137     -50294.188     -25.007984      0.0058394975   8.705          0.0011678995 
   1742000   248.08468     -44230.354     -50287.544     -230.01892      0.023101634    8.71           0.0046203269 
   1743000   244.95411     -44398.226     -50378.98      -135.74293      0.0096311021   8.715          0.0019262204 
   1744000   244.89704     -44372.847     -50352.207     -410.62866      0.043050456    8.72           0.0086100911 
   1745000   243.53396     -44503.952     -50450.032     -444.96345      0.039438737    8.725          0.0078877473 
   1746000   243.36902     -44272.142     -50214.195     -398.43162      0.038936794    8.73           0.0077873587 
   1747000   244.04277     -44305.914     -50264.417     -271.96405      0.028671596    8.735          0.0057343193 
   1748000   244.30187     -44388.32      -50353.149     -598.25798      0.057319475    8.74           0.011463895  
   1749000   247.04695     -44247.389     -50279.242     -39.557504      0.0017274669   8.745          0.00034549338
   1750000   248.53976     -44122.861     -50191.162     -283.18642      0.029288414    8.75           0.0058576828 
   1751000   246.44587     -44417.905     -50435.082     -305.75011      0.027969042    8.755          0.0055938085 
   1752000   246.11737     -44211.79      -50220.946     -136.40338      0.00961502     8.76           0.001923004  
   1753000   246.5247      -44339.008     -50358.109     -538.8156       0.054912759    8.765          0.010982552  
   1754000   246.39415     -44286.349     -50302.263     -677.06865      0.06616792     8.77           0.013233584  
   1755000   243.47183     -44514.09      -50458.653     -299.67262      0.027284244    8.775          0.0054568488 
   1756000   246.33966     -44353.939     -50368.523     -361.20739      0.036565247    8.78           0.0073130494 
   1757000   246.27364     -44335.037     -50348.009     -387.6394       0.037999017    8.785          0.0075998034 
   1758000   243.77822     -44554.197     -50506.241     -252.34654      0.029693113    8.79           0.0059386225 
   1759000   246.61219     -44361.044     -50382.282     -164.49088      0.015746563    8.795          0.0031493126 
   1760000   246.46448     -44308.397     -50326.028     -237.75385      0.020153247    8.8            0.0040306495 
   1761000   247.12944     -44269.201     -50303.068     -241.92203      0.023099824    8.805          0.0046199647 
   1762000   246.78595     -44275.739     -50301.219     -322.24743      0.028019492    8.81           0.0056038984 
   1763000   246.51287     -44325.955     -50344.768     -258.65845      0.023259419    8.815          0.0046518838 
   1764000   246.57861     -44274.718     -50295.136     -213.96226      0.020045745    8.82           0.0040091491 
   1765000   245.84425     -44193.381     -50195.869     -257.35337      0.025107282    8.825          0.0050214563 
   1766000   241.62099     -44414.367     -50313.74      -381.73013      0.039249349    8.83           0.0078498698 
   1767000   244.39858     -44368.483     -50335.673      97.347135     -0.011210289    8.835         -0.0022420578 
   1768000   245.54461     -44346.399     -50341.571      106.54364     -0.014406664    8.84          -0.0028813327 
   1769000   245.92714     -44205.22      -50209.731     -399.78112      0.035591792    8.845          0.0071183583 
   1770000   247.4753      -44382.327     -50424.639     -549.62356      0.055644331    8.85           0.011128866  
   1771000   245.33015     -44276.76      -50266.696     -319.30758      0.031596684    8.855          0.0063193369 
   1772000   245.80134     -44303.097     -50304.538     -218.96715      0.023115014    8.86           0.0046230027 
   1773000   247.31776     -44275.053     -50313.518     -606.38901      0.058113614    8.865          0.011622723  
   1774000   246.2221      -44277.341     -50289.054     -587.28425      0.05364011     8.87           0.010728022  
   1775000   243.94991     -44397.9       -50354.136     -325.53538      0.030858217    8.875          0.0061716435 
   1776000   248.19425     -44323.577     -50383.442     -190.53151      0.017433816    8.88           0.0034867632 
   1777000   244.90687     -44433.636     -50413.237     -431.67907      0.040256       8.885          0.0080512    
   1778000   247.871       -44306.713     -50358.685     -253.99082      0.020753948    8.89           0.0041507896 
   1779000   245.89216     -44273.554     -50277.211     -318.84237      0.027264673    8.895          0.0054529345 
   1780000   240.73578     -44451.213     -50328.973     -437.8754       0.043744829    8.9            0.0087489657 
   1781000   246.80214     -44374.238     -50400.113     -41.53211       0.0064515905   8.905          0.0012903181 
   1782000   246.8491      -44414.563     -50441.585     -257.57555      0.024942424    8.91           0.0049884848 
   1783000   249.1401      -44435.724     -50518.683     -300.69999      0.027180615    8.915          0.005436123  
   1784000   242.35306     -44434.736     -50351.984     -217.12046      0.019298442    8.92           0.0038596883 
   1785000   244.19696     -44317.898     -50280.165     -163.40418      0.014742706    8.925          0.0029485412 
   1786000   244.43346     -44264.101     -50232.143     -55.592048      0.0098187404   8.93           0.0019637481 
   1787000   245.07975     -44338.942     -50322.764     -358.43575      0.036735129    8.935          0.0073470259 
   1788000   245.59717     -44349.607     -50346.063      142.59176     -0.014732657    8.94          -0.0029465315 
   1789000   245.82494     -44445.809     -50447.825     -360.02127      0.039875896    8.945          0.0079751793 
   1790000   245.27517     -44388.934     -50377.527     -225.37404      0.024207332    8.95           0.0048414663 
   1791000   243.92745     -44508.559     -50464.246     -133.28645      0.014602064    8.955          0.0029204128 
   1792000   246.38382     -44358.135     -50373.797     -121.48659      0.012500399    8.96           0.0025000799 
   1793000   244.31867     -44349.877     -50315.117     -183.42519      0.019047303    8.965          0.0038094606 
   1794000   246.20571     -44415.581     -50426.894     -449.16324      0.046586491    8.97           0.0093172981 
   1795000   245.90961     -44418.028     -50422.111     -301.68441      0.027325826    8.975          0.0054651651 
   1796000   246.54238     -44368.115     -50387.649     -319.40386      0.03105612     8.98           0.006211224  
   1797000   243.43493     -44479.013     -50422.676     -385.20814      0.038671476    8.985          0.0077342952 
   1798000   245.45528     -44200.411     -50193.402     -343.31641      0.034553318    8.99           0.0069106636 
   1799000   245.02919     -44374.313     -50356.9       -146.79094      0.010659018    8.995          0.0021318035 
   1800000   248.04742     -44350.601     -50406.881     -190.90158      0.01845968     9              0.0036919359 
Loop time of 487.282 on 56 procs for 100000 steps with 12288 atoms

Performance: 17.731 ns/day, 1.354 hours/ns, 205.220 timesteps/s, 2.522 Matom-step/s
99.8% CPU use with 56 MPI tasks x no OpenMP threads

MPI task timing breakdown:
Section |  min time  |  avg time  |  max time  |%varavg| %total
---------------------------------------------------------------
Pair    | 184.13     | 194.12     | 204.22     |  26.2 | 39.84
Bond    | 0.012956   | 0.02445    | 0.035517   |   3.1 |  0.01
Kspace  | 146.86     | 157.78     | 166.5      |  29.2 | 32.38
Neigh   | 22.052     | 22.064     | 22.076     |   0.1 |  4.53
Comm    | 16.037     | 17.543     | 19.249     |  21.3 |  3.60
Output  | 0.22434    | 0.40139    | 0.57074    |  16.2 |  0.08
Modify  | 72.758     | 79.808     | 92.928     |  53.7 | 16.38
Other   |            | 15.54      |            |       |  3.19

Nlocal:        219.429 ave         236 max         203 min
Histogram: 3 5 3 10 9 5 8 8 2 3
Nghost:         6842.8 ave        6906 max        6775 min
Histogram: 1 5 1 7 10 14 7 6 3 2
Neighs:        96055.8 ave      103764 max       87314 min
Histogram: 2 4 4 6 9 11 5 8 4 3

Total # of neighbors = 5379126
Ave neighs/atom = 437.75439
Ave special neighs/atom = 2
Neighbor list builds = 1896
Dangerous builds = 0
kspace_style pppm/tip4p 1.0e-5
next nloop
jump SELF loop_start
run 100000 # 100ps
PPPM initialization ...
  extracting TIP4P info from pair style
  using 12-bit tables for long-range coulomb
  G vector (1/distance) = 0.32815664
  grid = 50 50 50
  stencil order = 5
  estimated absolute RMS force accuracy = 0.0035802102
  estimated relative force accuracy = 1.0781697e-05
  using double precision KISS FFT
  3d grid and FFT values/proc = 11424 2800
Generated 0 of 1 mixed pair_coeff terms from geometric mixing rule
Per MPI rank memory allocation (min/avg/max) = 10.92 | 11.03 | 11.12 Mbytes
   Step          Temp          TotEng         PotEng          Pxy           v_sxy         v_strain     v_viscosity  
   1800000   248.05284     -44350.47      -50406.883     -178.95309      0.017235229    9              0.0034470458 
   1801000   244.56492     -44398.99      -50370.242     -287.68067      0.029956346    9.005          0.0059912691 
   1802000   245.79906     -44281.412     -50282.796     -433.45875      0.044229449    9.01           0.0088458897 
   1803000   243.00207     -44463.844     -50396.938     -255.87855      0.024734217    9.015          0.0049468433 
   1804000   249.51293     -44433.531     -50525.593     -197.16433      0.02020823     9.02           0.0040416459 
   1805000   249.58891     -44206.35      -50300.266     -173.33087      0.018488374    9.025          0.0036976748 
   1806000   245.09225     -44367.786     -50351.913     -720.08873      0.070898064    9.03           0.014179613  
   1807000   246.92234     -44342.294     -50371.105     -401.42974      0.040905599    9.035          0.0081811197 
   1808000   247.19989     -44375.357     -50410.943     -542.78196      0.0567705      9.04           0.0113541    
   1809000   245.62403     -44351.057     -50348.168     -838.77398      0.083110928    9.045          0.016622186  
   1810000   244.99309     -44499.043     -50480.749     -300.91871      0.029190751    9.05           0.0058381503 
   1811000   245.77496     -44366.122     -50366.918     -667.49331      0.067779001    9.055          0.0135558    
   1812000   247.24163     -44240.156     -50276.762     -491.88151      0.050038112    9.06           0.010007622  
   1813000   245.77165     -44335.271     -50335.986     -647.61415      0.062844916    9.065          0.012568983  
   1814000   241.95236     -44425.956     -50333.421     -428.68651      0.038511089    9.07           0.0077022178 
   1815000   249.0856      -44210.722     -50292.35      -349.88137      0.033857263    9.075          0.0067714525 
   1816000   245.85586     -44337.589     -50340.36      -304.91458      0.027596658    9.08           0.0055193317 
   1817000   246.96299     -44379.533     -50409.336     -569.18249      0.056318307    9.085          0.011263661  
   1818000   243.84806     -44386.614     -50340.363     -129.30178      0.011652846    9.09           0.0023305692 
   1819000   244.04615     -44317.278     -50275.864      76.126628     -0.0062416204   9.095         -0.0012483241 
   1820000   246.42855     -44296.295     -50313.049     -432.04227      0.043348052    9.1            0.0086696103 
   1821000   243.4702      -44404.369     -50348.892     -281.75406      0.029594491    9.105          0.0059188982 
   1822000   243.86846     -44423.277     -50377.524     -213.30345      0.024086535    9.11           0.004817307  
   1823000   246.4345      -44246.749     -50263.649     -460.31743      0.041421837    9.115          0.0082843673 
   1824000   244.647       -44278.918     -50252.174     -792.25209      0.076297178    9.12           0.015259436  
   1825000   246.63217     -44345.631     -50367.357     -452.82977      0.046258287    9.125          0.0092516575 
   1826000   246.08301     -44222.461     -50230.778     -306.34988      0.028767616    9.13           0.0057535231 
   1827000   244.05104     -44459.459     -50418.164     -130.42668      0.0135784      9.135          0.00271568   
   1828000   248.58932     -44228.349     -50297.86      -146.0103       0.013412788    9.14           0.0026825575 
   1829000   246.49514     -44259.974     -50278.354     -328.12859      0.030678106    9.145          0.0061356211 
   1830000   244.03393     -44317.39      -50275.678     -84.017327      0.0078381237   9.15           0.0015676247 
   1831000   247.57535     -44289.937     -50334.691     -285.97581      0.027050738    9.155          0.0054101477 
   1832000   244.05974     -44315.532     -50274.449     -152.54173      0.011502065    9.16           0.0023004129 
   1833000   243.09434     -44406.627     -50341.973     -87.97924       0.0089028012   9.165          0.0017805602 
   1834000   250.24502     -44226.251     -50336.187     -156.83461      0.019702148    9.17           0.0039404296 
   1835000   244.47177     -44318.502     -50287.479     -236.89941      0.018371192    9.175          0.0036742385 
   1836000   244.68672     -44213.911     -50188.136     -421.43482      0.04023482     9.18           0.0080469639 
   1837000   247.21515     -44238.503     -50274.463     -380.25137      0.036730247    9.185          0.0073460495 
   1838000   246.50295     -44078.143     -50096.713      43.331436      0.00055723898  9.19           0.0001114478 
   1839000   245.78928     -44317.838     -50318.984     -132.93314      0.0067981646   9.195          0.0013596329 
   1840000   250.63883     -44130.659     -50250.21      -690.20419      0.07088736     9.2            0.014177472  
   1841000   249.62043     -44144.422     -50239.108     -282.88882      0.032281884    9.205          0.0064563768 
   1842000   244.00791     -44399.557     -50357.209     -213.78884      0.019647025    9.21           0.0039294049 
   1843000   247.21404     -44220.655     -50256.587     -202.56233      0.021130709    9.215          0.0042261418 
   1844000   243.31392     -44416.737     -50357.444     -170.38787      0.016052389    9.22           0.0032104777 
   1845000   243.52965     -44241.626     -50187.601     -477.36001      0.042979483    9.225          0.0085958966 
   1846000   249.90072     -44137.205     -50238.734     -468.47178      0.047385828    9.23           0.0094771656 
   1847000   245.24198     -44298.427     -50286.209     -221.38531      0.018400847    9.235          0.0036801693 
   1848000   248.556       -44250.281     -50318.979     -4.8244966     -0.00074132939  9.24          -0.00014826588
   1849000   247.46079     -44163.138     -50205.095     -416.25264      0.043700107    9.245          0.0087400213 
   1850000   246.59109     -44245.666     -50266.389     -227.69466      0.023584928    9.25           0.0047169857 
   1851000   248.38779     -44143.653     -50208.243     -119.16855      0.012685818    9.255          0.0025371637 
   1852000   243.75304     -44212.269     -50163.698     -392.71807      0.041711435    9.26           0.008342287  
   1853000   245.97097     -44215.794     -50221.376     -215.00441      0.017220339    9.265          0.0034440679 
   1854000   247.9125      -44216.521     -50269.507     -273.44101      0.02780996     9.27           0.0055619921 
   1855000   243.41854     -44226.257     -50169.519     -417.4273       0.040241314    9.275          0.0080482628 
   1856000   242.69677     -44316.812     -50242.452     -310.78938      0.034197455    9.28           0.0068394909 
   1857000   245.34458     -44143.589     -50133.877     -344.68308      0.031355932    9.285          0.0062711865 
   1858000   250.79033     -44022.29      -50145.541     -395.80616      0.041883661    9.29           0.0083767322 
   1859000   245.2985      -44261.675     -50250.838     -199.20067      0.015349975    9.295          0.0030699949 
   1860000   245.47278     -44217.942     -50211.36      -602.44374      0.060425714    9.3            0.012085143  
   1861000   242.279       -44319.237     -50234.676     -195.97774      0.020616762    9.305          0.0041233524 
   1862000   245.77618     -44129.271     -50130.097     -316.14495      0.03552932     9.31           0.0071058641 
   1863000   245.71873     -44220.522     -50219.945     -440.85146      0.042151583    9.315          0.0084303166 
   1864000   244.72682     -44205.298     -50180.503     -275.18561      0.028971971    9.32           0.0057943942 
   1865000   245.3832      -44126.491     -50117.722     -327.75842      0.035892313    9.325          0.0071784626 
   1866000   248.35063     -44158.637     -50222.32      -338.59616      0.034201104    9.33           0.0068402208 
   1867000   244.68771     -44138.115     -50112.365     -113.75536      0.010670148    9.335          0.0021340295 
   1868000   245.63845     -44113.56      -50111.023     -193.27576      0.018509793    9.34           0.0037019585 
   1869000   248.31024     -44119.283     -50181.98      -411.71174      0.035873968    9.345          0.0071747936 
   1870000   244.50316     -44235.924     -50205.668     -351.4254       0.03271605     9.35           0.00654321   
   1871000   246.50335     -44069.111     -50087.691     -103.30814      0.0088803928   9.355          0.0017760786 
   1872000   239.99501     -44341.626     -50201.3        23.713462     -0.00072548492  9.36          -0.00014509698
   1873000   248.74418     -44229.054     -50302.346     -273.84248      0.027517016    9.365          0.0055034032 
   1874000   246.99574     -44135.757     -50166.359     -467.51298      0.042627361    9.37           0.0085254723 
   1875000   242.65722     -44318.084     -50242.757     -432.87718      0.042580897    9.375          0.0085161795 
   1876000   245.45852     -44441.807     -50434.877     -89.926413      0.0082217637   9.38           0.0016443527 
   1877000   244.89602     -44395.14      -50374.476     -77.607972      0.011692781    9.385          0.0023385562 
   1878000   245.73404     -44253.543     -50253.34      -211.11321      0.018816396    9.39           0.0037632791 
   1879000   242.56195     -44306.111     -50228.458     -287.34003      0.029468835    9.395          0.0058937671 
   1880000   244.74609     -44459.499     -50435.175     -96.371516      0.008593034    9.4            0.0017186068 
   1881000   245.33647     -44234.036     -50224.126     -260.00786      0.028853358    9.405          0.0057706715 
   1882000   246.72254     -44260.538     -50284.47       1.8749443     -0.00064510849  9.41          -0.0001290217 
   1883000   241.65844     -44474.457     -50374.745     -252.28919      0.022522226    9.415          0.0045044453 
   1884000   246.21255     -44225.075     -50236.555     -667.56397      0.065652693    9.42           0.013130539  
   1885000   248.25159     -44333.625     -50394.89      -559.2487       0.056601329    9.425          0.011320266  
   1886000   247.80344     -44094.718     -50145.041     -271.7087       0.023561329    9.43           0.0047122659 
   1887000   247.14306     -44058.972     -50093.172     -503.28301      0.049653646    9.435          0.0099307293 
   1888000   246.18382     -44320.527     -50331.306     -202.0479       0.015764893    9.44           0.0031529786 
   1889000   244.078       -44389.187     -50348.55      -611.87916      0.063338768    9.445          0.012667754  
   1890000   244.251       -44223.843     -50187.43      -305.07217      0.027974138    9.45           0.0055948277 
   1891000   251.77656     -44100.871     -50248.201     -378.81137      0.037752306    9.455          0.0075504611 
   1892000   246.12412     -44345.667     -50354.988     -419.46311      0.042327999    9.46           0.0084655997 
   1893000   246.19533     -44225.708     -50236.767      85.316412     -0.0095436241   9.465         -0.0019087248 
   1894000   244.22149     -44384.215     -50347.082     -159.12536      0.018055078    9.47           0.0036110156 
   1895000   246.15699     -44129.153     -50139.277     -446.2263       0.046389387    9.475          0.0092778773 
   1896000   245.88641     -44342.153     -50345.67      -317.37818      0.029762663    9.48           0.0059525327 
   1897000   244.59527     -44313.032     -50285.025     -374.89243      0.037476988    9.485          0.0074953976 
   1898000   249.65112     -44181.868     -50277.304     -425.83931      0.042116096    9.49           0.0084232192 
   1899000   241.20481     -44416.473     -50305.685     -238.09336      0.023107368    9.495          0.0046214735 
   1900000   245.63167     -44347.639     -50344.937     -181.06912      0.018323906    9.5            0.0036647812 
Loop time of 414.815 on 56 procs for 100000 steps with 12288 atoms

Performance: 20.829 ns/day, 1.152 hours/ns, 241.071 timesteps/s, 2.962 Matom-step/s
99.8% CPU use with 56 MPI tasks x no OpenMP threads

MPI task timing breakdown:
Section |  min time  |  avg time  |  max time  |%varavg| %total
---------------------------------------------------------------
Pair    | 185.45     | 191.95     | 198.28     |  23.9 | 46.27
Bond    | 0.011635   | 0.021511   | 0.030535   |   2.9 |  0.01
Kspace  | 108.63     | 115.67     | 122.45     |  30.1 | 27.88
Neigh   | 22.092     | 22.101     | 22.111     |   0.1 |  5.33
Comm    | 14.737     | 15.785     | 17.133     |  15.6 |  3.81
Output  | 0.22496    | 0.40177    | 0.57094    |  16.2 |  0.10
Modify  | 51.079     | 56.119     | 65.879     |  45.2 | 13.53
Other   |            | 12.77      |            |       |  3.08

Nlocal:        219.429 ave         236 max         199 min
Histogram: 1 2 5 4 8 12 10 9 3 2
Nghost:        7272.93 ave        7345 max        7214 min
Histogram: 3 9 6 7 9 5 4 8 2 3
Neighs:        96038.5 ave      104907 max       85818 min
Histogram: 1 2 5 7 8 11 10 6 5 1

Total # of neighbors = 5378158
Ave neighs/atom = 437.67562
Ave special neighs/atom = 2
Neighbor list builds = 1902
Dangerous builds = 0
kspace_style pppm/tip4p 1.0e-5
next nloop
jump SELF loop_start
run 100000 # 100ps
PPPM initialization ...
  extracting TIP4P info from pair style
  using 12-bit tables for long-range coulomb
  G vector (1/distance) = 0.32815664
  grid = 50 75 50
  stencil order = 5
  estimated absolute RMS force accuracy = 0.0035802102
  estimated relative force accuracy = 1.0781697e-05
  using double precision KISS FFT
  3d grid and FFT values/proc = 15776 4000
Generated 0 of 1 mixed pair_coeff terms from geometric mixing rule
Per MPI rank memory allocation (min/avg/max) = 11.21 | 11.34 | 11.45 Mbytes
   Step          Temp          TotEng         PotEng          Pxy           v_sxy         v_strain     v_viscosity  
   1900000   245.62918     -44347.704     -50344.941     -170.69645      0.017266777    9.5            0.0034533554 
   1901000   248.76738     -44320.535     -50394.393     -277.76269      0.024676271    9.505          0.0049352542 
   1902000   249.59213     -44109.566     -50203.561     -360.8191       0.034626772    9.51           0.0069253545 
   1903000   245.15062     -44293.974     -50279.526     -528.77063      0.048929696    9.515          0.0097859392 
   1904000   248.28526     -44194.628     -50256.715     -329.81871      0.034797938    9.52           0.0069595876 
   1905000   244.82722     -44290.664     -50268.32      -348.99274      0.034378371    9.525          0.0068756742 
   1906000   244.19537     -44189.93      -50152.159     -388.35566      0.038166538    9.53           0.0076333076 
   1907000   244.75619     -44272.157     -50248.079     -215.65583      0.022410351    9.535          0.0044820702 
   1908000   243.29741     -44291.965     -50232.27      -178.22589      0.016788606    9.54           0.0033577213 
   1909000   249.33213     -44199.189     -50286.836     -295.29755      0.028638701    9.545          0.0057277403 
   1910000   243.92744     -44360.781     -50316.468     -493.45994      0.0495462      9.55           0.00990924   
   1911000   246.4523      -44202.276     -50219.61      -618.19303      0.058233573    9.555          0.011646715  
   1912000   243.4464      -44338.211     -50282.154     -234.12795      0.023764334    9.56           0.0047528668 
   1913000   248.99051     -44125.413     -50204.72      -342.72632      0.035376448    9.565          0.0070752896 
   1914000   246.93171     -44255.183     -50284.222     -163.43302      0.014943546    9.57           0.0029887092 
   1915000   243.90552     -44319.417     -50274.569     -763.87605      0.075767475    9.575          0.015153495  
   1916000   246.94981     -44270.522     -50300.003     -600.60309      0.060094125    9.58           0.012018825  
   1917000   252.42337     -44110.241     -50273.363     -350.52245      0.034188497    9.585          0.0068376993 
   1918000   245.44937     -44324.999     -50317.846     -641.35747      0.063743674    9.59           0.012748735  
   1919000   246.53474     -44197.378     -50216.724     -11.506709     -0.0025368977   9.595         -0.00050737954
   1920000   249.33233     -44195.862     -50283.515     -95.066743      0.013324918    9.6            0.0026649835 
   1921000   246.15588     -44335.241     -50345.337     -439.12133      0.043080298    9.605          0.0086160597 
   1922000   245.51466     -44299.491     -50293.931     -460.27502      0.0449519      9.61           0.00899038   
   1923000   247.03183     -44231.306     -50262.789     -245.88324      0.024471591    9.615          0.0048943181 
   1924000   244.73082     -44287.194     -50262.496     -369.34895      0.037133031    9.62           0.0074266062 
   1925000   244.43766     -44181.621     -50149.766     -395.21899      0.041231271    9.625          0.0082462543 
   1926000   243.15815     -44294.686     -50231.591     -298.43163      0.024968494    9.63           0.0049936989 
   1927000   249.4668      -44060.089     -50151.025      143.85381     -0.016466114    9.635         -0.0032932229 
   1928000   244.15146     -44298.165     -50259.322     -17.880226      0.0014082937   9.64           0.00028165874
   1929000   247.06586     -44230.135     -50262.449     -289.1176       0.026622628    9.645          0.0053245257 
   1930000   245.03387     -44444.63      -50427.332     -101.94948      0.011845886    9.65           0.0023691773 
   1931000   249.01464     -44173.692     -50253.587     -350.07368      0.031657334    9.655          0.0063314669 
   1932000   246.19691     -44382.886     -50393.984      95.166968     -0.0078620999   9.66          -0.00157242   
   1933000   250.10901     -44217.124     -50323.74       81.717755     -0.010693332    9.665         -0.0021386663 
   1934000   244.51315     -44218.156     -50188.144     -317.99667      0.035252069    9.67           0.0070504137 
   1935000   247.35703     -44190.801     -50230.225     -104.69268      0.011359957    9.675          0.0022719914 
   1936000   243.15747     -44386.673     -50323.561     -351.02392      0.034743151    9.68           0.0069486301 
   1937000   243.49227     -44291.17      -50236.232     -29.369867      0.0007364035   9.685          0.0001472807 
   1938000   249.66784     -44003.76      -50099.604      3.6679923     -0.0034553983   9.69          -0.00069107965
   1939000   247.12206     -44391.146     -50424.832      75.153345     -0.013911535    9.695         -0.0027823071 
   1940000   245.1048      -44318.146     -50302.579     -233.11732      0.02164391     9.7            0.0043287819 
   1941000   243.7705      -44284.457     -50236.312     -157.21321      0.014872254    9.705          0.0029744507 
   1942000   246.45607     -44231.836     -50249.262     -177.95055      0.016560664    9.71           0.0033121329 
   1943000   244.45004     -44305.695     -50274.142     -632.48419      0.062925603    9.715          0.012585121  
   1944000   246.26627     -44259.231     -50272.023     -479.60854      0.044251958    9.72           0.0088503916 
   1945000   245.17289     -44248.091     -50234.187     -403.29069      0.040271467    9.725          0.0080542934 
   1946000   246.19025     -44264.074     -50275.009     -464.82965      0.047797978    9.73           0.0095595956 
   1947000   244.39708     -44125.211     -50092.365     -444.78232      0.041685953    9.735          0.0083371906 
   1948000   246.37427     -44332.767     -50348.195     -288.20884      0.026792139    9.74           0.0053584278 
   1949000   247.41723     -44207.394     -50248.287     -336.44954      0.032209937    9.745          0.0064419874 
   1950000   247.43031     -44295.815     -50337.028     -203.42389      0.023060642    9.75           0.0046121283 
   1951000   245.15607     -44224.353     -50210.039     -4.5710247     -0.00060029904  9.755         -0.00012005981
   1952000   247.34846     -44372.901     -50412.116     -433.02164      0.041612445    9.76           0.0083224889 
   1953000   243.90649     -44298.189     -50253.364     -490.59455      0.048529756    9.765          0.0097059512 
   1954000   246.7663      -44315.702     -50340.702     -356.45655      0.036184128    9.77           0.0072368255 
   1955000   246.059       -44196.778     -50204.509     -449.57461      0.046573442    9.775          0.0093146883 
   1956000   246.57728     -44322.974     -50343.359     -90.046231      0.0096477941   9.78           0.0019295588 
   1957000   242.04887     -44479.478     -50389.298     -349.06611      0.036294546    9.785          0.0072589092 
   1958000   244.08286     -44285.379     -50244.861      108.87159     -0.010201822    9.79          -0.0020403644 
   1959000   243.44194     -44340.561     -50284.395     -293.24323      0.027477843    9.795          0.0054955685 
   1960000   247.79839     -44161.967     -50212.167     -368.79041      0.038312271    9.8            0.0076624543 
   1961000   243.79898     -44175.399     -50127.949     -301.96517      0.02933772     9.805          0.0058675439 
   1962000   245.70688     -44201.233     -50200.367     -61.84968       0.004952082    9.81           0.0009904164 
   1963000   244.77414     -44211.695     -50188.055     -252.83629      0.023531352    9.815          0.0047062704 
   1964000   242.21431     -44301.796     -50215.656     -21.542986      0.0021200742   9.82           0.00042401485
   1965000   246.45879     -44121.197     -50138.69      -285.58744      0.032114161    9.825          0.0064228321 
   1966000   245.262       -44240.315     -50228.587     -181.25256      0.017289969    9.83           0.0034579939 
   1967000   245.04944     -44199.974     -50183.056     -306.10814      0.037938612    9.835          0.0075877224 
   1968000   246.85752     -44249.41      -50276.637     -480.79386      0.049207375    9.84           0.009841475  
   1969000   247.44815     -44104.429     -50146.077     -265.20861      0.029766316    9.845          0.0059532632 
   1970000   249.00807     -44166.907     -50246.642     -272.5359       0.027082617    9.85           0.0054165233 
   1971000   245.72464     -44186.177     -50185.744     -385.12689      0.038326126    9.855          0.0076652252 
   1972000   246.04129     -44265.65      -50272.949     -342.29604      0.03211337     9.86           0.0064226739 
   1973000   244.61145     -44283.474     -50255.862     -188.06325      0.018543007    9.865          0.0037086015 
   1974000   246.46547     -44179.961     -50197.616      88.476888     -0.0083546585   9.87          -0.0016709317 
   1975000   242.37054     -44157.815     -50075.49      -243.33343      0.023891824    9.875          0.0047783648 
   1976000   243.70907     -44297.555     -50247.911     -245.94305      0.026737877    9.88           0.0053475754 
   1977000   247.67047     -44153.714     -50200.79      -383.06663      0.036478827    9.885          0.0072957654 
   1978000   244.4656      -44149.338     -50118.165     -294.07497      0.030375222    9.89           0.0060750443 
   1979000   245.11245     -44315.303     -50299.923     -261.61818      0.026340979    9.895          0.0052681958 
   1980000   248.99224     -44189.426     -50268.774     -343.49547      0.033508866    9.9            0.0067017732 
   1981000   247.51075     -44206.822     -50249.998      170.66994     -0.014681936    9.905         -0.0029363872 
   1982000   244.78556     -44277.041     -50253.68      -346.62848      0.034895064    9.91           0.0069790128 
   1983000   247.59104     -44161.7       -50206.837     -35.489056      0.0024984363   9.915          0.00049968725
   1984000   245.08736     -44285.439     -50269.446      132.58792     -0.01216116     9.92          -0.002432232  
   1985000   243.36112     -44163.638     -50105.498     -8.6071691     -0.0029713491   9.925         -0.00059426982
   1986000   242.53099     -44142.731     -50064.323     -156.67525      0.014115894    9.93           0.0028231789 
   1987000   245.83111     -44198.274     -50200.441     -288.44685      0.027560701    9.935          0.0055121403 
   1988000   244.51517     -44343.526     -50313.563     -242.63531      0.028969154    9.94           0.0057938308 
   1989000   245.01469     -44386.266     -50368.499     -204.40442      0.023444313    9.945          0.0046888627 
   1990000   249.2766      -44128.907     -50215.198     -574.46996      0.057801799    9.95           0.01156036   
   1991000   245.05859     -44172.064     -50155.369     -118.44049      0.012764733    9.955          0.0025529467 
   1992000   247.98487     -44156.927     -50211.68      -192.88648      0.020852868    9.96           0.0041705736 
   1993000   242.35936     -44311.608     -50229.01       40.487462     -0.0081764479   9.965         -0.0016352896 
   1994000   248.41117     -44159.474     -50224.635     -380.35534      0.038710586    9.97           0.0077421172 
   1995000   246.5213      -44241.03      -50260.049     -399.12787      0.040322508    9.975          0.0080645017 
   1996000   247.82974     -44192.217     -50243.182     -238.10806      0.025166262    9.98           0.0050332525 
   1997000   244.36189     -44367.278     -50333.572     -90.960212      0.008881899    9.985          0.0017763798 
   1998000   248.16889     -44254.438     -50313.684     -504.47341      0.052036751    9.99           0.01040735   
   1999000   244.91768     -44282.7       -50262.565     -453.85957      0.044695433    9.995          0.0089390865 
   2000000   245.01397     -44308.232     -50290.447     -237.22671      0.021073184    10             0.0042146367 
Loop time of 487.174 on 56 procs for 100000 steps with 12288 atoms

Performance: 17.735 ns/day, 1.353 hours/ns, 205.266 timesteps/s, 2.522 Matom-step/s
99.8% CPU use with 56 MPI tasks x no OpenMP threads

MPI task timing breakdown:
Section |  min time  |  avg time  |  max time  |%varavg| %total
---------------------------------------------------------------
Pair    | 187.89     | 193.9      | 201.29     |  24.4 | 39.80
Bond    | 0.012231   | 0.024294   | 0.035263   |   3.1 |  0.00
Kspace  | 149.3      | 157.53     | 164.14     |  28.6 | 32.34
Neigh   | 22.143     | 22.155     | 22.165     |   0.1 |  4.55
Comm    | 16.217     | 17.422     | 18.956     |  17.9 |  3.58
Output  | 0.22469    | 0.40049    | 0.56898    |  16.1 |  0.08
Modify  | 72.921     | 80.031     | 93.369     |  53.7 | 16.43
Other   |            | 15.71      |            |       |  3.23

Nlocal:        219.429 ave         238 max         204 min
Histogram: 4 6 9 5 8 5 8 7 1 3
Nghost:        6844.23 ave        6903 max        6765 min
Histogram: 2 2 2 1 9 12 14 8 4 2
Neighs:        96061.7 ave      104866 max       88337 min
Histogram: 3 4 10 6 10 3 11 4 1 4

Total # of neighbors = 5379454
Ave neighs/atom = 437.78109
Ave special neighs/atom = 2
Neighbor list builds = 1903
Dangerous builds = 0
kspace_style pppm/tip4p 1.0e-5
next nloop
jump SELF loop_start
# run ${Ttotal}
# variable nloop loop ${nloops}
# label loop_start
# run ${stepsPerReset}
# kspace_style pppm/tip4p 1.0e-5
# next nloop
# jump SELF loop_start
Total wall time: 2:31:54
