LAMMPS (22 Jul 2025 - Update 1)
units real
atom_style full
boundary p p p

# package intel 1 omp 2

pair_style lj/cut/tip4p/long 1 2 1 1 0.1546 9.5

bond_style zero
angle_style zero
pair_modify tail yes

read_data 4096_equilibrated_${T}.data
read_data 4096_equilibrated_246.data
Reading data file ...
  triclinic box = (0 0 0) to (49.79052 49.79052 49.79052) with tilt (0 0 0)
  2 by 4 by 7 MPI processor grid
  reading atoms ...
  12288 atoms
  reading velocities ...
  12288 velocities
  scanning bonds ...
  2 = max bonds/atom
  scanning angles ...
  1 = max angles/atom
  triclinic box = (0 0 0) to (49.79052 49.79052 49.79052) with tilt (0 0 0)
  2 by 4 by 7 MPI processor grid
  reading bonds ...
  8192 bonds
  reading angles ...
  4096 angles
Finding 1-2 1-3 1-4 neighbors ...
  special bond factors lj:    0        0        0       
  special bond factors coul:  0        0        0       
     2 = max # of 1-2 neighbors
     1 = max # of 1-3 neighbors
     1 = max # of 1-4 neighbors
     2 = max # of special neighbors
  special bonds CPU = 0.004 seconds
  read_data CPU = 0.131 seconds
# read_data equilibration_NVT_${T}.data
# replicate 2 2 2

print "Initial configuration loaded."
Initial configuration loaded.
reset_timestep 0
print "Applying shear rate: ${gamma}"
Applying shear rate: 2.5e-6
change_box all triclinic
Changing box ...
  triclinic box = (0 0 0) to (49.79052 49.79052 49.79052) with tilt (0 0 0)
kspace_style pppm/tip4p 1.0e-5

pair_coeff 1 1 0.18521 3.1589 #O-O
pair_coeff * 2 0.0 0.0

bond_coeff 1 0.9572 #O-H
angle_coeff 1 104.52 #H-O-H

group gH2O type 1 2
12288 atoms in group gH2O
group gO type 1
4096 atoms in group gO

neighbor 3.0 bin
neigh_modify delay 0 every 1 check yes

timestep 1.0
fix 1 gH2O shake 1.0e-4 100 0 b 1 a 1
Finding SHAKE clusters ...
       0 = # of size 2 clusters
       0 = # of size 3 clusters
       0 = # of size 4 clusters
    4096 = # of frozen angles
  find clusters CPU = 0.004 seconds

# # 系统弛豫到平衡态
# fix fnvt_equil all nvt temp ${T} ${T} 100.0
# thermo 1000
# thermo_style custom step temp etotal pe
# thermo_modify flush yes
# run 500000 # 500 ps
# unfix fnvt_equil
# write_data 4096_equilibrated_${T}.data

# 系统剪切变形

fix fdeform all deform 1 xy erate ${gamma} remap v
fix fdeform all deform 1 xy erate 2.5e-6 remap v
fix fnvt all nvt/sllod temp ${T} ${T} 100.0
fix fnvt all nvt/sllod temp 246 ${T} 100.0
fix fnvt all nvt/sllod temp 246 246 100.0

compute tilt all temp/deform

variable L0_x equal lx
variable L0_y equal ly
variable L0_z equal lz

compute p all pressure NULL virial
variable sxy equal -c_p[4] * 1.01325e-4  # convert to GPa


variable strainInc equal 0.01
variable dt equal 1.0e-15
variable gammaSI equal ${gamma}*1e15
variable gammaSI equal 2.5e-6*1e15
variable stepsPerReset equal ceil(${strainInc}/(${gammaSI}*${dt}))
variable stepsPerReset equal ceil(0.01/(${gammaSI}*${dt}))
variable stepsPerReset equal ceil(0.01/(2500000000*${dt}))
variable stepsPerReset equal ceil(0.01/(2500000000*1e-15))
print "Steps per reset: ${stepsPerReset}"
Steps per reset: 4000

variable massAll equal mass(all)/6.022e23
variable volCm3 equal vol*1.0e-24
variable density_sys equal v_massAll/v_volCm3
variable tau_pa equal v_sxy * 1e9
variable gamma_s equal ${gamma} * 1e15
variable gamma_s equal 2.5e-6 * 1e15
variable viscosity equal v_tau_pa / v_gamma_s

variable strain equal step*${gammaSI}*${dt}
variable strain equal step*2500000000*${dt}
variable strain equal step*2500000000*1e-15

thermo 1000
thermo_style custom step temp etotal pe pxy v_sxy v_strain v_viscosity
thermo_modify flush yes

dump traj all custom 500 traj_${gamma}_${T}.lammpstrj id type xu yu zu vx vy vz # 0.5ps
dump traj all custom 500 traj_2.5e-6_${T}.lammpstrj id type xu yu zu vx vy vz 
dump traj all custom 500 traj_2.5e-6_246.lammpstrj id type xu yu zu vx vy vz 
dump_modify traj sort id
fix stress all ave/time 500 1 500 v_strain v_sxy file stress_${gamma}_${T}.data  # 每0.5ps输出一次应力和应变
fix stress all ave/time 500 1 500 v_strain v_sxy file stress_2.5e-6_${T}.data  
fix stress all ave/time 500 1 500 v_strain v_sxy file stress_2.5e-6_246.data  

# compute peratom all stress/atom NULL
# dump stress gO custom 5000 stress_${gamma}_${T}.lammpstrj id type c_peratom[1] c_peratom[2] c_peratom[3] c_peratom[4] c_peratom[5] c_peratom[6]
# dump_modify stress sort id

variable Ttotal equal 2000000 # 2.0 ns
variable nloops equal ceil(${Ttotal}/(100000))
variable nloops equal ceil(2000000/(100000))
print "Total loops: ${nloops}"
Total loops: 20

variable nloop loop ${nloops}
variable nloop loop 20
label loop_start
run 100000 # 100ps
PPPM initialization ...
  extracting TIP4P info from pair style
  using 12-bit tables for long-range coulomb
  G vector (1/distance) = 0.32815664
  grid = 50 50 50
  stencil order = 5
  estimated absolute RMS force accuracy = 0.0035802102
  estimated relative force accuracy = 1.0781697e-05
  using double precision KISS FFT
  3d grid and FFT values/proc = 11424 2800
WARNING: Communication cutoff 0 is shorter than a bond length based estimate of 4.4358. This may lead to errors. (../comm.cpp:743)
WARNING: Increasing communication cutoff to 13.6118 for TIP4P pair style (../pair_lj_cut_tip4p_long.cpp:497)
Generated 0 of 1 mixed pair_coeff terms from geometric mixing rule
Neighbor list info ...
  update: every = 1 steps, delay = 0 steps, check = yes
  max neighbors/atom: 2000, page size: 100000
  master list distance cutoff = 12.8092
  ghost atom cutoff = 13.6118
  binsize = 6.4046, bins = 8 8 8
  1 neighbor lists, perpetual/occasional/extra = 1 0 0
  (1) pair lj/cut/tip4p/long, perpetual
      attributes: half, newton on
      pair build: half/bin/newton/tri
      stencil: half/bin/3d/tri
      bin: standard
Per MPI rank memory allocation (min/avg/max) = 9.2 | 9.373 | 9.718 Mbytes
   Step          Temp          TotEng         PotEng          Pxy           v_sxy         v_strain     v_viscosity  
         0   245.46957     -44327.561     -50320.901      139.5099      -0.016153381    0             -0.0064613526 
      1000   247.13143     -44237.117     -50271.032     -100.02589      0.0083679235   0.0025         0.0033471694 
      2000   250.44686     -44278.241     -50393.106      119.42916     -0.012710606    0.005         -0.0050842424 
      3000   248.03588     -44373.582     -50429.58      -7.4043167      0.0023192867   0.0075         0.00092771468
      4000   248.89501     -44299.56      -50376.534     -68.15984       0.0074512393   0.01           0.0029804957 
      5000   242.72461     -44369.374     -50295.693      78.582171     -0.0086185663   0.0125        -0.0034474265 
      6000   247.67361     -44216.475     -50263.628     -121.99109      0.012521524    0.015          0.0050086094 
      7000   245.13419     -44505.28      -50490.431      46.418226     -0.0069798176   0.0175        -0.0027919271 
      8000   249.15433     -44180.027     -50263.333     -225.36279      0.023800094    0.02           0.0095200375 
      9000   246.31156     -44262.058     -50275.956     -218.41255      0.021032265    0.0225         0.0084129058 
     10000   244.68594     -44296.672     -50270.879     -280.71217      0.029534714    0.025          0.011813886  
     11000   245.19728     -44328.197     -50314.889     -386.28598      0.034976889    0.0275         0.013990756  
     12000   245.3736      -44408.168     -50399.164     -338.68262      0.030299998    0.03           0.012119999  
     13000   247.45848     -44287.003     -50328.903     -198.07319      0.016848802    0.0325         0.0067395206 
     14000   245.62031     -44500.788     -50497.809     -51.520637      0.0019963393   0.035          0.00079853573
     15000   245.62091     -44353.288     -50350.322     -467.71126      0.048096749    0.0375         0.0192387    
     16000   247.78254     -44315.496     -50365.309     -352.9824       0.033826352    0.04           0.013530541  
     17000   243.74412     -44271.224     -50222.435     -244.37574      0.026490268    0.0425         0.010596107  
     18000   246.44555     -44344.52      -50361.689     -191.19231      0.016107687    0.045          0.0064430747 
     19000   248.00843     -44295.94      -50351.268      121.34809     -0.010126319    0.0475        -0.0040505277 
     20000   243.07023     -44508.188     -50442.946     -395.99611      0.037348473    0.05           0.014939389  
     21000   243.90015     -44359.792     -50314.813     -254.58691      0.028028351    0.0525         0.01121134   
     22000   245.61705     -44206.062     -50203.003     -162.54322      0.01901507     0.055          0.0076060281 
     23000   244.99537     -44283.532     -50265.294     -324.45436      0.026965888    0.0575         0.010786355  
     24000   245.29217     -44256.856     -50245.865     -57.058804      0.0049590425   0.06           0.001983617  
     25000   243.96769     -44321.375     -50278.045     -209.90231      0.023477727    0.0625         0.0093910908 
     26000   243.13987     -44363.868     -50300.326     -16.965023      0.00065274044  0.065          0.00026109618
     27000   246.94646     -44193.955     -50223.354     -334.72175      0.031464257    0.0675         0.012585703  
     28000   246.82055     -44264.742     -50291.067     -182.49712      0.022075077    0.07           0.0088300309 
     29000   246.14318     -44289.545     -50299.331     -263.04903      0.026870673    0.0725         0.010748269  
     30000   246.5553      -44233.472     -50253.321     -423.94579      0.042269706    0.075          0.016907882  
     31000   247.04584     -44353.945     -50385.771     -142.3524       0.0095668805   0.0775         0.0038267522 
     32000   245.99839     -44105.429     -50111.68      -141.66933      0.013471067    0.08           0.0053884267 
     33000   243.39363     -44270.183     -50212.837     -240.12543      0.019827635    0.0825         0.0079310538 
     34000   247.4053      -44240.359     -50280.961     -120.45183      0.013420251    0.085          0.0053681004 
     35000   246.97592     -44168.189     -50198.307     -91.619112      0.0084092298   0.0875         0.0033636919 
     36000   242.20607     -44343.998     -50257.657     -114.41071      0.011143671    0.09           0.0044574683 
     37000   251.04555     -44265.132     -50394.614     -103.97921      0.0086622912   0.0925         0.0034649165 
     38000   247.00799     -44260.222     -50291.123      55.883204     -0.0057092159   0.095         -0.0022836864 
     39000   245.82923     -44367.141     -50369.262     -250.57404      0.026632005    0.0975         0.010652802  
     40000   247.40359     -44239.761     -50280.322      70.01172      -0.011303341    0.1           -0.0045213365 
     41000   248.48546     -44213.66      -50280.635     -154.00807      0.011941833    0.1025         0.0047767333 
     42000   246.84422     -44143.813     -50170.716     -284.46368      0.032929634    0.105          0.013171854  
     43000   245.12586     -44229.059     -50214.006      134.86171     -0.015424164    0.1075        -0.0061696655 
     44000   243.83141     -44280.468     -50233.81      -192.4794       0.020461302    0.11           0.0081845208 
     45000   246.52725     -44279.358     -50298.522     -98.662585      0.0070868193   0.1125         0.0028347277 
     46000   242.48266     -44382.554     -50302.966     -153.10183      0.015735404    0.115          0.0062941618 
     47000   246.23796     -44240.507     -50252.607     -154.58864      0.011860989    0.1175         0.0047443954 
     48000   246.23815     -44309.168     -50321.273     -117.62812      0.010123163    0.12           0.0040492652 
     49000   246.0111      -44327.728     -50334.29       3.8452481     -0.0003712119   0.1225        -0.00014848476
     50000   243.11291     -44311.614     -50247.414      139.76595     -0.014739582    0.125         -0.0058958326 
     51000   247.34361     -44167.547     -50206.643     -24.256965     -0.00041243905  0.1275        -0.00016497562
     52000   247.45679     -44161.516     -50203.375     -105.50198      0.0073496878   0.13           0.0029398751 
     53000   249.21415     -44260.117     -50344.883     -15.096745      0.0015675957   0.1325         0.00062703827
     54000   248.73239     -44137.658     -50210.662     -179.02668      0.01908085     0.135          0.0076323398 
     55000   247.3876      -44277.008     -50317.178     -229.22133      0.023394213    0.1375         0.0093576853 
     56000   246.23928     -44251.618     -50263.751      12.406162      0.00021252689  0.14           8.5010754e-05
     57000   245.1322      -44231.077     -50216.179     -196.50767      0.019988498    0.1425         0.0079953993 
     58000   247.44812     -44287.539     -50329.187     -292.85429      0.029613999    0.145          0.0118456    
     59000   241.94277     -44458.806     -50366.036     -393.39466      0.039889127    0.1475         0.015955651  
     60000   243.32793     -44222.703     -50163.753     -79.624809      0.005240226    0.15           0.0020960904 
     61000   244.80224     -44324.306     -50301.353     -389.20406      0.040774374    0.1525         0.016309749  
     62000   243.31971     -44238.474     -50179.324     -298.79185      0.030660712    0.155          0.012264285  
     63000   241.61508     -44396         -50295.229     -103.03834      0.013068617    0.1575         0.0052274466 
     64000   246.74338     -44256.218     -50280.659      31.005575     -0.0048268372   0.16          -0.0019307349 
     65000   243.78919     -44280.725     -50233.037     -242.22512      0.021586854    0.1625         0.0086347415 
     66000   247.97259     -44331.901     -50386.354     -157.64864      0.018478002    0.165          0.0073912008 
     67000   245.82901     -44389.202     -50391.317     -561.54835      0.055881584    0.1675         0.022352634  
     68000   250.83323     -44185.889     -50310.187     -234.63557      0.020622878    0.17           0.0082491512 
     69000   246.12278     -44423.599     -50432.887     -195.41139      0.015143193    0.1725         0.0060572771 
     70000   246.01567     -44302.418     -50309.091     -295.19475      0.028177527    0.175          0.011271011  
     71000   243.25132     -44386.764     -50325.943     -518.03191      0.051118932    0.1775         0.020447573  
     72000   244.69052     -44260.514     -50234.832     -23.793433      0.0034712219   0.18           0.0013884888 
     73000   243.89582     -44377.742     -50332.657      153.14359     -0.015679107    0.1825        -0.0062716426 
     74000   247.81634     -44221.662     -50272.3       -38.492941      0.0012917522   0.185          0.00051670087
     75000   241.73786     -44442.692     -50344.919     -45.384586      0.0056965605   0.1875         0.0022786242 
     76000   241.64132     -44277.637     -50177.506      290.54031     -0.024445256    0.19          -0.0097781026 
     77000   243.52192     -44410.029     -50355.815     -276.14709      0.025896693    0.1925         0.010358677  
     78000   245.38528     -44145.625     -50136.907      146.0784      -0.016952977    0.195         -0.0067811909 
     79000   244.00165     -44360.76      -50318.259      102.14612     -0.0084658666   0.1975        -0.0033863466 
     80000   247.77125     -44138.942     -50188.479     -348.82861      0.037774993    0.2            0.015109997  
     81000   244.22777     -44356.449     -50319.469      82.326948     -0.0084850959   0.2025        -0.0033940384 
     82000   245.50939     -44239.406     -50233.717     -185.35771      0.017334593    0.205          0.0069338372 
     83000   244.26186     -44318.704     -50282.556     -763.50705      0.075209204    0.2075         0.030083681  
     84000   249.79516     -44155.853     -50254.806     -232.46616      0.022246705    0.21           0.008898682  
     85000   243.92428     -44245.756     -50201.366      154.76391     -0.012434769    0.2125        -0.0049739074 
     86000   246.33833     -44261.287     -50275.838      25.903342     -0.0037271581   0.215         -0.0014908633 
     87000   249.63568     -44170.352     -50265.41      -68.895304      0.0076222222   0.2175         0.0030488889 
     88000   246.83295     -44252.265     -50278.893     -189.08984      0.017900174    0.22           0.0071600694 
     89000   244.96829     -44292.254     -50273.354      11.365387      0.0035238717   0.2225         0.0014095487 
     90000   244.99869     -44251.282     -50233.125     -362.83219      0.037715766    0.225          0.015086307  
     91000   244.8846      -44212.327     -50191.384      19.976432     -0.0022428718   0.2275        -0.00089714871
     92000   247.62488     -44190.867     -50236.831     -250.78752      0.021874237    0.23           0.0087496947 
     93000   246.78404     -44202.345     -50227.779     -17.853933      0.00033646213  0.2325         0.00013458485
     94000   247.4207      -44194.122     -50235.101      180.66433     -0.017750825    0.235         -0.00710033   
     95000   248.4192      -44065.028     -50130.385     -117.44736      0.0086056857   0.2375         0.0034422743 
     96000   242.64951     -44371.964     -50296.45      -262.96213      0.030209386    0.24           0.012083755  
     97000   246.96391     -44206.864     -50236.689     -134.81406      0.012899106    0.2425         0.0051596425 
     98000   249.4007      -44126.399     -50215.721     -457.87161      0.045412894    0.245          0.018165158  
     99000   245.80923     -44175.581     -50177.213     -201.92715      0.020401844    0.2475         0.0081607377 
    100000   244.56479     -44307.727     -50278.975     -123.3026       0.012324144    0.25           0.0049296577 
Loop time of 427.816 on 56 procs for 100000 steps with 12288 atoms

Performance: 20.196 ns/day, 1.188 hours/ns, 233.746 timesteps/s, 2.872 Matom-step/s
99.7% CPU use with 56 MPI tasks x no OpenMP threads

MPI task timing breakdown:
Section |  min time  |  avg time  |  max time  |%varavg| %total
---------------------------------------------------------------
Pair    | 192.57     | 200.6      | 208.88     |  25.6 | 46.89
Bond    | 0.019627   | 0.027746   | 0.044352   |   2.7 |  0.01
Kspace  | 110.29     | 119.3      | 126.71     |  34.3 | 27.89
Neigh   | 22.53      | 22.548     | 22.558     |   0.1 |  5.27
Comm    | 14.553     | 15.788     | 17.434     |  17.3 |  3.69
Output  | 0.22737    | 0.40534    | 0.57677    |  16.3 |  0.09
Modify  | 51.964     | 56.474     | 66.674     |  45.9 | 13.20
Other   |            | 12.66      |            |       |  2.96

Nlocal:        219.429 ave         242 max         200 min
Histogram: 2 1 6 10 13 15 4 3 1 1
Nghost:        6952.96 ave        7005 max        6913 min
Histogram: 4 5 9 9 8 7 5 4 3 2
Neighs:        96084.3 ave      107108 max       86068 min
Histogram: 2 1 4 12 13 12 7 3 1 1

Total # of neighbors = 5380721
Ave neighs/atom = 437.8842
Ave special neighs/atom = 2
Neighbor list builds = 1901
Dangerous builds = 0
kspace_style pppm/tip4p 1.0e-5
next nloop
jump SELF loop_start
run 100000 # 100ps
PPPM initialization ...
  extracting TIP4P info from pair style
  using 12-bit tables for long-range coulomb
  G vector (1/distance) = 0.32881326
  grid = 50 64 50
  stencil order = 5
  estimated absolute RMS force accuracy = 0.003443216
  estimated relative force accuracy = 1.0369143e-05
  using double precision KISS FFT
  3d grid and FFT values/proc = 13600 3200
Generated 0 of 1 mixed pair_coeff terms from geometric mixing rule
Per MPI rank memory allocation (min/avg/max) = 11.03 | 11.1 | 11.15 Mbytes
   Step          Temp          TotEng         PotEng          Pxy           v_sxy         v_strain     v_viscosity  
    100000   244.56525     -44307.724     -50278.984     -118.23343      0.011808022    0.25           0.0047232087 
    101000   248.79761     -44127.363     -50201.959      60.259073     -0.0037245246   0.2525        -0.0014898099 
    102000   245.41539     -44417.641     -50409.658     -236.61201      0.023467372    0.255          0.0093869486 
    103000   243.90756     -44413.993     -50369.195     -30.541451      0.0029335267   0.2575         0.0011734107 
    104000   252.3024      -44179.504     -50339.672      135.03705     -0.013627544    0.26          -0.0054510176 
    105000   241.16298     -44416.558     -50304.749     -177.16411      0.017521883    0.2625         0.0070087534 
    106000   248.93087     -44247.856     -50325.706     -99.293132      0.0099915961   0.265          0.0039966385 
    107000   245.77295     -44274.827     -50275.574     -228.62503      0.022582621    0.2675         0.0090330486 
    108000   250.33485     -44223.326     -50335.455     -106.54787      0.010386318    0.27           0.0041545273 
    109000   244.44599     -44391.503     -50359.851     -0.6580049      0.0024426115   0.2725         0.00097704461
    110000   250.05244     -44185.677     -50290.911     -129.24183      0.014921779    0.275          0.0059687117 
    111000   246.00037     -44339.055     -50345.355     -23.983738      0.0024153386   0.2775         0.00096613546
    112000   241.61283     -44428.108     -50327.282     -379.70072      0.037811263    0.28           0.015124505  
    113000   247.89454     -44244.793     -50297.34       197.63016     -0.018412938    0.2825        -0.0073651751 
    114000   242.57362     -44391.724     -50314.357      34.239172     -0.002327756    0.285         -0.00093110239
    115000   245.22824     -44290.374     -50277.822     -294.38677      0.026885179    0.2875         0.010754072  
    116000   243.24613     -44297.241     -50236.294      53.698232     -0.0074359345   0.29          -0.0029743738 
    117000   240.70468     -44442.032     -50319.033     -224.20024      0.01928096     0.2925         0.0077123841 
    118000   248.84823     -44260.124     -50335.956     -60.568798      0.0046346823   0.295          0.0018538729 
    119000   244.19674     -44527.585     -50489.847     -445.97173      0.042895256    0.2975         0.017158102  
    120000   247.01113     -44446.926     -50477.904     -173.8421       0.017321438    0.3            0.0069285751 
    121000   246.31767     -44360.257     -50374.304     -80.651179      0.0086842395   0.3025         0.0034736958 
    122000   247.22863     -44362.844     -50399.133     -170.27823      0.016292891    0.305          0.0065171564 
    123000   244.01645     -44452.392     -50410.253     -184.21577      0.017745002    0.3075         0.0070980006 
    124000   246.20778     -44279.818     -50291.182     -79.052077      0.0058362394   0.31           0.0023344957 
    125000   242.16126     -44442.087     -50354.651      224.77091     -0.02143349     0.3125        -0.0085733961 
    126000   246.0686      -44242.726     -50250.691     -13.880112      0.0031421918   0.315          0.0012568767 
    127000   242.45745     -44225.493     -50145.289     -460.15511      0.042290808    0.3175         0.016916323  
    128000   246.31093     -44329.102     -50342.984      4.4813128      0.002435454    0.32           0.00097418161
    129000   245.89064     -44256.985     -50260.605     -179.90827      0.019955833    0.3225         0.0079823333 
    130000   248.91211     -44108.049     -50185.441     -139.40086      0.012417902    0.325          0.0049671608 
    131000   249.68236     -44152.473     -50248.671     -249.31551      0.028527439    0.3275         0.011410976  
    132000   242.06251     -44460.725     -50370.878     -239.20232      0.024349927    0.33           0.0097399709 
    133000   251.89423     -44026.617     -50176.82      -14.114008      0.0045359987   0.3325         0.0018143995 
    134000   245.18928     -44386.164     -50372.66      -86.339438      0.006050407    0.335          0.0024201628 
    135000   245.0298      -44463.794     -50446.396      93.618191     -0.0079615742   0.3375        -0.0031846297 
    136000   246.61176     -44292.965     -50314.193      17.525484     -0.0046924286   0.34          -0.0018769714 
    137000   242.3321      -44377.908     -50294.644     -408.47547      0.038861455    0.3425         0.015544582  
    138000   245.11466     -44209.992     -50194.666     -368.81469      0.037776477    0.345          0.015110591  
    139000   247.74658     -44120.251     -50169.186     -289.55658      0.025164307    0.3475         0.010065723  
    140000   241.51868     -44341.161     -50238.036     -107.25198      0.013031281    0.35           0.0052125124 
    141000   249.88195     -44109.874     -50210.945      48.717469     -0.0035244017   0.3525        -0.0014097607 
    142000   244.52508     -44240.541     -50210.82      -196.50972      0.021296651    0.355          0.0085186605 
    143000   246.89776     -44123.412     -50151.622      25.749176     -0.005087355    0.3575        -0.002034942  
    144000   245.92305     -44229.286     -50233.697     -531.31885      0.052690172    0.36           0.021076069  
    145000   244.09822     -44187.208     -50147.065     -243.57538      0.022225724    0.3625         0.0088902895 
    146000   247.50825     -44203.207     -50246.322     -347.42015      0.033230044    0.365          0.013292018  
    147000   245.86143     -44238.706     -50241.614     -363.67981      0.035687341    0.3675         0.014274936  
    148000   243.55655     -44182.066     -50128.698     -186.36471      0.022935472    0.37           0.0091741889 
    149000   244.17583     -44212.986     -50174.737     -45.637322      0.0052093598   0.3725         0.0020837439 
    150000   245.40906     -44160.27      -50152.132     -237.98427      0.025076302    0.375          0.010030521  
    151000   247.03258     -44068.62      -50100.122      94.211977     -0.0096278814   0.3775        -0.0038511526 
    152000   243.9101      -44271.006     -50226.27      -245.65938      0.02195224     0.38           0.0087808958 
    153000   246.3801      -44283.34      -50298.911     -119.97799      0.016248348    0.3825         0.0064993394 
    154000   246.29263     -44245.746     -50259.181     -71.060219      0.0047407882   0.385          0.0018963153 
    155000   245.69859     -44213.558     -50212.489     -203.28805      0.02131126     0.3875         0.0085245039 
    156000   250.60905     -44045.466     -50164.29      -220.29278      0.018216458    0.39           0.0072865832 
    157000   246.01287     -44209.161     -50215.766     -73.575907      0.0048671556   0.3925         0.0019468622 
    158000   243.59483     -44275.706     -50223.272     -198.30056      0.016903533    0.395          0.0067614132 
    159000   245.34349     -44260.399     -50250.66       46.040898     -0.0066026258   0.3975        -0.0026410503 
    160000   247.65423     -44396.192     -50442.872     -124.0135       0.012357783    0.4            0.0049431132 
    161000   246.67834     -44202.803     -50225.656     -183.31076      0.021148008    0.4025         0.0084592031 
    162000   246.60762     -44266.576     -50287.702     -197.98969      0.020732484    0.405          0.0082929935 
    163000   243.5831      -44344.692     -50291.972     -372.77828      0.033300692    0.4075         0.013320277  
    164000   245.55418     -44354.57      -50349.976     -122.8842       0.012078686    0.41           0.0048314745 
    165000   248.7751      -44152.226     -50226.273     -291.51687      0.023559533    0.4125         0.0094238131 
    166000   243.44661     -44307.098     -50251.045     -102.02288      0.014293749    0.415          0.0057174995 
    167000   243.81963     -44140.139     -50093.194     -248.23424      0.022422793    0.4175         0.0089691173 
    168000   243.27343     -44258.421     -50198.14      -232.47137      0.022133789    0.42           0.0088535154 
    169000   243.16141     -44150.2       -50087.184      112.97962     -0.012374915    0.4225        -0.0049499661 
    170000   251.55759     -44023.653     -50165.636      49.672519     -0.0038077819   0.425         -0.0015231128 
    171000   244.40684     -44465.911     -50433.303     -427.52265      0.041652085    0.4275         0.016660834  
    172000   247.43212     -44164.335     -50205.592     -13.212219      0.0017938674   0.43           0.00071754696
    173000   247.91162     -44251.902     -50304.866      134.64017     -0.01165249     0.4325        -0.0046609959 
    174000   246.79419     -44239.408     -50265.09      -185.66818      0.01093652     0.435          0.0043746079 
    175000   248.91409     -44134.518     -50211.959     -177.50688      0.021818983    0.4375         0.0087275933 
    176000   247.94573     -44266.901     -50320.698     -201.45649      0.018196924    0.44           0.0072787695 
    177000   245.38013     -44199.289     -50190.445     -151.30036      0.016536149    0.4425         0.0066144595 
    178000   245.36535     -44298.405     -50289.2       -77.444124      0.008908977    0.445          0.0035635908 
    179000   243.80544     -44290.887     -50243.596     -334.61186      0.037788868    0.4475         0.015115547  
    180000   244.42363     -44387.018     -50354.82      -166.28243      0.019529044    0.45           0.0078116175 
    181000   246.67442     -44264.66      -50287.417     -89.081914      0.0070688907   0.4525         0.0028275563 
    182000   247.26269     -44153.42      -50190.54      -314.97186      0.032412312    0.455          0.012964925  
    183000   245.51767     -44365.414     -50359.928     -273.53487      0.026123849    0.4575         0.01044954   
    184000   245.51574     -44168.07      -50162.537     -468.65886      0.048344846    0.46           0.019337938  
    185000   242.55716     -44259.28      -50181.511     -143.5309       0.01669341     0.4625         0.0066773639 
    186000   248.52821     -44048.01      -50116.028      36.014229      0.00064206999  0.465          0.00025682799
    187000   246.67467     -44060.01      -50082.773     -306.38493      0.025312552    0.4675         0.010125021  
    188000   242.29569     -44211.662     -50127.509     -270.23969      0.027515092    0.47           0.011006037  
    189000   246.44655     -44208.428     -50225.622     -203.1059       0.019942364    0.4725         0.0079769454 
    190000   248.34819     -44102.813     -50166.436     -74.756286      0.010971596    0.475          0.0043886383 
    191000   247.01112     -44303.914     -50334.892     -36.69093       0.0029629401   0.4775         0.001185176  
    192000   247.89718     -44235.42      -50288.032      19.66586       0.0029367259   0.48           0.0011746903 
    193000   247.7545      -44095.142     -50144.27       110.92175     -0.0057148425   0.4825        -0.002285937  
    194000   245.43184     -44332.93      -50325.348     -304.423        0.031973936    0.485          0.012789574  
    195000   244.40675     -44374.212     -50341.602     -271.75801      0.028836179    0.4875         0.011534472  
    196000   245.93149     -44201.475     -50206.093     -288.78348      0.029195878    0.49           0.011678351  
    197000   248.10954     -44234.825     -50292.622      253.81016     -0.026496369    0.4925        -0.010598548  
    198000   248.18444     -43975.022     -50034.648     -237.05813      0.025097487    0.495          0.010038995  
    199000   243.23466     -44450.62      -50389.392     -242.36974      0.022420959    0.4975         0.0089683835 
    200000   247.34167     -44233.817     -50272.865      53.449746     -0.0071906554   0.5           -0.0028762622 
Loop time of 460.1 on 56 procs for 100000 steps with 12288 atoms

Performance: 18.779 ns/day, 1.278 hours/ns, 217.344 timesteps/s, 2.671 Matom-step/s
99.8% CPU use with 56 MPI tasks x no OpenMP threads

MPI task timing breakdown:
Section |  min time  |  avg time  |  max time  |%varavg| %total
---------------------------------------------------------------
Pair    | 191.4      | 201.63     | 211.74     |  24.5 | 43.82
Bond    | 0.021254   | 0.029296   | 0.045528   |   2.8 |  0.01
Kspace  | 130.61     | 140.07     | 149.58     |  27.6 | 30.44
Neigh   | 21.829     | 21.847     | 21.858     |   0.1 |  4.75
Comm    | 15.739     | 16.719     | 17.813     |  13.3 |  3.63
Output  | 0.22188    | 0.399      | 0.56936    |  16.3 |  0.09
Modify  | 67.054     | 70.241     | 77.088     |  30.3 | 15.27
Other   |            | 9.159      |            |       |  1.99

Nlocal:        219.429 ave         243 max         199 min
Histogram: 3 3 7 9 7 11 7 7 0 2
Nghost:        7281.55 ave        7325 max        7214 min
Histogram: 2 1 5 4 5 6 10 10 7 6
Neighs:        96064.9 ave      107407 max       85900 min
Histogram: 1 5 7 11 7 9 9 4 1 2

Total # of neighbors = 5379636
Ave neighs/atom = 437.7959
Ave special neighs/atom = 2
Neighbor list builds = 1872
Dangerous builds = 0
kspace_style pppm/tip4p 1.0e-5
next nloop
jump SELF loop_start
run 100000 # 100ps
PPPM initialization ...
  extracting TIP4P info from pair style
  using 12-bit tables for long-range coulomb
  G vector (1/distance) = 0.32815664
  grid = 50 75 50
  stencil order = 5
  estimated absolute RMS force accuracy = 0.0035802102
  estimated relative force accuracy = 1.0781697e-05
  using double precision KISS FFT
  3d grid and FFT values/proc = 15776 4000
Generated 0 of 1 mixed pair_coeff terms from geometric mixing rule
Per MPI rank memory allocation (min/avg/max) = 11.17 | 11.25 | 11.32 Mbytes
   Step          Temp          TotEng         PotEng          Pxy           v_sxy         v_strain     v_viscosity  
    200000   247.34167     -44233.796     -50272.845      58.258371     -0.0076778893   0.5           -0.0030711557 
    201000   248.70743     -44271.615     -50344.01       21.309228     -0.0046513535   0.5025        -0.0018605414 
    202000   241.62203     -44351.742     -50251.141     -68.802595      0.0082070667   0.505          0.0032828267 
    203000   245.42935     -44248.399     -50240.757      191.35453     -0.020433927    0.5075        -0.0081735707 
    204000   245.03484     -44148.08      -50130.805     -102.00672      0.0093046146   0.51           0.0037218458 
    205000   244.73172     -44333.005     -50308.329     -65.073364      0.0064833714   0.5125         0.0025933486 
    206000   247.73315     -44163.948     -50212.555     -291.6465       0.028246082    0.515          0.011298433  
    207000   249.29068     -44111.305     -50197.94      -123.99708      0.0099743619   0.5175         0.0039897448 
    208000   245.11632     -44174.346     -50159.061     -209.38329      0.018611222    0.52           0.0074444889 
    209000   244.04347     -44274.03      -50232.551      150.21143     -0.013438922    0.5225        -0.0053755689 
    210000   242.55381     -44335.411     -50257.56      -81.487837      0.0083598363   0.525          0.0033439345 
    211000   249.23205     -44083.125     -50168.328      250.36079     -0.024505826    0.5275        -0.0098023302 
    212000   247.70424     -44244.499     -50292.4       -336.64883      0.035354686    0.53           0.014141875  
    213000   246.04621     -44335.923     -50343.342      133.56032     -0.016666059    0.5325        -0.0066664236 
    214000   244.06422     -44288.206     -50247.233     -376.1239       0.034423455    0.535          0.013769382  
    215000   247.45841     -44286.079     -50327.978     -292.43187      0.026612813    0.5375         0.010645125  
    216000   244.2132      -44258.44      -50221.104      44.682136     -0.0057247076   0.54          -0.002289883  
    217000   249.24099     -44097.692     -50183.114     -324.84688      0.035526783    0.5425         0.014210713  
    218000   244.95759     -44243.994     -50224.833      128.41757     -0.011126611    0.545         -0.0044506444 
    219000   247.24842     -44140.04      -50176.812     -124.46184      0.016683905    0.5475         0.0066735621 
    220000   243.95963     -44306.212     -50262.686     -336.30215      0.030919653    0.55           0.012367861  
    221000   247.64741     -44118.977     -50165.491     -78.58183       0.0059414371   0.5525         0.0023765748 
    222000   244.91815     -44235.71      -50215.586      76.921839     -0.004474455    0.555         -0.001789782  
    223000   246.62149     -44126.951     -50148.416     -125.38986      0.011115153    0.5575         0.0044460613 
    224000   245.03463     -44182.845     -50165.565      248.77583     -0.027178488    0.56          -0.010871395  
    225000   243.86615     -44362.855     -50317.046      195.26671     -0.02177365     0.5625        -0.0087094602 
    226000   247.37391     -44078.193     -50118.029     -0.17655666    -0.00037100321  0.565         -0.00014840129
    227000   244.31233     -44343.955     -50309.039     -77.625488      0.013272667    0.5675         0.0053090666 
    228000   246.27085     -44172.607     -50185.511     -116.77624      0.0089094837   0.57           0.0035637935 
    229000   242.38971     -44383.282     -50301.425     -238.75856      0.020846475    0.5725         0.0083385901 
    230000   244.84318     -44154.91      -50132.956      0.080118602    0.0038633073   0.575          0.0015453229 
    231000   244.61208     -44122.106     -50094.509     -53.464795      0.0049204942   0.5775         0.0019681977 
    232000   246.36123     -44242.309     -50257.419     -29.54028      -0.00079960214  0.58          -0.00031984085
    233000   243.77776     -44271.86      -50223.893     -63.982494      0.0039852199   0.5825         0.001594088  
    234000   242.98434     -44269.317     -50201.977      88.538589     -0.0084808987   0.585         -0.0033923595 
    235000   242.21395     -44353.826     -50267.677      103.51887     -0.010553184    0.5875        -0.0042212735 
    236000   249.86328     -44164.042     -50264.658     -389.1872       0.036721582    0.59           0.014688633  
    237000   245.07444     -44346.391     -50330.084     -96.737554      0.0047932088   0.5925         0.0019172835 
    238000   247.41773     -44303.937     -50344.843      179.63107     -0.018377917    0.595         -0.0073511669 
    239000   242.30314     -44454.367     -50370.396      91.172957     -0.0099606728   0.5975        -0.0039842691 
    240000   250.78255     -44209.465     -50332.525     -108.03994      0.0096855282   0.6            0.0038742113 
    241000   248.60914     -44300.719     -50370.714     -14.37883       0.0026977686   0.6025         0.0010791074 
    242000   246.37087     -44374.679     -50390.025      209.19231     -0.023047278    0.605         -0.0092189112 
    243000   245.95495     -44391.351     -50396.541     -140.7793       0.012067672    0.6075         0.0048270687 
    244000   246.15089     -44177.173     -50187.147     -75.234469      0.0045418545   0.61           0.0018167418 
    245000   246.18558     -44325.643     -50336.464      16.115977     -0.00024218823  0.6125        -9.6875291e-05
    246000   243.4754      -44496.033     -50440.684     -183.62873      0.020510583    0.615          0.0082042332 
    247000   248.44496     -44308.475     -50374.461     -13.165202      0.0024786551   0.6175         0.00099146205
    248000   240.61819     -44493.122     -50368.011     -223.87146      0.018970235    0.62           0.007588094  
    249000   248.96276     -44200.268     -50278.897      5.6146127     -0.0005017769   0.6225        -0.00020071076
    250000   248.85126     -44274.542     -50350.448     -488.47652      0.050134574    0.625          0.020053829  
    251000   247.03879     -44403.627     -50435.28      -489.99439      0.050667754    0.6275         0.020267102  
    252000   247.81512     -44278.517     -50329.126     -186.77951      0.019566812    0.63           0.007826725  
    253000   245.38085     -44236.933     -50228.107     -418.67942      0.04164991     0.6325         0.016659964  
    254000   248.16881     -44249.356     -50308.6       -71.965061      0.0082160091   0.635          0.0032864036 
    255000   245.09492     -44367.126     -50351.318     -5.8912426      0.0013668263   0.6375         0.00054673054
    256000   245.43349     -44303.392     -50295.85      -139.33165      0.014672387    0.64           0.005868955  
    257000   244.89678     -44303.945     -50283.3       -55.17176       0.004836532    0.6425         0.0019346128 
    258000   247.01927     -44156.145     -50187.322      13.31335      -0.0039969471   0.645         -0.0015987788 
    259000   245.96386     -44288.753     -50294.161     -248.32531      0.022798499    0.6475         0.0091193994 
    260000   244.98287     -44264.533     -50245.99      -133.15559      0.013921005    0.65           0.005568402  
    261000   244.99587     -44219.681     -50201.455     -297.63702      0.031213961    0.6525         0.012485584  
    262000   248.09237     -44204.646     -50262.024     -171.42033      0.01647933     0.655          0.0065917321 
    263000   246.24205     -44321.777     -50333.977     -107.1622       0.0091047219   0.6575         0.0036418888 
    264000   246.22469     -44270.606     -50282.382     -383.54462      0.037018314    0.66           0.014807326  
    265000   252.05804     -44011.617     -50165.82      -181.02729      0.021671156    0.6625         0.0086684625 
    266000   243.2546      -44350.983     -50290.243     -280.62362      0.028149379    0.665          0.011259752  
    267000   247.9888      -43974.44      -50029.289     -200.36304      0.019110887    0.6675         0.0076443549 
    268000   247.1414      -44194.061     -50228.219     -94.778105      0.01016061     0.67           0.0040642441 
    269000   247.16304     -44107.579     -50142.266     -339.41024      0.032291026    0.6725         0.01291641   
    270000   247.0144      -44045.29      -50076.348     -346.94755      0.036448878    0.675          0.014579551  
    271000   245.02644     -44193.577     -50176.097     -68.2692        0.0067866996   0.6775         0.0027146798 
    272000   247.76868     -44150.101     -50199.575     -224.42904      0.021104199    0.68           0.0084416796 
    273000   247.92922     -44164.906     -50218.3       -185.61287      0.014838676    0.6825         0.0059354703 
    274000   242.41395     -44371.978     -50290.712      73.983129     -0.0061415269   0.685         -0.0024566108 
    275000   244.67938     -44271.915     -50245.962     -41.289915      0.002899763    0.6875         0.0011599052 
    276000   241.50739     -44264.98      -50161.579     -509.62311      0.049442012    0.69           0.019776805  
    277000   249.61537     -44225.249     -50319.812      60.881538     -0.0049771122   0.6925        -0.0019908449 
    278000   247.7108      -44200.68      -50248.741     -229.71259      0.023706315    0.695          0.0094825261 
    279000   242.63384     -44318.587     -50242.689      21.612547     -0.00099855292  0.6975        -0.00039942117
    280000   247.96882     -44189.162     -50243.522     -63.762165      0.0059947505   0.7            0.0023979002 
    281000   247.03241     -44147.046     -50178.544     -234.45765      0.02474711     0.7025         0.0098988439 
    282000   247.18883     -44078.963     -50114.28      -247.80324      0.026706022    0.705          0.010682409  
    283000   249.33347     -44106.517     -50194.197     -209.78757      0.017453451    0.7075         0.0069813803 
    284000   247.42934     -44248.255     -50289.444     -47.411859      0.004961744    0.71           0.0019846976 
    285000   248.87524     -44236.6       -50313.092      196.06581     -0.015147509    0.7125        -0.0060590036 
    286000   243.0878      -44250.514     -50185.701     -89.501233      0.0075875055   0.715          0.0030350022 
    287000   245.97958     -44102.009     -50107.801      14.951807     -0.0027840084   0.7175        -0.0011136034 
    288000   243.78165     -44410.422     -50362.55       56.864484     -0.0051596164   0.72          -0.0020638466 
    289000   245.51844     -44215.053     -50209.586     -11.620233      0.0026894046   0.7225         0.0010757619 
    290000   244.75573     -44260.94      -50236.85      -57.487576      0.0097536769   0.725          0.0039014708 
    291000   245.30849     -44254.647     -50244.054     -164.96039      0.014112601    0.7275         0.0056450405 
    292000   245.90282     -44322.467     -50326.385      60.823523     -0.0048218535   0.73          -0.0019287414 
    293000   245.92915     -44252.983     -50257.543     -118.36946      0.012194428    0.7325         0.0048777713 
    294000   245.57432     -44192.076     -50187.973     -100.33173      0.0082051627   0.735          0.0032820651 
    295000   244.61057     -44192.8       -50165.167      70.936893     -0.0074764751   0.7375        -0.0029905901 
    296000   246.93721     -44252.898     -50282.071      35.608102     -0.0027213366   0.74          -0.0010885347 
    297000   247.08939     -44263.903     -50296.792      79.454162     -0.0074191105   0.7425        -0.0029676442 
    298000   246.40603     -44254.858     -50271.062     -173.08758      0.017119409    0.745          0.0068477637 
    299000   245.44122     -44317.554     -50310.201     -44.168632      0.0011253237   0.7475         0.00045012946
    300000   243.13652     -44344.216     -50280.592     -43.163812      0.0047870382   0.75           0.0019148153 
Loop time of 497.786 on 56 procs for 100000 steps with 12288 atoms

Performance: 17.357 ns/day, 1.383 hours/ns, 200.890 timesteps/s, 2.469 Matom-step/s
99.8% CPU use with 56 MPI tasks x no OpenMP threads

MPI task timing breakdown:
Section |  min time  |  avg time  |  max time  |%varavg| %total
---------------------------------------------------------------
Pair    | 192.65     | 202.21     | 208.99     |  28.5 | 40.62
Bond    | 0.024173   | 0.031758   | 0.0476     |   2.6 |  0.01
Kspace  | 151.72     | 159.53     | 167.65     |  31.5 | 32.05
Neigh   | 22.461     | 22.479     | 22.489     |   0.1 |  4.52
Comm    | 16.089     | 18.014     | 19.895     |  23.8 |  3.62
Output  | 0.2226     | 0.39947    | 0.56988    |  16.3 |  0.08
Modify  | 74.511     | 80.746     | 92.637     |  50.9 | 16.22
Other   |            | 14.37      |            |       |  2.89

Nlocal:        219.429 ave         241 max         189 min
Histogram: 1 0 2 5 12 11 9 6 7 3
Nghost:        6970.93 ave        7057 max        6906 min
Histogram: 3 7 7 9 10 8 3 5 3 1
Neighs:        96044.5 ave      106867 max       81701 min
Histogram: 1 0 2 5 12 15 7 7 3 4

Total # of neighbors = 5378491
Ave neighs/atom = 437.70272
Ave special neighs/atom = 2
Neighbor list builds = 1914
Dangerous builds = 0
kspace_style pppm/tip4p 1.0e-5
next nloop
jump SELF loop_start
run 100000 # 100ps
PPPM initialization ...
  extracting TIP4P info from pair style
  using 12-bit tables for long-range coulomb
  G vector (1/distance) = 0.3306794
  grid = 50 64 50
  stencil order = 5
  estimated absolute RMS force accuracy = 0.0030797115
  estimated relative force accuracy = 9.2744596e-06
  using double precision KISS FFT
  3d grid and FFT values/proc = 13600 3200
Generated 0 of 1 mixed pair_coeff terms from geometric mixing rule
Per MPI rank memory allocation (min/avg/max) = 11.08 | 11.19 | 11.29 Mbytes
   Step          Temp          TotEng         PotEng          Pxy           v_sxy         v_strain     v_viscosity  
    300000   243.13838     -44344.182     -50280.603     -37.211514      0.0041762066   0.75           0.0016704827 
    301000   246.34862     -44319.663     -50334.465     -206.95996      0.018350182    0.7525         0.007340073  
    302000   244.32083     -44294.355     -50259.647      53.660178     -0.0074260755   0.755         -0.0029704302 
    303000   249.1497      -44281.127     -50364.32       56.220848     -0.0061057158   0.7575        -0.0024422863 
    304000   246.75983     -44286.398     -50311.24       11.585894     -0.0028471991   0.76          -0.0011388796 
    305000   246.27866     -44282.739     -50295.834     -374.32277      0.037978586    0.7625         0.015191434  
    306000   243.57805     -44296.111     -50243.267     -112.03097      0.012642937    0.765          0.0050571747 
    307000   245.13857     -44117.689     -50102.947      153.91884     -0.015020746    0.7675        -0.0060082983 
    308000   247.1961      -44146.382     -50181.876      237.46223     -0.022527906    0.77          -0.0090111624 
    309000   247.0417      -44167.462     -50199.186      89.86251      -0.0071131987   0.7725        -0.0028452795 
    310000   247.40628     -44144.528     -50185.154     -187.39207      0.017960287    0.775          0.0071841149 
    311000   246.15737     -44272.691     -50282.824     -104.61008      0.0081252392   0.7775         0.0032500957 
    312000   246.0649      -44221.869     -50229.744     -252.40436      0.026136797    0.78           0.010454719  
    313000   244.26796     -44231.521     -50195.523     -2.6640934     -0.0016524903   0.7825        -0.00066099613
    314000   245.32094     -44210.637     -50200.348     -35.828235      0.0062071762   0.785          0.0024828705 
    315000   243.14711     -44279.766     -50216.401     -339.01599      0.032302736    0.7875         0.012921094  
    316000   244.66313     -44218.873     -50192.523     -335.67781      0.032438488    0.79           0.012975395  
    317000   245.61167     -44204.451     -50201.26      -498.26414      0.053171458    0.7925         0.021268583  
    318000   246.76105     -44161.22      -50186.093     -196.99114      0.020093776    0.795          0.0080375104 
    319000   243.64082     -44192.47      -50141.159     -234.36205      0.021608567    0.7975         0.0086434269 
    320000   247.18029     -44225.31      -50260.418     -205.05731      0.020677722    0.8            0.0082710889 
    321000   245.39929     -44208.855     -50200.479     -358.69826      0.037405916    0.8025         0.014962366  
    322000   246.4091      -44180.894     -50197.173     -219.4343       0.02088465     0.805          0.0083538601 
    323000   243.32197     -44460.338     -50401.242     -188.34276      0.018420949    0.8075         0.0073683796 
    324000   248.19565     -44324.921     -50384.82      -168.87865      0.017005064    0.81           0.0068020258 
    325000   249.37468     -44293.42      -50382.106      248.71049     -0.024732005    0.8125        -0.0098928019 
    326000   243.06742     -44390.742     -50325.432      85.37169      -0.0091973906   0.815         -0.0036789562 
    327000   249.13289     -44120.744     -50203.527      11.438954     -0.002072522    0.8175        -0.00082900882
    328000   248.23478     -44310.094     -50370.948     -238.25824      0.021519044    0.82           0.0086076174 
    329000   246.2343      -44284.953     -50296.964      181.12467     -0.017459774    0.8225        -0.0069839095 
    330000   242.2128      -44431.284     -50345.107     -1.8911015      0.00054965792  0.825          0.00021986317
    331000   245.2983      -44304.638     -50293.796     -109.99705      0.0084568224   0.8275         0.0033827289 
    332000   242.15512     -44248.304     -50160.719      22.6878       -0.0054262467   0.83          -0.0021704987 
    333000   245.00086     -44226.78      -50208.676     -42.539345      0.0056099854   0.8325         0.0022439941 
    334000   243.03965     -44295.712     -50229.723      32.43943      -0.0041239318   0.835         -0.0016495727 
    335000   241.29885     -44269.766     -50161.274      25.894864     -0.0041384584   0.8375        -0.0016553834 
    336000   245.31709     -44292.244     -50281.861     -428.97187      0.04437422     0.84           0.017749688  
    337000   248.45232     -44186.145     -50252.311      40.762159     -0.0032281073   0.8425        -0.0012912429 
    338000   246.44562     -44259.47      -50276.641     -220.61225      0.023519634    0.845          0.0094078536 
    339000   247.26116     -44170.282     -50207.365     -213.21791      0.019528009    0.8475         0.0078112034 
    340000   250.02962     -44257.275     -50361.952      106.18923     -0.011328605    0.85          -0.0045314418 
    341000   246.73406     -44096.5       -50120.714     -146.63108      0.011070453    0.8525         0.0044281812 
    342000   245.83574     -44264.411     -50266.691     -11.513567      0.00042574932  0.855          0.00017029973
    343000   242.37473     -44332.425     -50250.202     -191.50803      0.022599125    0.8575         0.00903965   
    344000   248.17456     -44063.475     -50122.859      178.08916     -0.016995118    0.86          -0.0067980472 
    345000   244.61761     -44388.547     -50361.085     -446.80639      0.04231454     0.8625         0.016925816  
    346000   245.31724     -44074.309     -50063.93       270.53649     -0.026887138    0.865         -0.010754855  
    347000   246.16148     -44292.603     -50302.836     -69.939057      0.0049270939   0.8675         0.0019708376 
    348000   242.132       -44297.197     -50209.048      380.1132      -0.036625153    0.87          -0.014650061  
    349000   245.45724     -44224.724     -50217.763      111.45462     -0.01354107     0.8725        -0.0054164279 
    350000   245.84564     -44245.911     -50248.432     -435.31206      0.041794227    0.875          0.016717691  
    351000   247.32509     -44198.806     -50237.45      -23.592794      0.0040530555   0.8775         0.0016212222 
    352000   249.84656     -44125.184     -50225.391     -287.03811      0.030519651    0.88           0.01220786   
    353000   245.26858     -44164.751     -50153.184     -137.8655       0.013858521    0.8825         0.0055434085 
    354000   244.29418     -44179.573     -50144.215     -72.975796      0.0046210141   0.885          0.0018484056 
    355000   244.27468     -44348.393     -50312.558     -198.06487      0.020230892    0.8875         0.0080923568 
    356000   245.37865     -44142.097     -50133.216     -213.64994      0.024063191    0.89           0.0096252764 
    357000   250.00022     -44195.545     -50299.504     -44.944991      0.0057957795   0.8925         0.0023183118 
    358000   247.83699     -44234.602     -50285.744     -399.27273      0.038878877    0.895          0.015551551  
    359000   245.18012     -44388.153     -50374.426     -59.122037      0.0043525075   0.8975         0.001741003  
    360000   245.64679     -44291.963     -50289.63      -165.74768      0.015656308    0.9            0.0062625233 
    361000   245.85313     -44499.289     -50501.994      103.99653     -0.012376333    0.9025        -0.0049505332 
    362000   250.72334     -44283.909     -50405.523      51.390751     -0.0046015515   0.905         -0.0018406206 
    363000   243.25596     -44591.137     -50530.429      76.756368     -0.0070556883   0.9075        -0.0028222753 
    364000   249.87862     -44213.252     -50314.242      39.441322     -0.0043650225   0.91          -0.001746009  
    365000   241.88498     -44504.079     -50409.898     -432.65214      0.043148516    0.9125         0.017259407  
    366000   244.02281     -44398.677     -50356.693     -433.89856      0.042567141    0.915          0.017026856  
    367000   245.32301     -44358.779     -50348.54      -214.97159      0.020680372    0.9175         0.0082721487 
    368000   251.79226     -44137.877     -50285.59      -130.75673      0.013576035    0.92           0.005430414  
    369000   243.71753     -44412.913     -50363.475     -130.02683      0.013215988    0.9225         0.0052863951 
    370000   247.23963     -44310.512     -50347.069      59.752539     -0.005864761    0.925         -0.0023459044 
    371000   246.74741     -44246.927     -50271.466      61.285136     -0.0070593193   0.9275        -0.0028237277 
    372000   241.16045     -44268.075     -50156.204      313.11084     -0.030996998    0.93          -0.012398799  
    373000   248.1963      -44195.475     -50255.39       15.720744     -0.0015931252   0.9325        -0.00063725008
    374000   244.58301     -44194.877     -50166.571     -62.597511      0.0060888532   0.935          0.0024355413 
    375000   245.98395     -44189.79      -50195.689     -318.51185      0.034525458    0.9375         0.013810183  
    376000   246.56999     -44206.594     -50226.802     -155.99989      0.018519757    0.94           0.0074079029 
    377000   252.52149     -44101.766     -50267.284     -217.10356      0.021984359    0.9425         0.0087937435 
    378000   248.73099     -44146.812     -50219.782     -412.72361      0.040143031    0.945          0.016057212  
    379000   242.62576     -44448.17      -50372.076     -252.72915      0.025530499    0.9475         0.0102122    
    380000   247.74674     -44335.291     -50384.23      -156.89518      0.014568543    0.95           0.0058274172 
    381000   248.0441      -44357.029     -50413.228     -353.95916      0.033334989    0.9525         0.013333996  
    382000   246.15502     -44400.988     -50411.064     -154.89751      0.011035377    0.955          0.0044141509 
    383000   246.27545     -44186.538     -50199.553     -26.175035     -0.0032233658   0.9575        -0.0012893463 
    384000   246.41659     -44246.824     -50263.286     -13.337314      0.002731978    0.96           0.0010927912 
    385000   243.06619     -44359.735     -50294.394     -119.07469      0.01048337     0.9625         0.0041933479 
    386000   244.81815     -44357.026     -50334.46      -49.475359      0.003620033    0.965          0.0014480132 
    387000   244.63952     -44327.404     -50300.478     -250.40465      0.019949286    0.9675         0.0079797144 
    388000   247.02368     -44418.533     -50449.817     -260.42979      0.030274547    0.97           0.012109819  
    389000   243.63539     -44225.797     -50174.354     -332.3231       0.03087795     0.9725         0.01235118   
    390000   244.71473     -44339.563     -50314.473     -545.94295      0.054565302    0.975          0.021826121  
    391000   251.1031      -44279.617     -50410.504     -211.80552      0.025575076    0.9775         0.010230031  
    392000   245.44405     -44359.074     -50351.79      -170.27085      0.014055099    0.98           0.0056220397 
    393000   244.42707     -44340.16      -50308.046     -216.42124      0.0213028      0.9825         0.00852112   
    394000   245.67516     -44378.597     -50376.956     -115.25352      0.01051474     0.985          0.0042058961 
    395000   244.62198     -44332.542     -50305.187     -66.858244      0.0068136911   0.9875         0.0027254764 
    396000   242.46759     -44371.496     -50291.54      -150.34942      0.017394576    0.99           0.0069578304 
    397000   250.27932     -44196.325     -50307.099     -116.21366      0.010968486    0.9925         0.0043873945 
    398000   246.0337      -44262.041     -50269.154     -64.96167       0.0077459824   0.995          0.0030983929 
    399000   246.30018     -44298.827     -50312.447     -42.201578      0.0044860874   0.9975         0.0017944349 
    400000   247.80702     -44175.863     -50226.273     -258.38174      0.026903518    1              0.010761407  
Loop time of 459.787 on 56 procs for 100000 steps with 12288 atoms

Performance: 18.791 ns/day, 1.277 hours/ns, 217.492 timesteps/s, 2.673 Matom-step/s
99.8% CPU use with 56 MPI tasks x no OpenMP threads

MPI task timing breakdown:
Section |  min time  |  avg time  |  max time  |%varavg| %total
---------------------------------------------------------------
Pair    | 184.4      | 200.5      | 209.65     |  33.0 | 43.61
Bond    | 0.017848   | 0.028377   | 0.044628   |   2.9 |  0.01
Kspace  | 132.8      | 141.25     | 156.6      |  37.5 | 30.72
Neigh   | 22.532     | 22.547     | 22.558     |   0.1 |  4.90
Comm    | 15.422     | 16.337     | 17.673     |  12.9 |  3.55
Output  | 0.2228     | 0.40002    | 0.57018    |  16.3 |  0.09
Modify  | 66.593     | 69.82      | 76.56      |  30.4 | 15.19
Other   |            | 8.897      |            |       |  1.94

Nlocal:        219.429 ave         237 max         199 min
Histogram: 1 3 4 7 7 10 13 5 4 2
Nghost:        6848.98 ave        6892 max        6792 min
Histogram: 1 1 1 8 9 10 14 4 5 3
Neighs:        96037.7 ave      103731 max       86140 min
Histogram: 1 2 4 3 13 10 10 5 6 2

Total # of neighbors = 5378109
Ave neighs/atom = 437.67163
Ave special neighs/atom = 2
Neighbor list builds = 1900
Dangerous builds = 0
kspace_style pppm/tip4p 1.0e-5
next nloop
jump SELF loop_start
run 100000 # 100ps
PPPM initialization ...
  extracting TIP4P info from pair style
  using 12-bit tables for long-range coulomb
  G vector (1/distance) = 0.32815664
  grid = 50 50 50
  stencil order = 5
  estimated absolute RMS force accuracy = 0.0035802102
  estimated relative force accuracy = 1.0781697e-05
  using double precision KISS FFT
  3d grid and FFT values/proc = 11424 2800
Generated 0 of 1 mixed pair_coeff terms from geometric mixing rule
Per MPI rank memory allocation (min/avg/max) = 10.91 | 11.02 | 11.12 Mbytes
   Step          Temp          TotEng         PotEng          Pxy           v_sxy         v_strain     v_viscosity  
    400000   247.80702     -44175.831     -50226.241     -253.48333      0.026407186    1              0.010562874  
    401000   247.99737     -44233.28      -50288.338      50.866873     -0.0064762364   1.0025        -0.0025904945 
    402000   245.82442     -44312.871     -50314.874      31.5739       -0.0023198323   1.005         -0.00092793291
    403000   247.06893     -44125.723     -50158.112     -208.74733      0.024480949    1.0075         0.0097923796 
    404000   242.43701     -44437.005     -50356.302     -57.916594      0.0058117432   1.01           0.0023246973 
    405000   244.98647     -44194.458     -50176.003     -192.62256      0.019364514    1.0125         0.0077458054 
    406000   246.24807     -44258.919     -50271.267     -298.07959      0.027158838    1.015          0.010863535  
    407000   248.52958     -44163.281     -50231.334     -390.96268      0.038319544    1.0175         0.015327818  
    408000   246.5416      -44288.587     -50308.101     -234.49701      0.024699864    1.02           0.0098799457 
    409000   243.59404     -44305.037     -50252.584     -224.66135      0.019058214    1.0225         0.0076232854 
    410000   247.76148     -44290.253     -50339.552      10.262642     -0.0029433034   1.025         -0.0011773214 
    411000   246.57706     -44210.287     -50230.667     -321.03169      0.031213256    1.0275         0.012485302  
    412000   247.54402     -44340.103     -50384.092     -260.92943      0.027475006    1.03           0.010990002  
    413000   244.6319      -44377.868     -50350.755      124.77351     -0.014540954    1.0325        -0.0058163817 
    414000   249.83564     -44330.492     -50430.433     -47.607703      0.0060594465   1.035          0.0024237786 
    415000   247.56138     -44329.439     -50373.852     -157.44799      0.01470466     1.0375         0.0058818642 
    416000   240.94522     -44494.063     -50376.937     -153.96816      0.011355057    1.04           0.0045420228 
    417000   246.91602     -44178.239     -50206.895     -174.2284       0.01486992     1.0425         0.005947968  
    418000   244.51034     -44363.621     -50333.54      -55.864663      0.0041433656   1.045          0.0016573462 
    419000   247.36876     -44183.346     -50223.056      35.943208     -0.0051877285   1.0475        -0.0020750914 
    420000   245.85861     -44283.443     -50286.281     -201.95267      0.018955371    1.05           0.0075821484 
    421000   243.95167     -44462.6       -50418.879     -166.46752      0.017770284    1.0525         0.0071081134 
    422000   246.20346     -44299.834     -50311.092     -423.41215      0.044943426    1.055          0.017977371  
    423000   244.41773     -44276.803     -50244.461     -454.29741      0.047453571    1.0575         0.018981428  
    424000   248.21407     -44196.576     -50256.925     -172.37018      0.012029456    1.06           0.0048117822 
    425000   243.8391      -44383.503     -50337.033      278.53857     -0.02826835     1.0625        -0.01130734   
    426000   246.91883     -44153.18      -50181.905     -113.22268      0.014692542    1.065          0.0058770168 
    427000   245.8177      -44264.115     -50265.954      100.67394     -0.008209673    1.0675        -0.0032838692 
    428000   248.99019     -44176.734     -50256.032     -342.41002      0.03452315     1.07           0.01380926   
    429000   246.75077     -44238.12      -50262.741     -71.539447      0.0073783805   1.0725         0.0029513522 
    430000   245.59219     -44290.086     -50286.419      22.375772     -0.00054924693  1.075         -0.00021969877
    431000   245.068       -44379.885     -50363.42       195.08335     -0.017844447    1.0775        -0.0071377789 
    432000   247.27737     -44268.947     -50306.426      154.88213     -0.018715049    1.08          -0.0074860194 
    433000   245.79697     -44246.105     -50247.438     -11.533939      0.0011489106   1.0825         0.00045956422
    434000   244.20335     -44434.391     -50396.815     -227.31495      0.022481247    1.085          0.0089924987 
    435000   245.61558     -44286.605     -50283.51      -95.031714      0.0094804582   1.0875         0.0037921833 
    436000   246.53289     -44298.348     -50317.649     -145.43594      0.013907847    1.09           0.0055631386 
    437000   244.89254     -44290.293     -50269.544     -256.56645      0.026254736    1.0925         0.010501894  
    438000   244.22054     -44262.717     -50225.561     -381.964        0.038709008    1.095          0.015483603  
    439000   243.96975     -44228.77      -50185.49      -338.39958      0.031201089    1.0975         0.012480436  
    440000   249.62676     -44070.597     -50165.438     -343.13965      0.034385274    1.1            0.01375411   
    441000   245.33931     -44297.19      -50287.349      41.97135      -0.0036870061   1.1025        -0.0014748024 
    442000   245.41435     -44281.967     -50273.958     -226.85743      0.020525456    1.105          0.0082101823 
    443000   245.71411     -44299.925     -50299.235     -184.41979      0.016384662    1.1075         0.0065538648 
    444000   244.55043     -44267.729     -50238.627     -290.54763      0.026631592    1.11           0.010652637  
    445000   245.46102     -44255.64      -50248.771     -13.389332      0.002820436    1.1125         0.0011281744 
    446000   246.70804     -44381.138     -50404.716     -286.38162      0.032228655    1.115          0.012891462  
    447000   247.0166      -44154.308     -50185.42       110.2042      -0.0094891203   1.1175        -0.0037956481 
    448000   242.63208     -44432.012     -50356.072     -185.74729      0.016699294    1.12           0.0066797177 
    449000   247.61953     -44172.104     -50217.937     -341.26397      0.037144424    1.1225         0.01485777   
    450000   245.55706     -44519.056     -50514.532     -232.46543      0.023690132    1.125          0.0094760528 
    451000   247.28703     -44323.148     -50360.862     -295.00319      0.026777745    1.1275         0.010711098  
    452000   247.45342     -44181.852     -50223.629      81.890747     -0.011522768    1.13          -0.004609107  
    453000   247.62929     -44295.001     -50341.072     -81.825398      0.0067882438   1.1325         0.0027152975 
    454000   246.91824     -44121.848     -50150.558     -258.38777      0.027224199    1.135          0.01088968   
    455000   247.69238     -44193.792     -50241.403     -218.34461      0.028579315    1.1375         0.011431726  
    456000   247.27177     -44184.072     -50221.414     -154.18776      0.013599548    1.14           0.0054398191 
    457000   244.9189      -44304.351     -50284.246      13.621604      0.002325283    1.1425         0.0009301132 
    458000   247.57219     -44276.481     -50321.158     -427.93545      0.041944227    1.145          0.016777691  
    459000   245.38548     -44422.502     -50413.789     -217.74924      0.021019742    1.1475         0.0084078969 
    460000   246.40346     -44193.444     -50209.585      45.37992      -0.0036416492   1.15          -0.0014566597 
    461000   246.28315     -44299.362     -50312.565     -241.14096      0.022578991    1.1525         0.0090315962 
    462000   249.55358     -44238.936     -50331.99      -86.651225      0.0097188683   1.155          0.0038875473 
    463000   245.09643     -44368.256     -50352.485     -449.68257      0.046639076    1.1575         0.01865563   
    464000   239.99313     -44326.403     -50186.031     -43.542071      0.0029515665   1.16           0.0011806266 
    465000   249.39186     -44237.118     -50326.224     -76.393852      0.010233309    1.1625         0.0040933237 
    466000   244.46201     -44254.508     -50223.247     -342.7486       0.034366338    1.165          0.013746535  
    467000   245.6037      -44377.356     -50373.971     -43.460415      0.0076836996   1.1675         0.0030734799 
    468000   248.67843     -44234.259     -50305.945     -41.132291      0.0037702908   1.17           0.0015081163 
    469000   243.91492     -44313.837     -50269.219     -33.388911      0.0019840794   1.1725         0.00079363176
    470000   245.85228     -44306.308     -50308.992     -231.89835      0.027433335    1.175          0.010973334  
    471000   246.7582      -44318.807     -50343.61      -249.78268      0.021395237    1.1775         0.0085580949 
    472000   246.273       -44255.103     -50268.059     -48.12534       0.0039249274   1.18           0.0015699709 
    473000   247.04088     -44319.676     -50351.381      44.0903       -0.0022591459   1.1825        -0.00090365837
    474000   250.66369     -44122.093     -50242.252     -155.4019       0.019083959    1.185          0.0076335837 
    475000   247.71465     -44142.509     -50190.665     -19.15262      -0.000268363    1.1875        -0.0001073452 
    476000   247.23426     -44105.199     -50141.625     -323.06128      0.031879963    1.19           0.012751985  
    477000   243.5989      -44274.63      -50222.296     -72.116677      0.0047218139   1.1925         0.0018887256 
    478000   244.45615     -44307         -50275.597     -86.340977      0.0096101985   1.195          0.0038440794 
    479000   248.15914     -44166.373     -50225.381     -68.919881      0.0048352661   1.1975         0.0019341064 
    480000   243.86522     -44273.671     -50227.84       98.388687     -0.01219015     1.2           -0.0048760601 
    481000   245.86042     -44234.572     -50237.455     -269.22577      0.027662043    1.2025         0.011064817  
    482000   247.9385      -44293.064     -50346.684     -67.808937      0.0083882749   1.205          0.00335531   
    483000   244.49427     -44478.01      -50447.537      25.773433     -0.0018317492   1.2075        -0.0007326997 
    484000   244.54922     -44292.562     -50263.431     -131.22187      0.0097234421   1.21           0.0038893769 
    485000   249.54435     -44240.235     -50333.064      198.00518     -0.023845877    1.2125        -0.0095383508 
    486000   246.38498     -44190.465     -50206.155     -31.578302      0.0027549064   1.215          0.0011019625 
    487000   249.26688     -44188.018     -50274.072     -43.314308      0.0077026226   1.2175         0.003081049  
    488000   248.2256      -44256.242     -50316.872     -196.47432      0.020244972    1.22           0.0080979887 
    489000   247.2941      -44242.575     -50280.462     -3.863386       0.00098102896  1.2225         0.00039241158
    490000   243.99316     -44334.983     -50292.275     -165.60597      0.018407825    1.225          0.0073631302 
    491000   247.31143     -44415.947     -50454.257     -262.80405      0.02570226     1.2275         0.010280904  
    492000   240.41104     -44311.901     -50181.733     -437.90974      0.043566579    1.23           0.017426631  
    493000   246.4539      -44280.844     -50298.217     -62.613858      0.0038865715   1.2325         0.0015546286 
    494000   246.72244     -44310.089     -50334.018     -277.6703       0.022516389    1.235          0.0090065558 
    495000   247.41563     -44305.627     -50346.482     -158.73102      0.017359234    1.2375         0.0069436934 
    496000   245.73487     -44221.532     -50221.35       275.74988     -0.027068773    1.24          -0.010827509  
    497000   245.70319     -44263.937     -50262.98      -191.08962      0.023936936    1.2425         0.0095747743 
    498000   245.27196     -44313.354     -50301.869     -223.2105       0.018324659    1.245          0.0073298637 
    499000   247.58187     -44250.533     -50295.446     -46.654122      0.0047847869   1.2475         0.0019139148 
    500000   244.16994     -44350.107     -50311.715     -69.27281       0.0085338958   1.25           0.0034135583 
Loop time of 425.455 on 56 procs for 100000 steps with 12288 atoms

Performance: 20.308 ns/day, 1.182 hours/ns, 235.043 timesteps/s, 2.888 Matom-step/s
99.8% CPU use with 56 MPI tasks x no OpenMP threads

MPI task timing breakdown:
Section |  min time  |  avg time  |  max time  |%varavg| %total
---------------------------------------------------------------
Pair    | 188.65     | 198.77     | 210.09     |  39.0 | 46.72
Bond    | 0.01678    | 0.026422   | 0.043807   |   3.0 |  0.01
Kspace  | 108.95     | 119.17     | 129.06     |  48.5 | 28.01
Neigh   | 22.162     | 22.178     | 22.186     |   0.1 |  5.21
Comm    | 14.754     | 15.724     | 17.288     |  17.0 |  3.70
Output  | 0.22211    | 0.39911    | 0.56923    |  16.3 |  0.09
Modify  | 52.074     | 56.418     | 66.847     |  46.1 | 13.26
Other   |            | 12.76      |            |       |  3.00

Nlocal:        219.429 ave         239 max         202 min
Histogram: 2 3 5 10 11 10 4 10 0 1
Nghost:        6967.41 ave        7011 max        6915 min
Histogram: 5 3 5 2 5 8 12 5 7 4
Neighs:        96043.8 ave      104876 max       87985 min
Histogram: 3 2 5 11 8 12 7 6 1 1

Total # of neighbors = 5378453
Ave neighs/atom = 437.69963
Ave special neighs/atom = 2
Neighbor list builds = 1869
Dangerous builds = 0
kspace_style pppm/tip4p 1.0e-5
next nloop
jump SELF loop_start
run 100000 # 100ps
PPPM initialization ...
  extracting TIP4P info from pair style
  using 12-bit tables for long-range coulomb
  G vector (1/distance) = 0.32881326
  grid = 50 64 50
  stencil order = 5
  estimated absolute RMS force accuracy = 0.003443216
  estimated relative force accuracy = 1.0369143e-05
  using double precision KISS FFT
  3d grid and FFT values/proc = 13600 3200
Generated 0 of 1 mixed pair_coeff terms from geometric mixing rule
Per MPI rank memory allocation (min/avg/max) = 11.08 | 11.19 | 11.29 Mbytes
   Step          Temp          TotEng         PotEng          Pxy           v_sxy         v_strain     v_viscosity  
    500000   244.17131     -44350.074     -50311.715     -64.209307      0.0080173691   1.25           0.0032069476 
    501000   245.31141     -44331.705     -50321.183      130.17435     -0.011822171    1.2525        -0.0047288686 
    502000   246.88786     -44198.522     -50226.49      -147.41977      0.017720136    1.255          0.0070880544 
    503000   246.29113     -44250.62      -50264.018      31.404154     -0.0026795314   1.2575        -0.0010718126 
    504000   247.79207     -44311.916     -50361.961     -41.706897      0.0057730168   1.26           0.0023092067 
    505000   246.56883     -44304.566     -50324.745     -120.83485      0.011207235    1.2625         0.0044828939 
    506000   247.59613     -44293.667     -50338.928     -61.815318      0.0085993375   1.265          0.003439735  
    507000   243.73245     -44407.171     -50358.097      282.06462     -0.021904164    1.2675        -0.0087616656 
    508000   242.7358      -44330.062     -50256.654      134.37371     -0.013317067    1.27          -0.0053268269 
    509000   245.37579     -44411.235     -50402.285     -102.2563       0.0083769428   1.2725         0.0033507771 
    510000   242.81682     -44469.609     -50398.18      -156.64399      0.015716918    1.275          0.0062867673 
    511000   245.58913     -44278.809     -50275.068     -18.432773     -0.0029451341   1.2775        -0.0011780536 
    512000   246.24666     -44336.17      -50348.483     -408.09243      0.04153503     1.28           0.016614012  
    513000   246.35027     -44199.402     -50214.244     -281.27395      0.028090675    1.2825         0.01123627   
    514000   245.35052     -44365.363     -50355.796     -496.91615      0.05027622     1.285          0.020110488  
    515000   249.40184     -44161.805     -50251.154     -439.53817      0.041907142    1.2875         0.016762857  
    516000   243.02298     -44344.912     -50278.517     -49.155925      0.0056221633   1.29           0.0022488653 
    517000   246.46114     -44184.672     -50202.221     -161.01324      0.01614588     1.2925         0.006458352  
    518000   245.88096     -44252.117     -50255.501     -283.94761      0.030440146    1.295          0.012176058  
    519000   247.09227     -44204.653     -50237.612      113.37493     -0.011434039    1.2975        -0.0045736155 
    520000   247.9998      -44140.255     -50195.373     -167.38685      0.013896899    1.3            0.0055587595 
    521000   247.80468     -44164.736     -50215.089     -391.99885      0.04023828     1.3025         0.016095312  
    522000   247.01343     -44213.024     -50244.058     -136.75245      0.016962666    1.305          0.0067850663 
    523000   250.01802     -43986.429     -50090.822     -21.481092      0.0031708691   1.3075         0.0012683477 
    524000   244.24971     -44194.253     -50157.809     -193.76278      0.020804028    1.31           0.0083216113 
    525000   243.73294     -44178.039     -50128.977     -141.28261      0.016496448    1.3125         0.006598579  
    526000   246.34448     -44183.94      -50198.642     -465.53512      0.045581584    1.315          0.018232634  
    527000   248.14968     -44170.615     -50229.392      242.14859     -0.024330138    1.3175        -0.0097320553 
    528000   247.36945     -44157.54      -50197.266      259.65338     -0.028616352    1.32          -0.011446541  
    529000   244.68716     -44222.23      -50196.466     -287.6984       0.029586286    1.3225         0.011834514  
    530000   246.54327     -44214.018     -50233.573     -381.91915      0.037046606    1.325          0.014818642  
    531000   252.12069     -44046.437     -50202.169     -69.518716      0.0021881539   1.3275         0.00087526154
    532000   243.18078     -44309.664     -50247.121     -230.24868      0.023876739    1.33           0.0095506957 
    533000   245.6119      -44171.332     -50168.147     -231.68244      0.020962383    1.3325         0.0083849531 
    534000   246.75638     -44220.988     -50245.746      34.655084     -0.0073895467   1.335         -0.0029558187 
    535000   244.2432      -44308.22      -50271.617     -32.299481      0.003581324    1.3375         0.0014325296 
    536000   248.20492     -44164.352     -50224.478     -259.77777      0.027294315    1.34           0.010917726  
    537000   246.75483     -44362.146     -50386.866     -292.94536      0.028988516    1.3425         0.011595407  
    538000   244.58494     -44351.573     -50323.314     -365.89497      0.038280886    1.345          0.015312354  
    539000   246.57793     -44190.264     -50210.665     -27.346412      0.0062989612   1.3475         0.0025195845 
    540000   241.2439      -44466.354     -50356.521     -193.62789      0.020175256    1.35           0.0080701023 
    541000   250.96355     -44178.602     -50306.082     -23.293253      0.0011619668   1.3525         0.0004647867 
    542000   246.90556     -44211.451     -50239.851     -71.431855      0.0079407812   1.355          0.0031763125 
    543000   243.77189     -44331.122     -50283.011     -133.28256      0.011193326    1.3575         0.0044773305 
    544000   245.69316     -44244.002     -50242.801     -268.24237      0.028747594    1.36           0.011499038  
    545000   244.03756     -44217.352     -50175.727     -393.10803      0.032827519    1.3625         0.013131007  
    546000   244.82141     -44344.093     -50321.607     -312.53871      0.030186305    1.365          0.012074522  
    547000   244.78335     -44273.17      -50249.755     -194.84842      0.018592291    1.3675         0.0074369164 
    548000   248.00006     -44155.258     -50210.382      12.527553     -0.001749419    1.37          -0.00069976761
    549000   243.25342     -44305.506     -50244.737     -407.88905      0.038665482    1.3725         0.015466193  
    550000   240.99576     -44373.822     -50257.93      -211.14595      0.020400096    1.375          0.0081600383 
    551000   248.13782     -44250.234     -50308.721     -153.16455      0.017426443    1.3775         0.0069705772 
    552000   245.0017      -44320.268     -50302.184      108.23689     -0.011325053    1.38          -0.0045300212 
    553000   246.3067      -44276.012     -50289.79      -42.142691      0.0031358142   1.3825         0.0012543257 
    554000   244.78289     -44238.688     -50215.262     -286.00974      0.024875079    1.385          0.0099500317 
    555000   241.81015     -44217.813     -50121.805      390.29988     -0.039056601    1.3875        -0.015622641  
    556000   243.70673     -44220.622     -50170.921      68.121693     -0.0066144968   1.39          -0.0026457987 
    557000   247.21538     -44070.417     -50106.382      77.158718     -0.010488149    1.3925        -0.0041952598 
    558000   245.24985     -44208.848     -50196.823     -330.47671      0.038875788    1.395          0.015550315  
    559000   246.01291     -44284.658     -50291.264     -114.04745      0.014365949    1.3975         0.0057463798 
    560000   252.39977     -43992.085     -50154.631     -174.07413      0.015880598    1.4            0.0063522393 
    561000   242.87276     -44173.541     -50103.477     -18.176133      0.0026905003   1.4025         0.0010762001 
    562000   246.48865     -44250.756     -50268.977     -4.1495015     -0.00014188337  1.405         -5.6753349e-05
    563000   245.74068     -44301.491     -50301.45      -216.873        0.020832758    1.4075         0.0083331032 
    564000   248.18698     -44168.542     -50228.229     -117.68586      0.0091030775   1.41           0.003641231  
    565000   246.78117     -44235.568     -50260.931     -138.00325      0.010833432    1.4125         0.004333373  
    566000   248.51585     -44180.595     -50248.312     -343.58949      0.029980344    1.415          0.011992137  
    567000   247.48229     -44107.415     -50149.897     -228.84718      0.023182803    1.4175         0.009273121  
    568000   251.5803      -44085.257     -50227.795     -7.5744868      0.00084342215  1.42           0.00033736886
    569000   240.55853     -44378.955     -50252.388     -132.8305       0.011639929    1.4225         0.0046559718 
    570000   249.45845     -44230.534     -50321.266     -154.9794       0.013484925    1.425          0.0053939698 
    571000   250.11221     -44168.213     -50274.906     -7.9780315      9.1260728e-05  1.4275         3.6504291e-05
    572000   244.31345     -44130.677     -50095.789     -104.68163      0.011031327    1.43           0.0044125309 
    573000   243.30472     -44382.581     -50323.064     -109.40767      0.0097511935   1.4325         0.0039004774 
    574000   247.35544     -44110.964     -50150.349     -139.36096      0.010543351    1.435          0.0042173405 
    575000   244.75277     -44367.572     -50343.411      4.3827235     -0.0014864568   1.4375        -0.00059458273
    576000   249.88007     -44122.123     -50223.149      38.133331     -0.0064018851   1.44          -0.0025607541 
    577000   245.31997     -44221.228     -50210.915     -415.70539      0.039694792    1.4425         0.015877917  
    578000   243.85221     -44364.287     -50318.138     -19.156521      0.0041680489   1.445          0.0016672195 
    579000   240.74084     -44261.332     -50139.216     -68.378963      0.0069671414   1.4475         0.0027868565 
    580000   241.57349     -44219.082     -50117.295      161.11245     -0.018486562    1.45          -0.0073946247 
    581000   244.94659     -44361.121     -50341.691     -251.99643      0.026257626    1.4525         0.010503051  
    582000   246.32651     -44327.175     -50341.437     -224.35128      0.023910604    1.455          0.0095642417 
    583000   244.07612     -44195.448     -50154.765      29.291006     -0.001192568    1.4575        -0.00047702721
    584000   243.12026     -44200.92      -50136.9       -116.62489      0.013488563    1.46           0.005395425  
    585000   249.34609     -44071.244     -50159.232     -183.48581      0.015717107    1.4625         0.0062868429 
    586000   245.42555     -44290.735     -50283         -266.43805      0.026400004    1.465          0.010560002  
    587000   247.68553     -44200.491     -50247.935     -134.15674      0.013280456    1.4675         0.0053121823 
    588000   243.27509     -44303.611     -50243.37      -11.47042       0.0034821076   1.47           0.001392843  
    589000   245.18817     -44274.295     -50260.764      269.89017     -0.026406699    1.4725        -0.01056268   
    590000   243.67962     -44256.902     -50206.538     -174.11949      0.017959595    1.475          0.0071838378 
    591000   245.81249     -44301.524     -50303.236      87.336806     -0.0060617215   1.4775        -0.0024246886 
    592000   242.91798     -44408.06      -50339.1       -297.68224      0.028237191    1.48           0.011294876  
    593000   243.6805      -44318.985     -50268.643     -239.45046      0.023527961    1.4825         0.0094111844 
    594000   245.17843     -44328.516     -50314.747     -162.88701      0.016325369    1.485          0.0065301477 
    595000   246.40595     -44254.661     -50270.863     -57.821165      0.0018816921   1.4875         0.00075267686
    596000   247.1056      -44169.17      -50202.455      147.1362      -0.010380763    1.49          -0.0041523051 
    597000   242.46538     -44334.889     -50254.879      44.186581     -0.0048998583   1.4925        -0.0019599433 
    598000   247.02703     -44171.357     -50202.723     -283.35783      0.027298741    1.495          0.010919496  
    599000   245.80243     -44198.062     -50199.528     -149.40135      0.013565392    1.4975         0.0054261569 
    600000   244.98186     -44410.166     -50391.598     -136.46488      0.014317278    1.5            0.0057269112 
Loop time of 459.606 on 56 procs for 100000 steps with 12288 atoms

Performance: 18.799 ns/day, 1.277 hours/ns, 217.578 timesteps/s, 2.674 Matom-step/s
99.8% CPU use with 56 MPI tasks x no OpenMP threads

MPI task timing breakdown:
Section |  min time  |  avg time  |  max time  |%varavg| %total
---------------------------------------------------------------
Pair    | 189.12     | 199.89     | 210.15     |  35.1 | 43.49
Bond    | 0.019364   | 0.02807    | 0.04574    |   3.1 |  0.01
Kspace  | 131.35     | 141.45     | 152.03     |  41.3 | 30.78
Neigh   | 21.696     | 21.712     | 21.723     |   0.1 |  4.72
Comm    | 15.814     | 16.657     | 17.732     |  12.5 |  3.62
Output  | 0.22369    | 0.40063    | 0.57074    |  16.3 |  0.09
Modify  | 67.177     | 70.22      | 77.104     |  30.7 | 15.28
Other   |            | 9.252      |            |       |  2.01

Nlocal:        219.429 ave         237 max         203 min
Histogram: 2 3 8 7 8 10 7 6 4 1
Nghost:        7284.82 ave        7369 max        7203 min
Histogram: 1 6 7 7 5 9 9 7 1 4
Neighs:        96043.5 ave      104350 max       88477 min
Histogram: 2 6 6 10 7 9 5 4 5 2

Total # of neighbors = 5378437
Ave neighs/atom = 437.69832
Ave special neighs/atom = 2
Neighbor list builds = 1862
Dangerous builds = 0
kspace_style pppm/tip4p 1.0e-5
next nloop
jump SELF loop_start
run 100000 # 100ps
PPPM initialization ...
  extracting TIP4P info from pair style
  using 12-bit tables for long-range coulomb
  G vector (1/distance) = 0.32815664
  grid = 50 75 50
  stencil order = 5
  estimated absolute RMS force accuracy = 0.0035802102
  estimated relative force accuracy = 1.0781697e-05
  using double precision KISS FFT
  3d grid and FFT values/proc = 15776 4000
Generated 0 of 1 mixed pair_coeff terms from geometric mixing rule
Per MPI rank memory allocation (min/avg/max) = 11.2 | 11.33 | 11.45 Mbytes
   Step          Temp          TotEng         PotEng          Pxy           v_sxy         v_strain     v_viscosity  
    600000   244.98221     -44410.154     -50391.594     -131.46509      0.013798213    1.5            0.0055192851 
    601000   247.97156     -44154.862     -50209.29       48.363537     -0.0042460201   1.5025        -0.001698408  
    602000   246.06366     -44254.565     -50262.41       120.37219     -0.013350381    1.505         -0.0053401524 
    603000   244.61396     -44286.582     -50259.032     -357.61627      0.035951408    1.5075         0.014380563  
    604000   243.81497     -44260.301     -50213.242     -168.12799      0.010950762    1.51           0.0043803048 
    605000   243.08615     -44285.714     -50220.861     -88.347948      0.0078107549   1.5125         0.003124302  
    606000   244.3904      -44229.577     -50196.567     -122.57422      0.0097394343   1.515          0.0038957737 
    607000   247.44964     -44210.143     -50251.827     -249.31615      0.029054475    1.5175         0.01162179   
    608000   246.49119     -44261.792     -50280.076     -242.75718      0.024247433    1.52           0.0096989733 
    609000   248.27447     -44182.484     -50244.308      125.9046      -0.012154691    1.5225        -0.0048618766 
    610000   242.06529     -44266.62      -50176.841     -90.167122      0.0079783734   1.525          0.0031913494 
    611000   245.39581     -44245.976     -50237.514      87.360582     -0.010613924    1.5275        -0.0042455696 
    612000   247.53193     -44312.751     -50356.445     -69.956065      0.0060726413   1.53           0.0024290565 
    613000   246.7118      -44338.652     -50362.322     -185.0516       0.015988717    1.5325         0.0063954869 
    614000   243.88482     -44319.379     -50274.025     -172.14876      0.015790184    1.535          0.0063160734 
    615000   244.03313     -44461.593     -50419.861     -249.67034      0.019301385    1.5375         0.007720554  
    616000   249.10591     -44096.132     -50178.256     -308.02752      0.028372515    1.54           0.011349006  
    617000   247.40239     -44404.487     -50445.018     -423.48223      0.041927376    1.5425         0.016770951  
    618000   247.30598     -44229.213     -50267.39      -154.81914      0.014643111    1.545          0.0058572444 
    619000   246.60935     -44215.066     -50236.234     -268.96693      0.024165413    1.5475         0.0096661652 
    620000   248.90117     -44323.463     -50400.588     -249.35983      0.022375626    1.55           0.0089502504 
    621000   246.13005     -44342.701     -50352.167     -207.43221      0.020285361    1.5525         0.0081141445 
    622000   253.37329     -44111.369     -50297.684     -261.51278      0.022727801    1.555          0.0090911205 
    623000   240.93963     -44440.751     -50323.488     -179.07049      0.022280256    1.5575         0.0089121024 
    624000   247.10025     -44234.458     -50267.612     -40.061337      0.0036613024   1.56           0.001464521  
    625000   244.67764     -44223.838     -50197.842     -74.489247      0.0063259295   1.5625         0.0025303718 
    626000   248.67292     -44210.524     -50282.076     -9.6845135      0.00080411979  1.565          0.00032164791
    627000   244.80589     -44315.308     -50292.444     -181.82808      0.014407278    1.5675         0.0057629112 
    628000   247.30364     -44275.101     -50313.221     -188.43076      0.015300178    1.57           0.0061200711 
    629000   245.61249     -44242.446     -50239.275     -229.34911      0.021146857    1.5725         0.0084587428 
    630000   247.46292     -44224.212     -50266.221      84.894159     -0.009065138    1.575         -0.0036260552 
    631000   244.41323     -44189.058     -50156.607     -13.983257      0.0024083025   1.5775         0.00096332101
    632000   241.77663     -44424.274     -50327.447     -104.52967      0.0077367529   1.58           0.0030947012 
    633000   245.71093     -44379.079     -50378.312      98.330021     -0.0089103342   1.5825        -0.0035641337 
    634000   247.91787     -44300.523     -50353.64      -262.63554      0.024195095    1.585          0.0096780379 
    635000   247.94535     -44363.676     -50417.464     -76.871265      0.0076067667   1.5875         0.0030427067 
    636000   241.26238     -44301.489     -50192.107      71.820836     -0.0092146057   1.59          -0.0036858423 
    637000   247.98706     -44318.308     -50373.115      152.15686     -0.017207653    1.5925        -0.0068830612 
    638000   248.73527     -44367.822     -50440.896     -322.50902      0.032261518    1.595          0.012904607  
    639000   245.25617     -44249.594     -50237.723     -376.18549      0.03662493     1.5975         0.014649972  
    640000   244.4542      -44330.143     -50298.691      74.027707     -0.0082068722   1.6           -0.0032827489 
    641000   247.06012     -44503.247     -50535.422     -54.539765      0.005534288    1.6025         0.0022137152 
    642000   249.90731     -44205.787     -50307.477     -267.77048      0.023286473    1.605          0.0093145893 
    643000   244.81372     -44349.848     -50327.175     -245.5904       0.020030905    1.6075         0.0080123621 
    644000   247.32532     -44544.444     -50583.093      8.2594523      0.0010040009   1.61           0.00040160037
    645000   246.37121     -44360.917     -50376.271     -182.31151      0.020601506    1.6125         0.0082406024 
    646000   243.17936     -44349.916     -50287.338     -21.542472      0.0020592787   1.615          0.0008237115 
    647000   243.06617     -44480.153     -50414.812      55.142393     -0.0069933698   1.6175        -0.0027973479 
    648000   248.40322     -44198.416     -50263.383     -72.608615      0.0048574468   1.62           0.0019429787 
    649000   243.73919     -44409.589     -50360.68       100.47444     -0.0089361318   1.6225        -0.0035744527 
    650000   248.919       -44200.278     -50277.839      180.41322     -0.016472171    1.625         -0.0065888682 
    651000   247.71837     -44351.541     -50399.787      74.077933     -0.0052192356   1.6275        -0.0020876943 
    652000   243.51384     -44432.159     -50377.747     -143.5247       0.014168049    1.63           0.0056672195 
    653000   249.92133     -44254.534     -50356.567     -90.126836      0.0098358882   1.6325         0.0039343553 
    654000   243.7725      -44476.441     -50428.345     -125.89055      0.011745494    1.635          0.0046981977 
    655000   243.80635     -44350.484     -50303.215     -247.94514      0.024355039    1.6375         0.0097420155 
    656000   245.5357      -44569.697     -50564.651     -431.36064      0.041269951    1.64           0.016507981  
    657000   246.46379     -44331.133     -50348.747     -233.60393      0.023886724    1.6425         0.0095546896 
    658000   245.31119     -44275.382     -50264.854     -7.8834031     -0.00027236864  1.645         -0.00010894745
    659000   247.17131     -44379.99      -50414.879     -42.322915      0.0015280774   1.6475         0.00061123096
    660000   246.43238     -44466.072     -50482.92      -113.09395      0.011982763    1.65           0.0047931052 
    661000   247.8287      -44215.651     -50266.59      -268.71688      0.02483793     1.6525         0.0099351719 
    662000   247.89599     -44324.887     -50377.469      61.275779     -0.0060785589   1.655         -0.0024314236 
    663000   247.50816     -44407.022     -50450.135     -271.78528      0.030741805    1.6575         0.012296722  
    664000   248.9405      -44134.136     -50212.221     -350.86669      0.035204838    1.66           0.014081935  
    665000   244.78704     -44344.838     -50321.513     -387.54636      0.037556682    1.6625         0.015022673  
    666000   250.1332      -44256.81      -50364.016     -250.54635      0.026985488    1.665          0.010794195  
    667000   250.79231     -44038.14      -50161.439     -252.00536      0.025193454    1.6675         0.010077382  
    668000   245.32243     -44394.528     -50384.275     -283.85788      0.025675838    1.67           0.010270335  
    669000   246.18744     -44334.582     -50345.449     -243.01036      0.025077037    1.6725         0.010030815  
    670000   247.13953     -44152.75      -50186.864     -390.59411      0.040994581    1.675          0.016397833  
    671000   248.88907     -44224.374     -50301.203     -271.06116      0.024803671    1.6775         0.0099214684 
    672000   243.34407     -44220.358     -50161.801     -210.36894      0.021665836    1.68           0.0086663342 
    673000   245.38653     -44270.666     -50261.978     -487.75222      0.050713653    1.6825         0.020285461  
    674000   244.6722      -44288.939     -50262.81      -136.13244      0.013442023    1.685          0.0053768091 
    675000   248.81663     -44266.491     -50341.552     -131.70879      0.011155784    1.6875         0.0044623135 
    676000   247.48316     -44195.539     -50238.042     -14.342576     -0.0034491606   1.69          -0.0013796642 
    677000   246.39777     -44305.567     -50321.57      -144.22557      0.014158855    1.6925         0.0056635422 
    678000   246.13605     -44197.968     -50207.58      -161.63956      0.01462067     1.695          0.0058482679 
    679000   246.67693     -44244.605     -50267.424      197.18303     -0.019119963    1.6975        -0.0076479852 
    680000   245.82945     -44165.064     -50167.191      107.41976     -0.012473939    1.7           -0.0049895758 
    681000   247.59741     -44235.063     -50280.355     -241.44989      0.027471156    1.7025         0.010988462  
    682000   243.91312     -44160.694     -50116.031     -267.13361      0.029201464    1.705          0.011680586  
    683000   243.36296     -44206.239     -50148.144     -163.07915      0.016829705    1.7075         0.006731882  
    684000   243.90689     -44269.731     -50224.916     -279.62659      0.027958414    1.71           0.011183366  
    685000   245.19385     -44213.464     -50200.072      52.638        -0.0076946563   1.7125        -0.0030778625 
    686000   246.00226     -44250.981     -50257.326     -302.22827      0.029207126    1.715          0.01168285   
    687000   244.48261     -44304.739     -50273.981      56.492029     -0.0056399105   1.7175        -0.0022559642 
    688000   245.01327     -44442.295     -50424.494      159.89203     -0.017767366    1.72          -0.0071069465 
    689000   248.28543     -44121.189     -50183.28       205.83073     -0.018115961    1.7225        -0.0072463846 
    690000   246.33406     -44155.808     -50170.255     -425.77644      0.043541758    1.725          0.017416703  
    691000   244.31494     -44232.841     -50197.989     -241.10883      0.024251427    1.7275         0.0097005708 
    692000   246.50184     -44320.754     -50339.298     -603.96275      0.060010987    1.73           0.024004395  
    693000   245.21483     -44208.745     -50195.864     -40.873413      0.0026408324   1.7325         0.001056333  
    694000   248.72609     -44181.665     -50254.516     -139.92565      0.01512457     1.735          0.006049828  
    695000   244.76404     -44371.289     -50347.403     -330.36415      0.033969971    1.7375         0.013587988  
    696000   244.66589     -44197.834     -50171.551     -389.90147      0.035281612    1.74           0.014112645  
    697000   243.77769     -44186.933     -50138.964     -177.25104      0.012125113    1.7425         0.0048500454 
    698000   247.2348      -44205.858     -50242.298     -201.03567      0.018422907    1.745          0.0073691628 
    699000   245.95021     -44322.586     -50327.661     -76.12149       0.0068111452   1.7475         0.0027244581 
    700000   248.78478     -43979.031     -50053.314     -66.382396      0.0013461536   1.75           0.00053846143
Loop time of 495.975 on 56 procs for 100000 steps with 12288 atoms

Performance: 17.420 ns/day, 1.378 hours/ns, 201.623 timesteps/s, 2.478 Matom-step/s
99.8% CPU use with 56 MPI tasks x no OpenMP threads

MPI task timing breakdown:
Section |  min time  |  avg time  |  max time  |%varavg| %total
---------------------------------------------------------------
Pair    | 190.23     | 200.3      | 211.25     |  34.2 | 40.39
Bond    | 0.021549   | 0.029523   | 0.049418   |   3.3 |  0.01
Kspace  | 149.03     | 160.03     | 171.08     |  38.1 | 32.27
Neigh   | 22.003     | 22.021     | 22.031     |   0.1 |  4.44
Comm    | 15.942     | 17.987     | 20.022     |  24.8 |  3.63
Output  | 0.22424    | 0.40148    | 0.57162    |  16.3 |  0.08
Modify  | 74.681     | 80.77      | 92.546     |  50.9 | 16.29
Other   |            | 14.43      |            |       |  2.91

Nlocal:        219.429 ave         237 max         202 min
Histogram: 2 2 11 1 10 12 7 5 4 2
Nghost:        6990.96 ave        7042 max        6927 min
Histogram: 1 2 6 3 7 11 14 5 4 3
Neighs:        96047.2 ave      104081 max       87925 min
Histogram: 1 5 10 3 7 11 6 8 3 2

Total # of neighbors = 5378646
Ave neighs/atom = 437.71533
Ave special neighs/atom = 2
Neighbor list builds = 1888
Dangerous builds = 0
kspace_style pppm/tip4p 1.0e-5
next nloop
jump SELF loop_start
run 100000 # 100ps
PPPM initialization ...
  extracting TIP4P info from pair style
  using 12-bit tables for long-range coulomb
  G vector (1/distance) = 0.3306794
  grid = 50 64 50
  stencil order = 5
  estimated absolute RMS force accuracy = 0.0030797115
  estimated relative force accuracy = 9.2744596e-06
  using double precision KISS FFT
  3d grid and FFT values/proc = 13600 3200
Generated 0 of 1 mixed pair_coeff terms from geometric mixing rule
Per MPI rank memory allocation (min/avg/max) = 11.08 | 11.19 | 11.29 Mbytes
   Step          Temp          TotEng         PotEng          Pxy           v_sxy         v_strain     v_viscosity  
    700000   248.78405     -43979.087     -50053.352     -61.958373      0.00089288136  1.75           0.00035715255
    701000   244.95818     -44321.737     -50302.591     -126.51991      0.01176674     1.7525         0.0047066961 
    702000   248.70975     -44023.713     -50096.164     -143.58706      0.011851456    1.755          0.0047405824 
    703000   248.10147     -44123.173     -50180.772      70.694822     -0.0032711659   1.7575        -0.0013084663 
    704000   242.36556     -44383.132     -50300.684     -333.25167      0.034520023    1.76           0.013808009  
    705000   246.04485     -44209.36      -50216.746     -55.597014      0.003597226    1.7625         0.0014388904 
    706000   246.83196     -44266.839     -50293.443     -119.91937      0.010123237    1.765          0.004049295  
    707000   249.78591     -44300.764     -50399.49       32.698786     -0.0023218108   1.7675        -0.00092872433
    708000   241.67417     -44507.376     -50408.048      10.698762     -0.0026592376   1.77          -0.0010636951 
    709000   250.37538     -44179.992     -50293.111      8.4865953     -0.00017434052  1.7725        -6.9736209e-05
    710000   244.02738     -44311.215     -50269.342     -10.318591      0.0012194287   1.775          0.00048777146
    711000   245.96779     -44312.795     -50318.299      29.072853     -0.0022753153   1.7775        -0.00091012613
    712000   248.41992     -44313.254     -50378.629      109.59638     -0.010894733    1.78          -0.0043578931 
    713000   247.9737      -44239.69      -50294.17      -5.389258      -0.0016434958   1.7825        -0.00065739833
    714000   242.96374     -44265.031     -50197.189     -81.787393      0.0078324572   1.785          0.0031329829 
    715000   246.78084     -44339.816     -50365.171     -188.30631      0.019390985    1.7875         0.0077563942 
    716000   247.65911     -44173.03      -50219.829      93.285533     -0.011070499    1.79          -0.0044281997 
    717000   246.11977     -44331.856     -50341.071     -16.451479     -0.0027093997   1.7925        -0.0010837599 
    718000   242.93359     -44353.339     -50284.761     -128.80814      0.011751502    1.795          0.0047006007 
    719000   245.97656     -44309.641     -50315.36      -6.3184366     -0.0058255526   1.7975        -0.002330221  
    720000   245.14243     -44304.875     -50290.227     -390.814        0.04067046     1.8            0.016268184  
    721000   252.05444     -44136.348     -50290.462      52.301342     -0.0089729094   1.8025        -0.0035891637 
    722000   244.77023     -44350.077     -50326.342     -41.979231      0.0067411733   1.805          0.0026964693 
    723000   249.01287     -44337.887     -50417.739     -192.23817      0.018783695    1.8075         0.007513478  
    724000   248.11481     -44244.637     -50302.562      140.21551     -0.013482255    1.81          -0.0053929021 
    725000   244.98136     -44272.314     -50253.734     -474.09785      0.04683701     1.8125         0.018734804  
    726000   245.44026     -44236.42      -50229.044     -151.38805      0.017176593    1.815          0.0068706371 
    727000   247.50674     -44364.542     -50407.621     -75.338993      0.0062469836   1.8175         0.0024987934 
    728000   244.81768     -44238.05      -50215.473      35.346007     -0.00026990502  1.82          -0.00010796201
    729000   243.57395     -44449.306     -50396.363     -118.44022      0.010868156    1.8225         0.0043472623 
    730000   245.49678     -44433.748     -50427.752      18.475096     -0.0015180881   1.825         -0.00060723523
    731000   245.50684     -44272.638     -50266.888      94.943375     -0.0060307839   1.8275        -0.0024123136 
    732000   248.28412     -44168.16      -50230.219      30.579554     -0.0019530777   1.83          -0.00078123106
    733000   245.48758     -44358.752     -50352.532     -89.174638      0.0071651046   1.8325         0.0028660418 
    734000   245.91928     -44343.334     -50347.653     -87.263701      0.0073591993   1.835          0.0029436797 
    735000   247.988       -44276.435     -50331.264     -51.343251      0.0050619731   1.8375         0.0020247892 
    736000   239.51438     -44491.25      -50339.189     -430.33817      0.041254861    1.84           0.016501944  
    737000   244.74596     -44391.57      -50367.242     -242.3495       0.0227247      1.8425         0.0090898802 
    738000   246.47022     -44287.643     -50305.415      18.287383     -0.0070653887   1.845         -0.0028261555 
    739000   242.33014     -44559.884     -50476.572     -74.61801       0.0075833201   1.8475         0.003033328  
    740000   246.67667     -44382.67      -50405.482      21.748464     -0.00098855467  1.85          -0.00039542187
    741000   244.04344     -44333.04      -50291.56      -201.87077      0.017629616    1.8525         0.0070518464 
    742000   244.081       -44324.923     -50284.359     -550.90116      0.056835508    1.855          0.022734203  
    743000   241.27651     -44473.826     -50364.789     -144.13189      0.017672612    1.8575         0.0070690447 
    744000   250.00715     -44231.507     -50335.636     -108.54072      0.010816531    1.86           0.0043266122 
    745000   248.24012     -44237.24      -50298.225     -69.566781      0.0062997837   1.8625         0.0025199135 
    746000   243.48917     -44520.327     -50465.313     -404.08989      0.041153071    1.865          0.016461228  
    747000   245.3419      -44238.391     -50228.613     -104.37169      0.013355381    1.8675         0.0053421525 
    748000   245.70501     -44431.796     -50430.885      6.4940627      0.0018033221   1.87           0.00072132883
    749000   241.36896     -44508.151     -50401.371      11.354195      0.0034991488   1.8725         0.0013996595 
    750000   248.51358     -44180.277     -50247.938     -172.48983      0.015851391    1.875          0.0063405564 
    751000   244.33065     -44324.435     -50289.967     -138.99332      0.013831914    1.8775         0.0055327656 
    752000   244.15206     -44334.593     -50295.765     -512.04208      0.05104468     1.88           0.020417872  
    753000   244.38683     -44413.26      -50380.164     -79.385178      0.010772818    1.8825         0.0043091273 
    754000   248.61825     -44436.551     -50506.769     -291.36546      0.031191881    1.885          0.012476752  
    755000   245.60396     -44405.712     -50402.332     -110.73724      0.0099021236   1.8875         0.0039608494 
    756000   247.6906      -44294.726     -50342.294     -113.11083      0.010067408    1.89           0.0040269633 
    757000   246.02566     -44412.143     -50419.06      -122.34601      0.013501661    1.8925         0.0054006643 
    758000   251.2528      -44087.708     -50222.25      -147.51813      0.013872333    1.895          0.0055489332 
    759000   244.38174     -44497.745     -50464.525      88.014888     -0.011054231    1.8975        -0.0044216925 
    760000   244.97668     -44184.832     -50166.138      83.682796     -0.0085693534   1.9           -0.0034277414 
    761000   245.43585     -44358.296     -50350.812     -18.346291     -0.0020965141   1.9025        -0.00083860564
    762000   248.38226     -44268.036     -50332.492      7.482788       0.00019986616  1.905          7.9946463e-05
    763000   247.38148     -44250.779     -50290.799     -408.50048      0.044220608    1.9075         0.017688243  
    764000   241.50304     -44502.652     -50399.146      211.08914     -0.01748394     1.91          -0.0069935761 
    765000   246.53552     -44326.914     -50346.28      -0.29126135     0.0023125719   1.9125         0.00092502874
    766000   243.78862     -44430.979     -50383.277     -417.89502      0.040291477    1.915          0.016116591  
    767000   245.31699     -44388.738     -50378.352     -178.89829      0.015788306    1.9175         0.0063153223 
    768000   243.42766     -44386.372     -50329.857      136.68553     -0.017106516    1.92          -0.0068426064 
    769000   244.0768      -44399.113     -50358.447     -241.06268      0.027210996    1.9225         0.010884398  
    770000   247.86971     -44393.035     -50444.976     -194.26527      0.018159247    1.925          0.0072636988 
    771000   247.78481     -44214.197     -50264.065      7.3356154      0.0010987588   1.9275         0.00043950353
    772000   248.13786     -44284.039     -50342.528     -47.070749      0.0015445415   1.93           0.00061781659
    773000   246.09644     -44436.89      -50445.535     -364.15297      0.033785266    1.9325         0.013514106  
    774000   245.03563     -44386.579     -50369.323     -294.70403      0.027605246    1.935          0.011042098  
    775000   245.2474      -44338.819     -50326.734     -368.2743       0.037455743    1.9375         0.014982297  
    776000   245.10922     -44408.531     -50393.072     -113.34452      0.011989962    1.94           0.0047959849 
    777000   246.74196     -44366.501     -50390.907     -270.57924      0.029592813    1.9425         0.011837125  
    778000   244.94792     -44437.358     -50417.961      16.754445     -0.00091327335  1.945         -0.00036530934
    779000   248.57063     -44220.166     -50289.221     -278.19538      0.028750926    1.9475         0.01150037   
    780000   243.41904     -44357.256     -50300.53      -88.589899      0.0081343151   1.95           0.0032537261 
    781000   247.24684     -44333.605     -50370.338     -145.66238      0.020641392    1.9525         0.0082565568 
    782000   246.5526      -44402.879     -50422.661     -392.06187      0.036591455    1.955          0.014636582  
    783000   244.74547     -44304.165     -50279.825      41.971596     -0.0036729979   1.9575        -0.0014691991 
    784000   245.2904      -44401.886     -50390.851     -581.34729      0.060560156    1.96           0.024224062  
    785000   250.35565     -44383.308     -50495.945     -332.10878      0.034842477    1.9625         0.013936991  
    786000   242.73216     -44432.603     -50359.107     -218.07134      0.023488798    1.965          0.0093955192 
    787000   245.09966     -44434.186     -50418.494      12.195269     -0.0020860259   1.9675        -0.00083441036
    788000   245.04033     -44330.931     -50313.79      -273.23623      0.027660429    1.97           0.011064172  
    789000   245.16643     -44447.94      -50433.879     -196.85749      0.021638925    1.9725         0.00865557   
    790000   247.55389     -44287.262     -50331.492     -174.69001      0.019681811    1.975          0.0078727245 
    791000   242.84696     -44389.573     -50318.88      -515.45774      0.049782741    1.9775         0.019913096  
    792000   247.48177     -44149.818     -50192.287     -350.83098      0.039922866    1.98           0.015969146  
    793000   244.44915     -44352.119     -50320.545     -234.99294      0.023624735    1.9825         0.0094498941 
    794000   245.47482     -44264.294     -50257.762     -63.09682       0.0034999603   1.985          0.0013999841 
    795000   243.70817     -44428.147     -50378.48      -129.18249      0.016516236    1.9875         0.0066064943 
    796000   244.03225     -44358.885     -50317.132     -341.62237      0.03413407     1.99           0.013653628  
    797000   245.56416     -44343.594     -50339.244     -25.701765     -4.0724068e-05  1.9925        -1.6289627e-05
    798000   243.37529     -44325.018     -50267.224     -92.806582      0.013083138    1.995          0.0052332553 
    799000   243.94753     -44280.99      -50237.167     -492.76004      0.045357795    1.9975         0.018143118  
    800000   243.74341     -44357.812     -50309.007     -191.8228       0.019215935    2              0.0076863742 
Loop time of 457.651 on 56 procs for 100000 steps with 12288 atoms

Performance: 18.879 ns/day, 1.271 hours/ns, 218.507 timesteps/s, 2.685 Matom-step/s
99.8% CPU use with 56 MPI tasks x no OpenMP threads

MPI task timing breakdown:
Section |  min time  |  avg time  |  max time  |%varavg| %total
---------------------------------------------------------------
Pair    | 187.19     | 198.82     | 213.54     |  37.4 | 43.44
Bond    | 0.018445   | 0.026725   | 0.04517    |   3.3 |  0.01
Kspace  | 125.92     | 141.2      | 153.06     |  43.6 | 30.85
Neigh   | 22.159     | 22.179     | 22.191     |   0.1 |  4.85
Comm    | 15.306     | 16.284     | 17.505     |  12.9 |  3.56
Output  | 0.22472    | 0.40317    | 0.57464    |  16.4 |  0.09
Modify  | 66.582     | 69.763     | 76.591     |  30.7 | 15.24
Other   |            | 8.97       |            |       |  1.96

Nlocal:        219.429 ave         235 max         201 min
Histogram: 1 2 3 4 11 18 5 5 4 3
Nghost:        6851.91 ave        6891 max        6815 min
Histogram: 6 4 2 11 5 7 6 6 7 2
Neighs:        96050.9 ave      103234 max       87261 min
Histogram: 1 2 3 5 10 16 8 3 4 4

Total # of neighbors = 5378853
Ave neighs/atom = 437.73218
Ave special neighs/atom = 2
Neighbor list builds = 1878
Dangerous builds = 0
kspace_style pppm/tip4p 1.0e-5
next nloop
jump SELF loop_start
run 100000 # 100ps
PPPM initialization ...
  extracting TIP4P info from pair style
  using 12-bit tables for long-range coulomb
  G vector (1/distance) = 0.32815664
  grid = 50 50 50
  stencil order = 5
  estimated absolute RMS force accuracy = 0.0035802102
  estimated relative force accuracy = 1.0781697e-05
  using double precision KISS FFT
  3d grid and FFT values/proc = 11424 2800
Generated 0 of 1 mixed pair_coeff terms from geometric mixing rule
Per MPI rank memory allocation (min/avg/max) = 10.91 | 11.03 | 11.12 Mbytes
   Step          Temp          TotEng         PotEng          Pxy           v_sxy         v_strain     v_viscosity  
    800000   243.74351     -44357.806     -50309.002     -186.43099      0.018667356    2              0.0074669424 
    801000   246.65447     -44193.977     -50216.247     -224.75238      0.023398486    2.0025         0.0093593946 
    802000   245.37108     -44374.309     -50365.244      39.340847     -0.0025697453   2.005         -0.0010278981 
    803000   243.04901     -44272.793     -50207.033     -44.821382      0.002665679    2.0075         0.0010662716 
    804000   243.72615     -44339.263     -50290.035     -8.913792       0.00042151037  2.01           0.00016860415
    805000   246.25182     -44227.885     -50240.323     -40.579666      0.0048587343   2.0125         0.0019434937 
    806000   246.19037     -44318.945     -50329.884     -89.429217      0.010585831    2.015          0.0042343323 
    807000   246.60961     -44281.992     -50303.166     -38.649153      0.0028220293   2.0175         0.0011288117 
    808000   246.8541      -44282.614     -50309.758      16.504904     -0.004160417    2.02          -0.0016641668 
    809000   244.78874     -44309.546     -50286.263     -65.76937       0.0079644265   2.0225         0.0031857706 
    810000   248.47976     -44193.577     -50260.413     -85.166878      0.0027369852   2.025          0.0010947941 
    811000   240.09822     -44471.583     -50333.777     -424.51196      0.038931264    2.0275         0.015572506  
    812000   249.21323     -44185.531     -50270.275     -354.35275      0.034112625    2.03           0.01364505   
    813000   247.11955     -44262.517     -50296.143      175.73127     -0.022094664    2.0325        -0.0088378655 
    814000   247.8604      -44217.815     -50269.529     -195.35887      0.021827478    2.035          0.0087309911 
    815000   246.10606     -44278.12      -50287.001     -17.945032      0.00074824714  2.0375         0.00029929886
    816000   245.66533     -44184.818     -50182.937     -233.4965       0.02494013     2.04           0.009976052  
    817000   245.72658     -44310.673     -50310.288     -61.521778      0.0064279444   2.0425         0.0025711777 
    818000   245.71593     -44329.203     -50328.558     -176.06773      0.013699373    2.045          0.0054797492 
    819000   249.43733     -44396.989     -50487.205     -149.99598      0.012902878    2.0475         0.0051611513 
    820000   244.52757     -44441.466     -50411.806     -218.57974      0.022861846    2.05           0.0091447385 
    821000   244.71468     -44260.374     -50235.283      54.975816     -0.0049496555   2.0525        -0.0019798622 
    822000   248.05782     -44226.987     -50283.521     -287.75686      0.030343914    2.055          0.012137566  
    823000   246.61098     -44218.736     -50239.944      112.89458     -0.012989396    2.0575        -0.0051957585 
    824000   245.79855     -44411.789     -50413.161     -150.51613      0.016138414    2.06           0.0064553657 
    825000   252.50208     -44096.105     -50261.149      68.599068     -0.0065586796   2.0625        -0.0026234718 
    826000   244.57446     -44381.514     -50352.999     -322.82463      0.029827859    2.065          0.011931143  
    827000   244.45766     -44483.682     -50452.315     -406.64132      0.03983374     2.0675         0.015933496  
    828000   248.10625     -44369.03      -50426.746     -255.16004      0.023217296    2.07           0.0092869182 
    829000   247.3944      -44304.299     -50344.635     -235.17672      0.019222541    2.0725         0.0076890164 
    830000   245.76187     -44394.568     -50395.044     -182.9684       0.015784726    2.075          0.0063138905 
    831000   244.71297     -44473.056     -50447.923     -167.60365      0.01714933     2.0775         0.0068597322 
    832000   244.7317      -44347.944     -50323.268      13.595216      0.0028688017   2.08           0.0011475207 
    833000   249.49465     -44300.556     -50392.172     -111.53823      0.011460825    2.0825         0.0045843302 
    834000   244.46464     -44391.935     -50360.738     -13.257542     -0.00053394456  2.085         -0.00021357783
    835000   246.38087     -44349.482     -50365.071      133.24363     -0.011327844    2.0875        -0.0045311377 
    836000   244.46129     -44368.155     -50336.877     -293.42616      0.030873186    2.09           0.012349274  
    837000   244.18593     -44447.562     -50409.561     -300.0415       0.025686938    2.0925         0.010274775  
    838000   244.86119     -44310.131     -50288.617     -149.18679      0.017944588    2.095          0.0071778353 
    839000   246.88644     -44312.865     -50340.798      220.34618     -0.022575524    2.0975        -0.0090302095 
    840000   247.16528     -44393.738     -50428.48      -51.233309      0.0081297363   2.1            0.0032518945 
    841000   245.44308     -44352.474     -50345.166      72.247448     -0.0079322798   2.1025        -0.0031729119 
    842000   242.66693     -44516.954     -50441.865     -136.79045      0.010525566    2.105          0.0042102262 
    843000   250.28877     -44057.064     -50168.068      135.72627     -0.0089882172   2.1075        -0.0035952869 
    844000   243.06009     -44599.023     -50533.533     -1.4718996      0.000171605    2.11           6.8641999e-05
    845000   249.55653     -44201.907     -50295.033      21.835078     -0.0042264879   2.1125        -0.0016905952 
    846000   242.40133     -44462.164     -50380.59      -147.97644      0.014671734    2.115          0.0058686935 
    847000   246.57006     -44348.926     -50369.135     -164.86801      0.01210394     2.1175         0.0048415759 
    848000   247.92535     -44283.054     -50336.353      54.611278     -0.0023942106   2.12          -0.00095768426
    849000   244.88256     -44383.461     -50362.469     -12.706417      0.0032932302   2.1225         0.0013172921 
    850000   245.84526     -44343.819     -50346.332      32.518772     -0.00041451735  2.125         -0.00016580694
    851000   246.71407     -44261.602     -50285.327     -324.91987      0.031432564    2.1275         0.012573026  
    852000   249.09477     -44261.16      -50343.012      184.7375      -0.017420845    2.13          -0.0069683379 
    853000   245.46263     -44277.214     -50270.384     -141.55805      0.012148353    2.1325         0.0048593413 
    854000   249.65172     -44245.82      -50341.27      -144.97107      0.016298415    2.135          0.0065193662 
    855000   244.1786      -44364.75      -50326.57      -200.52399      0.019670727    2.1375         0.0078682907 
    856000   246.28871     -44267.555     -50280.895     -310.32598      0.029467633    2.14           0.011787053  
    857000   246.60809     -44404.739     -50425.877     -128.32148      0.017221951    2.1425         0.0068887805 
    858000   248.94674     -44239.064     -50317.302     -30.521374      0.0066309375   2.145          0.002652375  
    859000   248.46611     -44218.017     -50284.519     -155.40266      0.013485515    2.1475         0.0053942059 
    860000   242.43183     -44449.125     -50368.296     -33.635949      0.0064681319   2.15           0.0025872528 
    861000   246.80937     -44229.411     -50255.463     -162.45634      0.016175162    2.1525         0.0064700649 
    862000   245.76501     -44377.791     -50378.344     -62.252905      0.00071304399  2.155          0.0002852176 
    863000   246.98141     -44320.243     -50350.495     -195.06386      0.020454239    2.1575         0.0081816954 
    864000   243.35731     -44401.188     -50342.955     -107.07254      0.006904182    2.16           0.0027616728 
    865000   244.53983     -44313.165     -50283.804     -210.69523      0.022802106    2.1625         0.0091208426 
    866000   244.60625     -44368.73      -50340.991     -318.00409      0.029383997    2.165          0.011753599  
    867000   243.86434     -44342.942     -50297.088     -82.973383      0.0063379997   2.1675         0.0025351999 
    868000   248.88741     -44198.371     -50275.16      -185.02558      0.013179861    2.17           0.0052719442 
    869000   251.22731     -44229.261     -50363.181     -241.09866      0.020144026    2.1725         0.0080576105 
    870000   244.95856     -44424.738     -50405.601      188.78264     -0.021823701    2.175         -0.0087294804 
    871000   244.16392     -44323.152     -50284.613     -111.22463      0.011004257    2.1775         0.0044017027 
    872000   247.8795      -44209.097     -50261.277     -3.7913811     -0.0024861653   2.18          -0.0009944661 
    873000   246.866       -44259.404     -50286.839     -375.57603      0.03442744     2.1825         0.013770976  
    874000   247.77019     -44200.442     -50249.953     -205.9163       0.020988239    2.185          0.0083952958 
    875000   247.15726     -44344.707     -50379.253     -46.158675      0.0046062758   2.1875         0.0018425103 
    876000   243.23381     -44285.809     -50224.56       55.104152     -0.0073306475   2.19          -0.002932259  
    877000   247.43672     -44142.025     -50183.395     -64.632446      0.0053130456   2.1925         0.0021252182 
    878000   245.5584      -44127.778     -50123.286     -232.78401      0.018608177    2.195          0.0074432708 
    879000   244.5459      -44292.559     -50263.346     -48.969747      0.0026181372   2.1975         0.0010472549 
    880000   242.94841     -44124.463     -50056.247      39.584568     -0.0022891082   2.2           -0.00091564329
    881000   248.20184     -44090.29      -50150.34      -148.29999      0.013438865    2.2025         0.0053755459 
    882000   245.11228     -44217.221     -50201.837      25.853609     -0.0081617657   2.205         -0.0032647063 
    883000   245.00668     -44318.217     -50300.255     -250.50588      0.023922222    2.2075         0.0095688888 
    884000   248.04109     -44293.583     -50349.708     -65.201898      0.0077144519   2.21           0.0030857808 
    885000   248.36048     -44339.214     -50403.137     -293.61021      0.027569963    2.2125         0.011027985  
    886000   246.03511     -44461.426     -50468.574     -66.03175       0.010364857    2.215          0.004145943  
    887000   250.3422      -44255.377     -50367.686      89.36615      -0.0056906583   2.2175        -0.0022762633 
    888000   245.18351     -44312.608     -50298.963     -236.81587      0.025570581    2.22           0.010228233  
    889000   246.49478     -44227.028     -50245.399     -290.06462      0.031859053    2.2225         0.012743621  
    890000   244.89216     -44335.299     -50314.541     -2.8001443      0.0028414114   2.225          0.0011365646 
    891000   242.73124     -44326.676     -50253.157     -175.89898      0.019088785    2.2275         0.007635514  
    892000   243.04355     -44360.89      -50294.997     -377.01714      0.037004719    2.23           0.014801887  
    893000   249.68224     -44225.836     -50322.031     -16.733402      0.0013272599   2.2325         0.00053090397
    894000   245.05903     -44223.918     -50207.234      139.01994     -0.015521222    2.235         -0.0062084889 
    895000   248.17628     -44244.105     -50303.531     -97.311463      0.0096758567   2.2375         0.0038703427 
    896000   244.75445     -44394.441     -50370.321      117.59099     -0.013237416    2.24          -0.0052949666 
    897000   251.50495     -44083.669     -50224.367     -139.65008      0.01050688     2.2425         0.0042027519 
    898000   244.21123     -44257.226     -50219.842     -0.44723605     0.00081885159  2.245          0.00032754064
    899000   245.65154     -44363.533     -50361.315     -593.9408       0.060172338    2.2475         0.024068935  
    900000   247.714       -44249.295     -50297.434     -49.566842      0.0073038573   2.25           0.0029215429 
Loop time of 425.11 on 56 procs for 100000 steps with 12288 atoms

Performance: 20.324 ns/day, 1.181 hours/ns, 235.233 timesteps/s, 2.891 Matom-step/s
99.8% CPU use with 56 MPI tasks x no OpenMP threads

MPI task timing breakdown:
Section |  min time  |  avg time  |  max time  |%varavg| %total
---------------------------------------------------------------
Pair    | 186.9      | 196.68     | 211.32     |  35.8 | 46.27
Bond    | 0.017267   | 0.024744   | 0.045018   |   3.2 |  0.01
Kspace  | 106.59     | 120.71     | 129.95     |  43.1 | 28.40
Neigh   | 22.278     | 22.29      | 22.305     |   0.1 |  5.24
Comm    | 14.701     | 15.683     | 17.271     |  17.8 |  3.69
Output  | 0.22603    | 0.40417    | 0.57541    |  16.3 |  0.10
Modify  | 51.807     | 56.431     | 66.981     |  46.2 | 13.27
Other   |            | 12.88      |            |       |  3.03

Nlocal:        219.429 ave         238 max         205 min
Histogram: 3 5 6 9 9 11 8 2 2 1
Nghost:        6959.98 ave        7017 max        6892 min
Histogram: 1 4 3 8 12 3 9 6 7 3
Neighs:        96067.6 ave      104468 max       89002 min
Histogram: 4 6 3 6 11 13 7 2 3 1

Total # of neighbors = 5379786
Ave neighs/atom = 437.80811
Ave special neighs/atom = 2
Neighbor list builds = 1875
Dangerous builds = 0
kspace_style pppm/tip4p 1.0e-5
next nloop
jump SELF loop_start
run 100000 # 100ps
PPPM initialization ...
  extracting TIP4P info from pair style
  using 12-bit tables for long-range coulomb
  G vector (1/distance) = 0.32881326
  grid = 50 64 50
  stencil order = 5
  estimated absolute RMS force accuracy = 0.003443216
  estimated relative force accuracy = 1.0369143e-05
  using double precision KISS FFT
  3d grid and FFT values/proc = 13600 3200
Generated 0 of 1 mixed pair_coeff terms from geometric mixing rule
Per MPI rank memory allocation (min/avg/max) = 11.08 | 11.19 | 11.29 Mbytes
   Step          Temp          TotEng         PotEng          Pxy           v_sxy         v_strain     v_viscosity  
    900000   247.71049     -44249.364     -50297.418     -44.948588      0.0068231313   2.25           0.0027292525 
    901000   249.28219     -44189.13      -50275.558     -171.5692       0.016300571    2.2525         0.0065202285 
    902000   243.3619      -44303.047     -50244.926      50.608621     -0.0063744534   2.255         -0.0025497814 
    903000   243.81144     -44362.567     -50315.422      119.34606     -0.012637329    2.2575        -0.0050549317 
    904000   249.03246     -44266.847     -50347.177     -75.556439      0.0015689185   2.26           0.00062756741
    905000   244.87002     -44482.142     -50460.843     -264.6984       0.027175056    2.2625         0.010870023  
    906000   246.34095     -44356.729     -50371.344     -194.72626      0.021568646    2.265          0.0086274583 
    907000   244.44505     -44306.844     -50275.169      40.094798     -0.0020757613   2.2675        -0.00083030454
    908000   246.43112     -44416.82      -50433.637     -260.32749      0.02373883     2.27           0.009495532  
    909000   244.31656     -44370.823     -50336.011     -239.37545      0.024464267    2.2725         0.0097857068 
    910000   245.71049     -44316.079     -50315.3       -226.23572      0.020817867    2.275          0.0083271467 
    911000   245.29071     -44515.153     -50504.125     -78.048724      0.0052561018   2.2775         0.0021024407 
    912000   249.781       -44268.151     -50366.758     -231.71969      0.023990069    2.28           0.0095960276 
    913000   245.7704      -44382.531     -50383.216     -168.25028      0.014548485    2.2825         0.0058193942 
    914000   243.84586     -44437.622     -50391.317     -425.55937      0.044256073    2.285          0.017702429  
    915000   247.74712     -44398.115     -50447.062      31.36088      -0.0033767413   2.2875        -0.0013506965 
    916000   246.87274     -44382.999     -50410.599      28.674998     -0.0041063948   2.29          -0.0016425579 
    917000   246.86502     -44363.301     -50390.712     -480.4951       0.048000219    2.2925         0.019200088  
    918000   248.01319     -44231.427     -50286.871     -362.986        0.036658932    2.295          0.014663573  
    919000   244.01593     -44363.704     -50321.552      36.678011     -0.0033286208   2.2975        -0.0013314483 
    920000   246.56406     -44154.677     -50174.74      -159.54798      0.018610308    2.3            0.0074441231 
    921000   242.33481     -44231.845     -50148.647      8.0586045     -0.00082596344  2.3025        -0.00033038538
    922000   247.78041     -44328.661     -50378.422     -282.74826      0.025262549    2.305          0.010105019  
    923000   245.14742     -44460.09      -50445.564     -98.300288      0.012497342    2.3075         0.0049989368 
    924000   246.67381     -44418.958     -50441.7        183.61243     -0.017868024    2.31          -0.0071472098 
    925000   244.58464     -44281.801     -50253.535     -538.75873      0.053172518    2.3125         0.021269007  
    926000   245.80149     -44216.269     -50217.713     -145.1448       0.013310349    2.315          0.0053241396 
    927000   243.97951     -44380.031     -50336.99      -161.18214      0.013519544    2.3175         0.0054078177 
    928000   248.12014     -44123.204     -50181.26       125.00054     -0.012658165    2.32          -0.0050632661 
    929000   244.844       -44402.74      -50380.806     -27.957175      0.0024849843   2.3225         0.00099399372
    930000   245.34654     -44420.186     -50410.522      28.318434     -0.0030477559   2.325         -0.0012191023 
    931000   247.19795     -44171.152     -50206.692     -186.72519      0.021195627    2.3275         0.008478251  
    932000   248.98642     -44078.268     -50157.475     -18.544025      0.0010932346   2.33           0.00043729383
    933000   245.05492     -44324.848     -50308.063     -262.21771      0.029080803    2.3325         0.011632321  
    934000   247.81822     -44187.845     -50238.529     -146.37756      0.014799514    2.335          0.0059198057 
    935000   241.79415     -44342.403     -50246.005     -297.7153       0.029748359    2.3375         0.011899344  
    936000   246.57394     -44196.333     -50216.637     -296.18851      0.03149301     2.34           0.012597204  
    937000   250.88459     -44235.32      -50360.871     -157.14085      0.015473178    2.3425         0.006189271  
    938000   248.24051     -44247.382     -50308.376     -24.040118      0.0062136028   2.345          0.0024854411 
    939000   242.18275     -44454.803     -50367.893     -43.834476      0.0056578586   2.3475         0.0022631434 
    940000   250.46019     -44246.527     -50361.717      32.707896     -0.0031616516   2.35          -0.0012646606 
    941000   245.87546     -44347.866     -50351.116     -281.69589      0.021949636    2.3525         0.0087798544 
    942000   244.15262     -44321.331     -50282.516      32.031126     -0.0038530495   2.355         -0.0015412198 
    943000   243.869       -44206.609     -50160.869     -155.27299      0.015777826    2.3575         0.0063111303 
    944000   245.10351     -44335.127     -50319.529     -410.22591      0.039521961    2.36           0.015808784  
    945000   248.04659     -44316.206     -50372.466     -126.77331      0.013256919    2.3625         0.0053027674 
    946000   244.48289     -44377.1       -50346.349     -228.36241      0.022486579    2.365          0.0089946317 
    947000   243.61069     -44372.478     -50320.432     -474.37171      0.048475307    2.3675         0.019390123  
    948000   247.76043     -44107.193     -50156.466     -177.61505      0.015825544    2.37           0.0063302178 
    949000   244.49997     -44401.079     -50370.745     -440.36628      0.043180912    2.3725         0.017272365  
    950000   247.22746     -44198.315     -50234.575     -239.45139      0.023233137    2.375          0.0092932548 
    951000   247.23828     -44345.786     -50382.31      -105.57793      0.011120973    2.3775         0.0044483892 
    952000   246.36278     -44281.491     -50296.639      64.353023     -0.0047781262   2.38          -0.0019112505 
    953000   248.14436     -44340.978     -50399.625     -198.66322      0.017151286    2.3825         0.0068605146 
    954000   245.12554     -44367.441     -50352.381      39.378064     -0.0086535792   2.385         -0.0034614317 
    955000   247.1186      -44323.433     -50357.035     -117.35927      0.012566718    2.3875         0.0050266872 
    956000   245.34273     -44441.341     -50431.584     -171.68132      0.017275836    2.39           0.0069103343 
    957000   248.63996     -44338.291     -50409.039     -96.435115      0.0071744693   2.3925         0.0028697877 
    958000   248.52529     -44304.804     -50372.752      229.17683     -0.021856127    2.395         -0.0087424508 
    959000   245.30357     -44411.442     -50400.728     -207.71986      0.020239483    2.3975         0.0080957933 
    960000   247.68261     -44369.268     -50416.641     -13.607259      0.0019322415   2.4            0.00077289661
    961000   248.14581     -44349.722     -50408.404     -327.53319      0.0319128      2.4025         0.01276512   
    962000   246.16093     -44313.514     -50323.733     -275.58244      0.027458241    2.405          0.010983297  
    963000   243.00882     -44473.077     -50406.336     -410.97468      0.040911974    2.4075         0.01636479   
    964000   247.78294     -44386.046     -50435.869     -153.24806      0.01687459     2.41           0.0067498359 
    965000   246.27353     -44363.184     -50376.153     -358.6701       0.038631878    2.4125         0.015452751  
    966000   246.14124     -44291.486     -50301.225     -552.68204      0.054469974    2.415          0.021787989  
    967000   250.64823     -44084.945     -50204.726     -449.20297      0.042869573    2.4175         0.017147829  
    968000   241.70524     -44381.041     -50282.472     -183.28531      0.016666063    2.42           0.0066664252 
    969000   248.50012     -44186.488     -50253.821     -53.234105      0.0025445195   2.4225         0.0010178078 
    970000   243.94587     -44274.001     -50230.138     -126.99681      0.0081139612   2.425          0.0032455845 
    971000   245.62882     -44285.087     -50282.315     -236.03656      0.02278302     2.4275         0.0091132081 
    972000   246.85109     -44298.016     -50325.087     -50.62084       0.0076096901   2.43           0.003043876  
    973000   244.1427      -44094.834     -50055.777     -182.75269      0.018885006    2.4325         0.0075540024 
    974000   242.28457     -44290.341     -50205.917      62.536234     -0.010162482    2.435         -0.0040649928 
    975000   243.97048     -44208.726     -50165.464      151.65879     -0.014525231    2.4375        -0.0058100923 
    976000   244.14966     -44192.688     -50153.801      203.56605     -0.01856997     2.44          -0.0074279881 
    977000   246.74996     -44240.983     -50265.584     -67.720649      0.0069811315   2.4425         0.0027924526 
    978000   248.2167      -44274.262     -50334.675     -116.67963      0.013550152    2.445          0.0054200607 
    979000   247.17656     -44157.913     -50192.93      -90.692592      0.01009662     2.4475         0.0040386479 
    980000   247.68126     -44246.073     -50293.413     -155.50606      0.01908008     2.45           0.0076320321 
    981000   241.94129     -44309.475     -50216.669      99.045939     -0.01240409     2.4525        -0.0049616362 
    982000   244.6454      -44215.699     -50188.916      222.45664     -0.023004785    2.455         -0.009201914  
    983000   246.5836      -44237.066     -50257.605     -0.13766607    -0.0035783349   2.4575        -0.001431334  
    984000   244.84004     -44101.08      -50079.049     -350.50067      0.031066176    2.46           0.01242647   
    985000   248.04389     -44067.061     -50123.255      194.91092     -0.017775587    2.4625        -0.0071102347 
    986000   245.70724     -44274.68      -50273.823     -209.20758      0.020087322    2.465          0.008034929  
    987000   244.7485      -44133.9       -50109.634     -186.27718      0.01615303     2.4675         0.006461212  
    988000   243.68452     -44257.493     -50207.249     -119.49042      0.01050034     2.47           0.0042001361 
    989000   245.90158     -44078.806     -50082.693     -68.563169      0.01000363     2.4725         0.0040014518 
    990000   244.55953     -44195.887     -50167.007     -204.88419      0.019482517    2.475          0.0077930069 
    991000   242.17799     -44283.8       -50196.773     -106.36231      0.01098276     2.4775         0.0043931039 
    992000   244.38501     -44159.662     -50126.522      174.17529     -0.016946339    2.48          -0.0067785355 
    993000   244.37184     -44191.038     -50157.575     -454.94089      0.044316765    2.4825         0.017726706  
    994000   244.68375     -44305.863     -50280.016      307.25737     -0.031120994    2.485         -0.012448397  
    995000   251.53682     -43955.258     -50096.735      335.12552     -0.030560986    2.4875        -0.012224394  
    996000   245.52635     -44176.923     -50171.649      231.8608      -0.022060591    2.49          -0.0088242362 
    997000   246.73184     -44129.777     -50153.936     -33.575529      0.0056226525   2.4925         0.002249061  
    998000   246.12398     -44309.737     -50319.055      8.7268536     -0.0035079768   2.495         -0.0014031907 
    999000   248.13176     -44198.288     -50256.627      44.443698     -0.0043686425   2.4975        -0.001747457  
   1000000   242.15755     -44236.935     -50149.409      39.271776     -0.0063123034   2.5           -0.0025249213 
Loop time of 456.838 on 56 procs for 100000 steps with 12288 atoms

Performance: 18.913 ns/day, 1.269 hours/ns, 218.896 timesteps/s, 2.690 Matom-step/s
99.8% CPU use with 56 MPI tasks x no OpenMP threads

MPI task timing breakdown:
Section |  min time  |  avg time  |  max time  |%varavg| %total
---------------------------------------------------------------
Pair    | 189.54     | 198.05     | 207.69     |  35.4 | 43.35
Bond    | 0.018741   | 0.026223   | 0.04604    |   3.5 |  0.01
Kspace  | 131.37     | 140.49     | 148.9      |  40.8 | 30.75
Neigh   | 21.918     | 21.932     | 21.946     |   0.1 |  4.80
Comm    | 15.823     | 16.716     | 18.259     |  13.5 |  3.66
Output  | 0.22571    | 0.40341    | 0.57387    |  16.3 |  0.09
Modify  | 67.305     | 70.274     | 76.955     |  29.9 | 15.38
Other   |            | 8.944      |            |       |  1.96

Nlocal:        219.429 ave         243 max         193 min
Histogram: 1 0 3 6 13 16 6 9 0 2
Nghost:        7271.52 ave        7332 max        7213 min
Histogram: 4 1 5 11 7 11 7 5 1 4
Neighs:        96056.2 ave      107022 max       84653 min
Histogram: 1 1 5 10 8 15 7 6 1 2

Total # of neighbors = 5379146
Ave neighs/atom = 437.75602
Ave special neighs/atom = 2
Neighbor list builds = 1882
Dangerous builds = 0
kspace_style pppm/tip4p 1.0e-5
next nloop
jump SELF loop_start
run 100000 # 100ps
PPPM initialization ...
  extracting TIP4P info from pair style
  using 12-bit tables for long-range coulomb
  G vector (1/distance) = 0.32815664
  grid = 50 75 50
  stencil order = 5
  estimated absolute RMS force accuracy = 0.0035802102
  estimated relative force accuracy = 1.0781697e-05
  using double precision KISS FFT
  3d grid and FFT values/proc = 15776 4000
Generated 0 of 1 mixed pair_coeff terms from geometric mixing rule
Per MPI rank memory allocation (min/avg/max) = 11.2 | 11.34 | 11.45 Mbytes
   Step          Temp          TotEng         PotEng          Pxy           v_sxy         v_strain     v_viscosity  
   1000000   242.1575      -44236.914     -50149.386      44.262655     -0.0068241154   2.5           -0.0027296462 
   1001000   246.36722     -44205.443     -50220.699     -252.57441      0.026010347    2.5025         0.010404139  
   1002000   247.48903     -44095.591     -50138.237     -109.79054      0.013090816    2.505          0.0052363264 
   1003000   243.58683     -44248.824     -50196.195     -48.113791      0.0092977194   2.5075         0.0037190877 
   1004000   245.1564      -44226.216     -50211.91      -244.37601      0.026499364    2.51           0.010599746  
   1005000   247.63378     -44078.049     -50124.23      -288.85797      0.027267109    2.5125         0.010906843  
   1006000   247.83411     -44076.373     -50127.445     -141.86299      0.013164513    2.515          0.0052658051 
   1007000   243.47679     -44193.957     -50138.641     -71.858328      0.0066198128   2.5175         0.0026479251 
   1008000   245.14216     -44258.193     -50243.538      251.41731     -0.025702917    2.52          -0.010281167  
   1009000   245.2427      -44212.419     -50200.22      -246.11634      0.019705492    2.5225         0.0078821967 
   1010000   246.55516     -44028.021     -50047.867     -239.14949      0.028538964    2.525          0.011415586  
   1011000   243.25383     -44383.963     -50323.203     -404.01821      0.040820677    2.5275         0.016328271  
   1012000   247.35707     -44108.665     -50148.089      53.769413     -0.0037087308   2.53          -0.0014834923 
   1013000   240.85047     -44324.324     -50204.884     -253.54613      0.024080296    2.5325         0.0096321185 
   1014000   245.92175     -44169.243     -50173.622     -216.01903      0.022323283    2.535          0.0089293131 
   1015000   248.24384     -44011.474     -50072.549     -394.68834      0.038444463    2.5375         0.015377785  
   1016000   240.96979     -44247.696     -50131.17      -122.24823      0.011585623    2.54           0.0046342494 
   1017000   243.74866     -44085.219     -50036.541     -144.17572      0.013309559    2.5425         0.0053238238 
   1018000   241.83937     -44353.465     -50258.17       173.94735     -0.020188795    2.545         -0.0080755178 
   1019000   246.42362     -43988.545     -50005.178     -51.518623      0.0058829643   2.5475         0.0023531857 
   1020000   244.14936     -44224.569     -50185.674      5.0297827     -0.00024359836  2.55          -9.7439345e-05
   1021000   245.40524     -44337.343     -50329.112     -107.09037      0.010207829    2.5525         0.0040831316 
   1022000   248.83559     -44196.717     -50272.241      119.81892     -0.014382056    2.555         -0.0057528223 
   1023000   247.27986     -44230.992     -50268.531      35.241885     -0.0021023563   2.5575        -0.00084094252
   1024000   247.98139     -44138.504     -50193.171     -334.03415      0.036882762    2.56           0.014753105  
   1025000   243.90276     -44297.509     -50252.594      125.36607     -0.012543211    2.5625        -0.0050172843 
   1026000   246.65875     -44256.774     -50279.148     -188.31874      0.019329521    2.565          0.0077318085 
   1027000   245.19088     -44314.042     -50300.577     -264.68654      0.028174518    2.5675         0.011269807  
   1028000   246.18702     -44310.503     -50321.36      -412.28224      0.043607802    2.57           0.017443121  
   1029000   242.65462     -44205.615     -50130.226     -48.828686      0.005494613    2.5725         0.0021978452 
   1030000   246.91984     -44195.974     -50224.723     -212.30861      0.02235039     2.575          0.008940156  
   1031000   242.03822     -44347.615     -50257.176      50.581387     -0.0040871986   2.5775        -0.0016348794 
   1032000   247.20793     -44166.944     -50202.727     -224.06383      0.022428334    2.58           0.0089713337 
   1033000   245.48414     -44231.106     -50224.802     -233.23565      0.026734554    2.5825         0.010693822  
   1034000   242.51233     -44299.365     -50220.502     -171.72641      0.017453047    2.585          0.0069812186 
   1035000   247.82317     -44270.227     -50321.031     -351.5848       0.034682732    2.5875         0.013873093  
   1036000   243.41972     -44289.295     -50232.586      174.94864     -0.017976729    2.59          -0.0071906915 
   1037000   247.41948     -44205.205     -50246.153     -67.046171      0.0036252821   2.5925         0.0014501128 
   1038000   247.92614     -44262.334     -50315.653     -138.32691      0.01090869     2.595          0.0043634761 
   1039000   243.61386     -44338.46      -50286.491     -59.956403      0.0061924396   2.5975         0.0024769758 
   1040000   246.49228     -44170.058     -50188.368     -83.582043      0.010444981    2.6            0.0041779925 
   1041000   245.22397     -44226.211     -50213.555      114.65281     -0.011664064    2.6025        -0.0046656258 
   1042000   248.29186     -44218.909     -50281.157      123.74817     -0.014601169    2.605         -0.0058404675 
   1043000   248.35091     -44352.697     -50416.387      91.156257     -0.0041671226   2.6075        -0.001666849  
   1044000   249.25283     -44324.789     -50410.501     -45.182449      0.0043194006   2.61           0.0017277602 
   1045000   240.18442     -44497.98      -50362.278     -12.346482      0.002211852    2.6125         0.00088474079
   1046000   247.06609     -44197.048     -50229.368     -1.9998494     -0.00066493465  2.615         -0.00026597386
   1047000   245.87531     -44452.595     -50455.842     -360.81665      0.033580494    2.6175         0.013432198  
   1048000   249.51726     -44314.847     -50407.015     -73.523726      0.0016364261   2.62           0.00065457045
   1049000   246.57195     -44286.609     -50306.865     -430.70729      0.045793881    2.6225         0.018317553  
   1050000   244.38188     -44394.237     -50361.02       67.487621     -0.008677364    2.625         -0.0034709456 
   1051000   247.59405     -44291.276     -50336.487     -128.57094      0.015019937    2.6275         0.0060079749 
   1052000   249.15491     -44376.016     -50459.336     -93.969257      0.010058367    2.63           0.0040233467 
   1053000   242.45978     -44515.283     -50435.137     -169.27955      0.01483607     2.6325         0.0059344279 
   1054000   244.76201     -44289.983     -50266.047     -146.97959      0.01520504     2.635          0.0060820161 
   1055000   246.69186     -44237.761     -50260.944     -29.292013      0.0017792186   2.6375         0.00071168745
   1056000   242.6736      -44372.808     -50297.881     -144.51546      0.011123595    2.64           0.0044494378 
   1057000   248.67779     -44323.203     -50394.874     -268.6124       0.025267383    2.6425         0.010106953  
   1058000   245.03429     -44288.58      -50271.292     -17.76992       0.00067957862  2.645          0.00027183145
   1059000   247.85736     -44328.931     -50380.571     -58.942195      0.0063251878   2.6475         0.0025300751 
   1060000   249.46835     -44425.656     -50516.629      241.6965      -0.022914584    2.65          -0.0091658335 
   1061000   244.75897     -44382.446     -50358.435     -215.77145      0.020826499    2.6525         0.0083305995 
   1062000   246.30172     -44424.95      -50438.608     -212.7873       0.021590434    2.655          0.0086361737 
   1063000   246.89666     -44448.871     -50477.054     -0.58084579    -0.00023109157  2.6575        -9.2436629e-05
   1064000   243.19956     -44327.693     -50265.608      13.222376     -0.00041829983  2.66          -0.00016731993
   1065000   245.74143     -44348.68      -50348.657     -113.21789      0.011173093    2.6625         0.0044692373 
   1066000   250.61399     -44169.047     -50287.992     -45.417241      0.0073218268   2.665          0.0029287307 
   1067000   244.89523     -44349.666     -50328.982     -353.41822      0.035044832    2.6675         0.014017933  
   1068000   251.15359     -44142.543     -50274.663     -363.14436      0.038416289    2.67           0.015366516  
   1069000   245.01171     -44401.899     -50384.06       22.281312     -0.0013110379   2.6725        -0.00052441514
   1070000   246.16128     -44388.185     -50398.413     -103.16336      0.010835293    2.675          0.0043341173 
   1071000   244.48597     -44346.151     -50315.476     -41.18783       0.0063257818   2.6775         0.0025303127 
   1072000   247.58537     -44168.882     -50213.881     -4.2410808     -0.0020722572   2.68          -0.00082890287
   1073000   247.79558     -44230.993     -50281.124     -202.71182      0.01936331     2.6825         0.0077453239 
   1074000   245.18272     -44490.142     -50476.478     -183.23112      0.015491052    2.685          0.0061964208 
   1075000   245.73925     -44229.191     -50229.115      36.320439     -0.0059995406   2.6875        -0.0023998163 
   1076000   246.21581     -44406.379     -50417.939     -30.017435      0.0039595321   2.69           0.0015838128 
   1077000   245.66396     -44219.463     -50217.549     -386.41611      0.040471594    2.6925         0.016188638  
   1078000   242.47905     -44283.156     -50203.479     -482.23607      0.051757196    2.695          0.020702879  
   1079000   247.01253     -44155.687     -50186.699     -157.95393      0.011874483    2.6975         0.0047497932 
   1080000   248.78886     -44360.447     -50434.83      -211.99518      0.023721674    2.7            0.0094886696 
   1081000   246.34941     -44282.135     -50296.957     -150.05153      0.016815322    2.7025         0.0067261288 
   1082000   245.90229     -44411.312     -50415.217     -227.44742      0.022227343    2.705          0.0088909371 
   1083000   246.97528     -44158.527     -50188.629     -366.54103      0.036963709    2.7075         0.014785483  
   1084000   245.38899     -44189.738     -50181.11      -31.075203      0.0039827762   2.71           0.0015931105 
   1085000   248.21778     -44352.875     -50413.314      130.80137     -0.016314583    2.7125        -0.0065258332 
   1086000   246.92474     -44273.479     -50302.348     -476.0246       0.044961322    2.715          0.017984529  
   1087000   247.13418     -44369.681     -50403.663     -520.78167      0.04968578     2.7175         0.019874312  
   1088000   245.81296     -44342.103     -50343.826     -477.418        0.045084277    2.72           0.018033711  
   1089000   242.26602     -44416.492     -50331.614     -314.1771       0.033352345    2.7225         0.013340938  
   1090000   244.64715     -44317.072     -50290.332      62.744105     -0.0082875147   2.725         -0.0033150059 
   1091000   244.94124     -44282.896     -50263.336      309.04255     -0.030247916    2.7275        -0.012099166  
   1092000   242.20833     -44493.766     -50407.48      -236.67498      0.024990316    2.73           0.0099961266 
   1093000   245.17043     -44353.672     -50339.708     -71.823255      0.0048454373   2.7325         0.0019381749 
   1094000   247.89988     -44359.922     -50412.599     -123.62831      0.011945889    2.735          0.0047783556 
   1095000   245.10358     -44373.092     -50357.496     -73.178636      0.009553588    2.7375         0.0038214352 
   1096000   245.6272      -44446.686     -50443.874     -333.73157      0.032489683    2.74           0.012995873  
   1097000   245.56755     -44344.011     -50339.742     -19.783387      0.0025797908   2.7425         0.0010319163 
   1098000   246.94288     -44630.711     -50660.023     -94.555497      0.011081437    2.745          0.004432575  
   1099000   246.08539     -44345.614     -50353.989      49.601388     -0.0046969216   2.7475        -0.0018787686 
   1100000   248.18638     -44314.884     -50374.557     -76.866036      0.010537648    2.75           0.0042150592 
Loop time of 494.335 on 56 procs for 100000 steps with 12288 atoms

Performance: 17.478 ns/day, 1.373 hours/ns, 202.292 timesteps/s, 2.486 Matom-step/s
99.8% CPU use with 56 MPI tasks x no OpenMP threads

MPI task timing breakdown:
Section |  min time  |  avg time  |  max time  |%varavg| %total
---------------------------------------------------------------
Pair    | 189.43     | 198.19     | 210.17     |  32.8 | 40.09
Bond    | 0.018978   | 0.027595   | 0.047897   |   3.7 |  0.01
Kspace  | 149.34     | 160.35     | 170.95     |  37.0 | 32.44
Neigh   | 22.021     | 22.034     | 22.049     |   0.1 |  4.46
Comm    | 15.83      | 17.87      | 19.941     |  23.0 |  3.61
Output  | 0.22465    | 0.40316    | 0.57432    |  16.3 |  0.08
Modify  | 74.655     | 80.865     | 92.95      |  50.4 | 16.36
Other   |            | 14.59      |            |       |  2.95

Nlocal:        219.429 ave         237 max         195 min
Histogram: 1 2 1 7 7 16 7 6 3 6
Nghost:        6943.09 ave        7032 max        6835 min
Histogram: 1 1 6 7 6 13 8 7 4 3
Neighs:        96063.4 ave      104975 max       84786 min
Histogram: 2 1 4 9 4 12 10 5 3 6

Total # of neighbors = 5379553
Ave neighs/atom = 437.78914
Ave special neighs/atom = 2
Neighbor list builds = 1886
Dangerous builds = 0
kspace_style pppm/tip4p 1.0e-5
next nloop
jump SELF loop_start
run 100000 # 100ps
PPPM initialization ...
  extracting TIP4P info from pair style
  using 12-bit tables for long-range coulomb
  G vector (1/distance) = 0.3306794
  grid = 50 64 50
  stencil order = 5
  estimated absolute RMS force accuracy = 0.0030797115
  estimated relative force accuracy = 9.2744596e-06
  using double precision KISS FFT
  3d grid and FFT values/proc = 13600 3200
Generated 0 of 1 mixed pair_coeff terms from geometric mixing rule
Per MPI rank memory allocation (min/avg/max) = 11.08 | 11.19 | 11.31 Mbytes
   Step          Temp          TotEng         PotEng          Pxy           v_sxy         v_strain     v_viscosity  
   1100000   248.18581     -44314.895     -50374.554     -72.054807      0.010044195    2.75           0.0040176781 
   1101000   244.12738     -44396.568     -50357.137     -152.00032      0.014322585    2.7525         0.0057290341 
   1102000   246.50194     -44402.099     -50420.645     -185.85224      0.020256842    2.755          0.0081027367 
   1103000   243.3214      -44567.128     -50508.018      76.351221     -0.007406054    2.7575        -0.0029624216 
   1104000   251.33243     -44170.891     -50307.377     -21.569609      0.0053000211   2.76           0.0021200084 
   1105000   249.20918     -44341.751     -50426.396     -172.3255       0.017900925    2.7625         0.0071603699 
   1106000   245.08597     -44338.37      -50322.344      95.873925     -0.0056390501   2.765         -0.00225562   
   1107000   246.60407     -44475.286     -50496.326     -51.719009      0.0094224169   2.7675         0.0037689668 
   1108000   247.12246     -44249.543     -50283.24      -185.69425      0.019418947    2.77           0.007767579  
   1109000   247.21556     -44358.428     -50394.397     -115.29033      0.0069134665   2.7725         0.0027653866 
   1110000   246.28603     -44399.407     -50412.682     -210.60172      0.021478911    2.775          0.0085915644 
   1111000   247.60589     -44167.345     -50212.844      212.31217     -0.021858939    2.7775        -0.0087435756 
   1112000   244.5394      -44337.846     -50308.475     -52.934832      0.0060297139   2.78           0.0024118855 
   1113000   242.966       -44276.206     -50208.419     -49.606211      0.0056521619   2.7825         0.0022608647 
   1114000   242.49388     -44259.83      -50180.516     -91.23816       0.011738446    2.785          0.0046953786 
   1115000   246.33461     -44224.632     -50239.093     -157.75893      0.015880849    2.7875         0.0063523396 
   1116000   243.42276     -44297.043     -50240.408      181.96058     -0.018268119    2.79          -0.0073072475 
   1117000   244.47421     -44338.025     -50307.062     -55.425449      0.0025073631   2.7925         0.0010029452 
   1118000   241.93783     -44425.439     -50332.549     -134.65898      0.016448085    2.795          0.0065792339 
   1119000   250.71465     -44234.603     -50356.006      2.901468       0.0023129955   2.7975         0.00092519818
   1120000   246.81053     -44283.909     -50309.989     -31.978084      0.0039181066   2.8            0.0015672426 
   1121000   242.70325     -44322.882     -50248.68      -190.80472      0.017082987    2.8025         0.0068331946 
   1122000   251.00653     -44227.522     -50356.051     -187.00692      0.020340424    2.805          0.0081361696 
   1123000   250.33993     -44134.51      -50246.763     -209.10308      0.019866253    2.8075         0.0079465011 
   1124000   246.99499     -44141.103     -50171.687     -195.45878      0.023839497    2.81           0.009535799  
   1125000   247.48815     -44292.062     -50334.687     -0.90407047     0.0018223924   2.8125         0.00072895694
   1126000   242.48371     -44314.483     -50234.92      -156.35516      0.017706768    2.815          0.0070827071 
   1127000   248.24077     -44243.706     -50304.707     -252.82989      0.022462089    2.8175         0.0089848355 
   1128000   245.61561     -44285.223     -50282.128     -278.66073      0.028043951    2.82           0.01121758   
   1129000   247.70526     -44141.883     -50189.809     -302.78825      0.0315061      2.8225         0.01260244   
   1130000   246.789       -44231.429     -50256.983     -123.16483      0.012721172    2.825          0.005088469  
   1131000   246.13411     -44145.588     -50155.153     -153.65538      0.013518773    2.8275         0.0054075091 
   1132000   242.60665     -44236.855     -50160.294     -1.759842       0.00092120535  2.83           0.00036848214
   1133000   248.82532     -44133.462     -50208.735     -40.519978      0.0048376886   2.8325         0.0019350754 
   1134000   242.18185     -44501.517     -50414.584     -50.408221      0.0031599483   2.835          0.0012639793 
   1135000   246.91142     -44338.335     -50366.878     -68.402163      0.0067525593   2.8375         0.0027010237 
   1136000   246.07438     -44471.878     -50479.984      274.83431     -0.025790505    2.84          -0.010316202  
   1137000   249.02714     -44271.247     -50351.448     -521.10351      0.04922249     2.8425         0.019688996  
   1138000   241.77855     -44506.972     -50410.192     -144.62554      0.017665264    2.845          0.0070661055 
   1139000   246.20495     -44233.791     -50245.086      12.024183     -0.0010676774   2.8475        -0.00042707096
   1140000   244.64683     -44343.13      -50316.382     -129.8092       0.010631638    2.85           0.0042526554 
   1141000   246.48252     -44440.79      -50458.862     -120.41867      0.01246683     2.8525         0.0049867318 
   1142000   244.20133     -44487.546     -50449.921     -240.25781      0.026634778    2.855          0.010653911  
   1143000   246.83853     -44249.583     -50276.347     -181.19024      0.018968892    2.8575         0.0075875569 
   1144000   247.80043     -44271.093     -50321.343     -20.085696      0.0009083015   2.86           0.0003633206 
   1145000   245.94422     -44393.496     -50398.424      27.394088     -0.0042751104   2.8625        -0.0017100442 
   1146000   246.03745     -44313.426     -50320.631     -204.27884      0.020889428    2.865          0.0083557711 
   1147000   245.49631     -44385.619     -50379.612      16.1355       -0.0011486992   2.8675        -0.00045947969
   1148000   242.57394     -44441.035     -50363.676      244.61553     -0.024036767    2.87          -0.0096147066 
   1149000   246.09954     -44257.418     -50266.138     -59.173229      0.0052944106   2.8725         0.0021177642 
   1150000   245.38753     -44433.514     -50424.85      -217.94488      0.020353182    2.875          0.0081412728 
   1151000   248.11891     -44239.864     -50297.889      30.22594      -0.0015519451   2.8775        -0.00062077806
   1152000   246.40621     -44276.168     -50292.377     -222.48868      0.021426852    2.88           0.0085707407 
   1153000   247.35402     -44349.383     -50388.733     -427.84626      0.041315976    2.8825         0.01652639   
   1154000   248.52122     -44364.198     -50432.046     -73.941293      0.0040501419   2.885          0.0016200567 
   1155000   246.93773     -44348.285     -50377.471     -294.46559      0.028699213    2.8875         0.011479685  
   1156000   246.37896     -44349.11      -50364.653     -278.8582       0.0282337      2.89           0.01129348   
   1157000   246.01779     -44366.183     -50372.908     -179.01297      0.021343913    2.8925         0.008537565  
   1158000   245.3162      -44327.887     -50317.482     -35.642251      0.0038998274   2.895          0.001559931  
   1159000   247.97193     -44235.038     -50289.475     -6.4719157      0.00090060498  2.8975         0.00036024199
   1160000   245.75178     -44268.006     -50268.236      62.372541     -0.0034825405   2.9           -0.0013930162 
   1161000   245.08914     -44325.138     -50309.19       61.493623     -0.0050903275   2.9025        -0.002036131  
   1162000   245.52298     -44440.863     -50435.507     -20.745025      0.0046669135   2.905          0.0018667654 
   1163000   243.80832     -44406.432     -50359.211     -170.7594       0.01478746     2.9075         0.005914984  
   1164000   245.29161     -44247.645     -50236.64       351.80394     -0.035790444    2.91          -0.014316177  
   1165000   243.69159     -44445.102     -50395.03      -46.169773      0.0077246872   2.9125         0.0030898749 
   1166000   247.03146     -44118.661     -50150.135     -110.8132       0.014021591    2.915          0.0056086365 
   1167000   242.63185     -44379.859     -50303.914     -203.98574      0.017758498    2.9175         0.0071033991 
   1168000   246.30601     -44227.031     -50240.793     -95.521482      0.0090802719   2.92           0.0036321088 
   1169000   247.8651      -44206.722     -50258.55       134.38689     -0.014288525    2.9225        -0.0057154098 
   1170000   243.23926     -44335.062     -50273.946     -203.4786       0.021464642    2.925          0.0085858567 
   1171000   242.29899     -44306.204     -50222.131     -470.88681      0.04926539     2.9275         0.019706156  
   1172000   247.74073     -44212.554     -50261.346     -210.98266      0.020795419    2.93           0.0083181675 
   1173000   247.34779     -44200.479     -50239.677     -194.14894      0.022795482    2.9325         0.009118193  
   1174000   243.83575     -44411.06      -50364.509     -43.969571      0.0030913535   2.935          0.0012365414 
   1175000   246.3704      -44292.804     -50308.138     -341.44612      0.034928331    2.9375         0.013971332  
   1176000   247.11962     -44259.892     -50293.519     -336.65267      0.02951728     2.94           0.011806912  
   1177000   248.14098     -44337.682     -50396.246     -204.14148      0.024569468    2.9425         0.009827787  
   1178000   249.82588     -44284.576     -50384.279     -68.224364      0.0093460105   2.945          0.0037384042 
   1179000   242.50808     -44407.698     -50328.73      -232.84995      0.020993417    2.9475         0.0083973667 
   1180000   243.79187     -44476.214     -50428.591     -298.12401      0.030387203    2.95           0.012154881  
   1181000   247.83715     -44268.115     -50319.261     -206.70838      0.019352844    2.9525         0.0077411375 
   1182000   241.92545     -44416.159     -50322.966      49.695311     -0.0034547767   2.955         -0.0013819107 
   1183000   245.88664     -44470.286     -50473.809     -95.771554      0.0069202984   2.9575         0.0027681194 
   1184000   247.96698     -44242.553     -50296.869     -93.017374      0.0094384185   2.96           0.0037753674 
   1185000   245.92796     -44456.804     -50461.336     -103.48734      0.009515093    2.9625         0.0038060372 
   1186000   244.87855     -44346.016     -50324.925     -112.21707      0.0096296292   2.965          0.0038518517 
   1187000   246.31318     -44353.879     -50367.816     -441.70508      0.043673378    2.9675         0.017469351  
   1188000   247.53132     -44290.95      -50334.629     -449.22295      0.04111356     2.97           0.016445424  
   1189000   243.01858     -44438.519     -50372.016     -601.34558      0.05903478     2.9725         0.023613912  
   1190000   246.61119     -44384.291     -50405.504     -152.00512      0.01680753     2.975          0.006723012  
   1191000   246.45293     -44350.832     -50368.181     -244.98527      0.024428578    2.9775         0.0097714311 
   1192000   246.4164      -44409.091     -50425.548     -221.65399      0.022783081    2.98           0.0091132322 
   1193000   243.08421     -44281.5       -50216.6       -129.8345       0.013362549    2.9825         0.0053450197 
   1194000   244.49766     -44361.855     -50331.465     -449.8854       0.045758793    2.985          0.018303517  
   1195000   244.94903     -44281.365     -50261.996     -149.77787      0.015635349    2.9875         0.0062541395 
   1196000   246.49629     -44227.07      -50245.478     -101.75722      0.0074149812   2.99           0.0029659925 
   1197000   247.04213     -44369.799     -50401.534     -52.324403      0.0014451685   2.9925         0.00057806741
   1198000   249.37201     -44223.673     -50312.294     -134.04752      0.010831284    2.995          0.0043325137 
   1199000   242.79312     -44390.037     -50318.029     -172.30873      0.018474964    2.9975         0.0073899857 
   1200000   243.92882     -44385.586     -50341.307     -373.4578       0.036935562    3              0.014774225  
Loop time of 455.028 on 56 procs for 100000 steps with 12288 atoms

Performance: 18.988 ns/day, 1.264 hours/ns, 219.767 timesteps/s, 2.700 Matom-step/s
99.8% CPU use with 56 MPI tasks x no OpenMP threads

MPI task timing breakdown:
Section |  min time  |  avg time  |  max time  |%varavg| %total
---------------------------------------------------------------
Pair    | 187.22     | 196.73     | 207.83     |  35.6 | 43.24
Bond    | 0.016191   | 0.024974   | 0.0438     |   3.4 |  0.01
Kspace  | 129.29     | 140.76     | 150.14     |  41.2 | 30.93
Neigh   | 21.893     | 21.906     | 21.918     |   0.1 |  4.81
Comm    | 15.136     | 16.306     | 18.042     |  15.9 |  3.58
Output  | 0.23095    | 0.40991    | 0.58142    |  16.2 |  0.09
Modify  | 66.655     | 69.907     | 76.73      |  30.6 | 15.36
Other   |            | 8.985      |            |       |  1.97

Nlocal:        219.429 ave         235 max         205 min
Histogram: 4 3 8 1 11 8 10 5 3 3
Nghost:        6866.84 ave        6920 max        6816 min
Histogram: 2 3 4 5 15 11 10 4 1 1
Neighs:        96052.2 ave      103756 max       89320 min
Histogram: 6 5 3 8 6 11 8 3 3 3

Total # of neighbors = 5378926
Ave neighs/atom = 437.73812
Ave special neighs/atom = 2
Neighbor list builds = 1857
Dangerous builds = 0
kspace_style pppm/tip4p 1.0e-5
next nloop
jump SELF loop_start
run 100000 # 100ps
PPPM initialization ...
  extracting TIP4P info from pair style
  using 12-bit tables for long-range coulomb
  G vector (1/distance) = 0.32815664
  grid = 50 50 50
  stencil order = 5
  estimated absolute RMS force accuracy = 0.0035802102
  estimated relative force accuracy = 1.0781697e-05
  using double precision KISS FFT
  3d grid and FFT values/proc = 11424 2800
Generated 0 of 1 mixed pair_coeff terms from geometric mixing rule
Per MPI rank memory allocation (min/avg/max) = 10.91 | 11.03 | 11.12 Mbytes
   Step          Temp          TotEng         PotEng          Pxy           v_sxy         v_strain     v_viscosity  
   1200000   243.92716     -44385.6       -50341.28      -368.33647      0.03641134     3              0.014564536  
   1201000   245.96103     -44411.579     -50416.918     -250.33103      0.025906427    3.0025         0.010362571  
   1202000   246.03672     -44277.688     -50284.875      36.757334     -0.0029275905   3.005         -0.0011710362 
   1203000   242.17774     -44397.551     -50310.518     -99.841095      0.012014736    3.0075         0.0048058943 
   1204000   246.55739     -44289.935     -50309.834     -144.24238      0.018255983    3.01           0.0073023931 
   1205000   248.64794     -44271.098     -50342.04      -149.4742       0.011725883    3.0125         0.0046903532 
   1206000   246.59614     -44296.164     -50317.01      -47.569554      0.0016915792   3.015          0.00067663167
   1207000   246.22721     -44247.6       -50259.438     -109.22171      0.0095246738   3.0175         0.0038098695 
   1208000   245.30669     -44244.843     -50234.206      16.738672     -0.0045594836   3.02          -0.0018237934 
   1209000   246.4641      -44265.116     -50282.738     -316.07933      0.028882744    3.0225         0.011553097  
   1210000   248.15698     -44132.444     -50191.399     -124.83618      0.01001114     3.025          0.0040044559 
   1211000   243.54806     -44271.5       -50217.925     -108.50116      0.012407635    3.0275         0.0049630542 
   1212000   245.80046     -44112.908     -50114.326     -115.98838      0.010542699    3.03           0.0042170798 
   1213000   248.66318     -44230.011     -50301.326      106.74703     -0.011088183    3.0325        -0.0044352733 
   1214000   246.13134     -44084.187     -50093.684     -88.661057      0.0094951123   3.035          0.0037980449 
   1215000   247.53702     -44123.218     -50167.037     -305.79495      0.030865648    3.0375         0.012346259  
   1216000   244.79168     -44161.614     -50138.403     -34.214541      0.0058559869   3.04           0.0023423948 
   1217000   246.91453     -44203.081     -50231.701     -169            0.020561168    3.0425         0.0082244673 
   1218000   246.28128     -44153.469     -50166.627     -142.69812      0.013958083    3.045          0.0055832333 
   1219000   244.67134     -44213.028     -50186.879      97.856825     -0.01094479     3.0475        -0.0043779161 
   1220000   242.31364     -44329.015     -50245.3       -519.77682      0.05001791     3.05           0.020007164  
   1221000   246.4751      -44282.713     -50300.604     -141.02404      0.01259863     3.0525         0.0050394519 
   1222000   247.87926     -44175.999     -50228.173     -139.14355      0.011660646    3.055          0.0046642585 
   1223000   249.15548     -44277.47      -50360.805      37.327409     -0.0022675647   3.0575        -0.00090702589
   1224000   245.56913     -44278.296     -50274.066     -9.2713819      0.0010407472   3.06           0.00041629887
   1225000   243.61393     -44528.589     -50476.622      57.898604     -0.0051235578   3.0625        -0.0020494231 
   1226000   246.99258     -44166.663     -50197.189     -152.01863      0.014116013    3.065          0.0056464053 
   1227000   245.13749     -44453.41      -50438.641     -19.162297      0.0013424398   3.0675         0.00053697592
   1228000   245.23547     -44232.244     -50219.868     -1.8806821     -0.0044499634   3.07          -0.0017799854 
   1229000   252.5483      -43978.786     -50144.959     -55.624167      0.0056939718   3.0725         0.0022775887 
   1230000   242.41879     -44505.146     -50423.998     -56.620784      0.0044012197   3.075          0.0017604879 
   1231000   245.69998     -44079.208     -50078.173     -129.23599      0.010879776    3.0775         0.0043519103 
   1232000   243.4791      -44330.969     -50275.71      -343.57314      0.034241971    3.08           0.013696788  
   1233000   246.19217     -44303.894     -50314.877     -144.8867       0.013451297    3.0825         0.0053805188 
   1234000   246.90848     -44381.297     -50409.769     -36.062483      0.0035643424   3.085          0.001425737  
   1235000   248.36481     -44384.828     -50448.857     -41.434655      0.0018772185   3.0875         0.00075088739
   1236000   241.61716     -44377.692     -50276.972     -4.041501       0.0023144522   3.09           0.00092578088
   1237000   248.41481     -44244.415     -50309.665      226.51898     -0.022964247    3.0925        -0.0091856988 
   1238000   246.08455     -44239.866     -50248.221      161.05322     -0.015260992    3.095         -0.0061043969 
   1239000   246.57401     -44235.621     -50255.927     -554.46729      0.053827579    3.0975         0.021531031  
   1240000   249.81512     -44159.753     -50259.192     -81.860184      0.0074619263   3.1            0.0029847705 
   1241000   247.51326     -44238.655     -50281.893     -58.365144      0.0055603193   3.1025         0.0022241277 
   1242000   248.51103     -44126.33      -50193.929     -148.67713      0.015767936    3.105          0.0063071746 
   1243000   248.04437     -44195.758     -50251.964     -256.8297       0.026462973    3.1075         0.010585189  
   1244000   245.41451     -44375.973     -50367.968     -293.8361       0.031538917    3.11           0.012615567  
   1245000   247.86865     -44140.302     -50192.217     -159.89289      0.013380318    3.1125         0.0053521271 
   1246000   246.24707     -44168.833     -50181.156     -149.50134      0.011248302    3.115          0.0044993208 
   1247000   249.29388     -44230.709     -50317.422     -91.095826      0.0093573953   3.1175         0.0037429581 
   1248000   244.73387     -44230.64      -50206.017     -104.91532      0.012910954    3.12           0.0051643815 
   1249000   246.25081     -44136.933     -50149.348     -70.4142        0.0088393675   3.1225         0.003535747  
   1250000   247.93737     -44271.488     -50325.081     -348.15053      0.035590908    3.125          0.014236363  
   1251000   248.85608     -44162.749     -50238.773     -133.70885      0.015339572    3.1275         0.0061358289 
   1252000   244.53462     -44278.398     -50248.91      -140.98465      0.012566023    3.13           0.0050264093 
   1253000   246.36819     -44307.023     -50322.303      14.880519     -0.0038343241   3.1325        -0.0015337297 
   1254000   247.52046     -44099.539     -50142.953     -451.95516      0.042128702    3.135          0.016851481  
   1255000   246.21114     -44252.026     -50263.472     -410.05568      0.042494411    3.1375         0.016997764  
   1256000   246.02949     -44135.179     -50142.19      -108.68229      0.012251054    3.14           0.0049004215 
   1257000   245.3396      -44029.348     -50019.514     -74.487843      0.010025929    3.1425         0.0040103717 
   1258000   247.65812     -44185.105     -50231.88      -74.766901      0.0052515671   3.145          0.0021006269 
   1259000   242.47167     -44157.925     -50078.069     -333.25607      0.034919491    3.1475         0.013967796  
   1260000   243.25621     -44285.642     -50224.941      38.757448     -0.0079682276   3.15          -0.003187291  
   1261000   244.9402      -44270.369     -50250.783      38.466965     -0.0083521502   3.1525        -0.0033408601 
   1262000   248.25989     -44168.18      -50229.647     -16.239534     -0.0015808653   3.155         -0.00063234613
   1263000   242.70014     -44354.557     -50280.279     -121.70174      0.0088756068   3.1575         0.0035502427 
   1264000   247.00321     -44307.881     -50338.665     -46.324076      0.0026134606   3.16           0.0010453843 
   1265000   246.497       -44060.355     -50078.78       11.742594      0.00045444741  3.1625         0.00018177897
   1266000   245.82776     -44160.278     -50162.363     -201.65017      0.02084972     3.165          0.0083398882 
   1267000   244.07043     -44341.964     -50301.142     -324.59195      0.03282937     3.1675         0.013131748  
   1268000   245.70482     -44113.99      -50113.073     -274.74679      0.029086732    3.17           0.011634693  
   1269000   243.67107     -44287.058     -50236.486     -34.426191      0.00044221633  3.1725         0.00017688653
   1270000   246.82815     -44234.904     -50261.414      17.558046     -0.0028919681   3.175         -0.0011567873 
   1271000   240.50719     -44457.751     -50329.93       54.786032     -0.0075299332   3.1775        -0.0030119733 
   1272000   245.35201     -44163.855     -50154.325     -383.18216      0.034924347    3.18           0.013969739  
   1273000   244.20681     -44252.61      -50215.118      75.720911     -0.0063295468   3.1825        -0.0025318187 
   1274000   239.8957      -44550.022     -50407.271     -92.25632       0.0062572148   3.185          0.0025028859 
   1275000   245.87315     -44269.657     -50272.851     -403.32371      0.044371911    3.1875         0.017748764  
   1276000   244.87755     -44362.126     -50341.011     -24.289019      0.0034307229   3.19           0.0013722892 
   1277000   243.11611     -44260.433     -50196.311     -263.28623      0.02888024     3.1925         0.011552096  
   1278000   246.07493     -44207.905     -50216.025     -294.65278      0.030299784    3.195          0.012119914  
   1279000   246.28702     -44159.496     -50172.794     -142.33912      0.017036321    3.1975         0.0068145284 
   1280000   245.23061     -44127.968     -50115.473     -247.66307      0.023607846    3.2            0.0094431383 
   1281000   247.3957      -44055.16      -50095.528     -378.01037      0.040196247    3.2025         0.016078499  
   1282000   247.21413     -44121.393     -50157.328     -208.97448      0.023358099    3.205          0.0093432396 
   1283000   245.61802     -44199.153     -50196.118     -28.420443     -0.00057308485  3.2075        -0.00022923394
   1284000   244.8022      -44166.778     -50143.823     -218.69269      0.024222271    3.21           0.0096889083 
   1285000   246.41927     -43974.122     -49990.649     -131.21117      0.013638629    3.2125         0.0054554517 
   1286000   248.21703     -44016.591     -50077.012     -299.46048      0.029872577    3.215          0.011949031  
   1287000   241.87128     -44249.332     -50154.816     -406.47686      0.039750668    3.2175         0.015900267  
   1288000   247.6973      -44016.684     -50064.416     -41.34362       0.0062607949   3.22           0.0025043179 
   1289000   247.33399     -44039.052     -50077.913     -291.89687      0.032050529    3.2225         0.012820212  
   1290000   246.09983     -44273.53      -50282.258     -253.90304      0.023380033    3.225          0.0093520133 
   1291000   247.7034      -44067.446     -50115.326     -263.83034      0.027571948    3.2275         0.011028779  
   1292000   246.38087     -44092.693     -50108.283     -381.94956      0.038036683    3.23           0.015214673  
   1293000   249.54841     -44024.779     -50117.707     -198.21075      0.019131529    3.2325         0.0076526117 
   1294000   248.28596     -44019.996     -50082.1       -114.24137      0.010988574    3.235          0.0043954295 
   1295000   249.15737     -44081.179     -50164.56      -203.36367      0.022561517    3.2375         0.0090246069 
   1296000   246.85452     -44267.282     -50294.437     -114.81869      0.013750389    3.24           0.0055001557 
   1297000   247.64042     -44068.543     -50114.886     -414.83277      0.038645262    3.2425         0.015458105  
   1298000   248.23195     -44075.547     -50136.332     -216.74028      0.016482712    3.245          0.0065930848 
   1299000   245.95244     -44168.562     -50173.691     -174.15293      0.01400537     3.2475         0.005602148  
   1300000   247.05085     -44181.15      -50213.097     -252.4957       0.022981807    3.25           0.0091927229 
Loop time of 420.61 on 56 procs for 100000 steps with 12288 atoms

Performance: 20.542 ns/day, 1.168 hours/ns, 237.750 timesteps/s, 2.921 Matom-step/s
99.8% CPU use with 56 MPI tasks x no OpenMP threads

MPI task timing breakdown:
Section |  min time  |  avg time  |  max time  |%varavg| %total
---------------------------------------------------------------
Pair    | 186.81     | 194.92     | 206.85     |  28.4 | 46.34
Bond    | 0.015123   | 0.023209   | 0.037882   |   2.9 |  0.01
Kspace  | 105.86     | 117.99     | 124.99     |  36.0 | 28.05
Neigh   | 22.428     | 22.442     | 22.456     |   0.1 |  5.34
Comm    | 14.544     | 15.645     | 17.123     |  18.2 |  3.72
Output  | 0.22513    | 0.40379    | 0.57511    |  16.3 |  0.10
Modify  | 51.818     | 56.537     | 66.874     |  45.6 | 13.44
Other   |            | 12.65      |            |       |  3.01

Nlocal:        219.429 ave         244 max         200 min
Histogram: 4 3 5 13 9 11 4 4 2 1
Nghost:        6959.62 ave        7024 max        6875 min
Histogram: 1 4 2 5 8 8 10 10 5 3
Neighs:        96040.8 ave      107095 max       86251 min
Histogram: 3 2 6 8 13 10 6 5 2 1

Total # of neighbors = 5378286
Ave neighs/atom = 437.68604
Ave special neighs/atom = 2
Neighbor list builds = 1901
Dangerous builds = 0
kspace_style pppm/tip4p 1.0e-5
next nloop
jump SELF loop_start
run 100000 # 100ps
PPPM initialization ...
  extracting TIP4P info from pair style
  using 12-bit tables for long-range coulomb
  G vector (1/distance) = 0.32881326
  grid = 50 64 50
  stencil order = 5
  estimated absolute RMS force accuracy = 0.003443216
  estimated relative force accuracy = 1.0369143e-05
  using double precision KISS FFT
  3d grid and FFT values/proc = 13600 3200
Generated 0 of 1 mixed pair_coeff terms from geometric mixing rule
Per MPI rank memory allocation (min/avg/max) = 11.08 | 11.19 | 11.31 Mbytes
   Step          Temp          TotEng         PotEng          Pxy           v_sxy         v_strain     v_viscosity  
   1300000   247.05085     -44181.168     -50213.116     -247.10927      0.022436028    3.25           0.0089744111 
   1301000   245.62701     -44224.276     -50221.46      -383.76975      0.034897786    3.2525         0.013959114  
   1302000   245.17976     -44382.077     -50368.341     -59.578968      0.0060134922   3.255          0.0024053969 
   1303000   241.24913     -44316.217     -50206.511     -43.339709      0.0026736224   3.2575         0.001069449  
   1304000   248.04647     -44357.01      -50413.267     -320.59028      0.037579799    3.26           0.01503192   
   1305000   245.64463     -44233.664     -50231.278     -193.68         0.01881771     3.2625         0.0075270839 
   1306000   242.63988     -44462.148     -50386.398     -216.85812      0.02262121     3.265          0.0090484842 
   1307000   246.39743     -44040.706     -50056.7        89.113184     -0.0089839636   3.2675        -0.0035935855 
   1308000   247.94328     -44199.164     -50252.902     -75.875801      0.0080701289   3.27           0.0032280515 
   1309000   242.90995     -44433.566     -50364.411     -119.57263      0.012218941    3.2725         0.0048875762 
   1310000   243.43882     -44240.402     -50184.159     -195.17092      0.01864613     3.275          0.0074584518 
   1311000   244.03372     -44283.215     -50241.498      168.02055     -0.015649994    3.2775        -0.0062599976 
   1312000   246.68931     -44340.556     -50363.676     -234.90122      0.023287715    3.28           0.0093150861 
   1313000   246.97916     -44311.986     -50342.184     -42.532785      0.0063164734   3.2825         0.0025265894 
   1314000   246.10317     -44345.551     -50354.36      -220.72281      0.020861181    3.285          0.0083444725 
   1315000   243.90022     -44337.902     -50292.925     -16.494436      0.00032799078  3.2875         0.00013119631
   1316000   246.77378     -44378.824     -50404.007     -34.172442      0.003859679    3.29           0.0015438716 
   1317000   241.5751      -44395.677     -50293.93      -174.80191      0.017542026    3.2925         0.0070168103 
   1318000   244.9506      -44356.691     -50337.359      129.95072     -0.011689844    3.295         -0.0046759375 
   1319000   248.56534     -44202.906     -50271.831     -30.103429      4.4638811e-05  3.2975         1.7855524e-05
   1320000   244.47019     -44193.026     -50161.964     -362.14354      0.034774778    3.3            0.013909911  
   1321000   246.08594     -44230.1       -50238.489     -26.260772      0.0052208865   3.3025         0.0020883546 
   1322000   248.08863     -44318.984     -50376.27      -293.01728      0.02761116     3.305          0.011044464  
   1323000   244.16595     -44163.311     -50124.822     -314.21143      0.031151559    3.3075         0.012460624  
   1324000   247.87648     -44243.101     -50295.207     -205.77285      0.020668437    3.31           0.0082673747 
   1325000   243.29359     -44332.062     -50272.273      40.193892     -0.0052978613   3.3125        -0.0021191445 
   1326000   244.41909     -44054.858     -50022.549      68.21102      -0.0050148227   3.315         -0.0020059291 
   1327000   241.25817     -44410.748     -50301.262     -314.75482      0.034757371    3.3175         0.013902948  
   1328000   245.1165      -44350.439     -50335.158      68.315166     -0.0048200181   3.32          -0.0019280072 
   1329000   253.23687     -44086.439     -50269.424     -21.027214      0.00068540365  3.3225         0.00027416146
   1330000   244.81846     -44208.538     -50185.98      -132.6371       0.013116619    3.325          0.0052466474 
   1331000   244.96353     -44332.986     -50313.971     -140.48516      0.011876395    3.3275         0.004750558  
   1332000   243.18987     -44420.759     -50358.438     -92.145035      0.0055857753   3.33           0.0022343101 
   1333000   244.86349     -44289.337     -50267.879     -64.655254      0.0032265143   3.3325         0.0012906057 
   1334000   245.00676     -44343.139     -50325.179     -324.86991      0.031712253    3.335          0.012684901  
   1335000   245.7325      -44245.607     -50245.366     -345.96722      0.034977275    3.3375         0.01399091   
   1336000   242.09068     -44297.341     -50208.182     -32.658855      0.006806961    3.34           0.0027227844 
   1337000   245.92205     -44250.058     -50254.445      177.94022     -0.01926925     3.3425        -0.0077076998 
   1338000   246.72167     -44133.463     -50157.374     -59.338338      0.0050266958   3.345          0.0020106783 
   1339000   245.04622     -44370.54      -50353.543     -274.61391      0.028101705    3.3475         0.011240682  
   1340000   248.10759     -44152.402     -50210.151     -173.79334      0.019571197    3.35           0.0078284786 
   1341000   243.36093     -44215.29      -50157.146     -501.99863      0.051760538    3.3525         0.020704215  
   1342000   247.35955     -44194.131     -50233.616     -269.36061      0.026688981    3.355          0.010675592  
   1343000   247.09989     -44372.108     -50405.253     -337.41408      0.032162814    3.3575         0.012865126  
   1344000   247.64371     -44130.939     -50177.362      12.048399     -0.0045582656   3.36          -0.0018233062 
   1345000   248.31838     -44228.705     -50291.6       -75.786762      0.0060785967   3.3625         0.0024314387 
   1346000   243.29944     -44292.723     -50233.077     -313.2513       0.03125084     3.365          0.012500336  
   1347000   248.42214     -44170.798     -50236.227     -184.66262      0.017936616    3.3675         0.0071746462 
   1348000   245.78313     -44257.193     -50258.189     -98.891806      0.0087687539   3.37           0.0035075016 
   1349000   243.22963     -44367.963     -50306.613     -207.55917      0.017617907    3.3725         0.0070471629 
   1350000   246.46035     -44074.556     -50092.087      301.73692     -0.029908432    3.375         -0.011963373  
   1351000   244.61858     -44418.845     -50391.407      290.56674     -0.028208181    3.3775        -0.011283272  
   1352000   248.99153     -44017.2       -50096.531     -169.91394      0.016535184    3.38           0.0066140734 
   1353000   248.13167     -44190.668     -50249.005     -124.71043      0.013081842    3.3825         0.0052327369 
   1354000   239.96556     -44410.808     -50269.763     -88.760201      0.0084442408   3.385          0.0033776963 
   1355000   246.90905     -44033.745     -50062.231     -169.77189      0.014350465    3.3875         0.0057401859 
   1356000   243.53939     -44309.147     -50255.36      -214.01112      0.018136394    3.39           0.0072545577 
   1357000   244.46683     -44133.453     -50102.31      -213.04582      0.018823722    3.3925         0.007529489  
   1358000   247.43523     -44147.309     -50188.642      11.739598      0.00094325609  3.395          0.00037730244
   1359000   244.2737      -44271.172     -50235.314     -157.53811      0.013369801    3.3975         0.0053479205 
   1360000   245.1297      -44291.384     -50276.426     -333.12064      0.034564149    3.4            0.01382566   
   1361000   243.29171     -44422.11      -50362.275     -350.32462      0.037070325    3.4025         0.01482813   
   1362000   247.97595     -44110.563     -50165.098      393.4571      -0.039554273    3.405         -0.015821709  
   1363000   243.64335     -44335.089     -50283.84       216.92271     -0.022959775    3.4075        -0.0091839099 
   1364000   244.28177     -44165.465     -50129.803     -25.153703     -0.0012466388   3.41          -0.00049865551
   1365000   244.76902     -44143.972     -50120.207     -239.30933      0.024126335    3.4125         0.009650534  
   1366000   242.677       -44183.946     -50109.103     -151.45887      0.013132454    3.415          0.0052529814 
   1367000   244.26431     -44223.459     -50187.371      16.264398     -0.0029525234   3.4175        -0.0011810094 
   1368000   245.80755     -44129.887     -50131.479     -184.0929       0.018264048    3.42           0.007305619  
   1369000   247.33363     -44146.548     -50185.401      137.41843     -0.010353808    3.4225        -0.0041415232 
   1370000   245.48561     -44230.711     -50224.443     -211.83118      0.021057389    3.425          0.0084229556 
   1371000   248.47637     -44084.454     -50151.207     -262.59596      0.027331099    3.4275         0.010932439  
   1372000   243.29238     -44209.379     -50149.56      -336.43655      0.03406045     3.43           0.01362418   
   1373000   247.38625     -44163.034     -50203.171     -210.39896      0.020644546    3.4325         0.0082578182 
   1374000   246.12803     -44269.127     -50278.543      9.2540257     -0.0043380902   3.435         -0.0017352361 
   1375000   249.27581     -44241.075     -50327.347     -71.669333      0.0071042881   3.4375         0.0028417152 
   1376000   242.23051     -44321.914     -50236.169     -98.65334       0.011446274    3.44           0.0045785095 
   1377000   245.24641     -44147.558     -50135.449     -257.26769      0.026255039    3.4425         0.010502016  
   1378000   244.60747     -44229.354     -50201.645     -374.30305      0.035876292    3.445          0.014350517  
   1379000   245.21489     -44228.883     -50216.004     -166.39562      0.018483646    3.4475         0.0073934583 
   1380000   243.19538     -44293.306     -50231.119     -131.19514      0.013326632    3.45           0.0053306526 
   1381000   244.70811     -44244.826     -50219.574     -158.09233      0.013525978    3.4525         0.0054103914 
   1382000   245.29602     -44218.068     -50207.171     -237.76951      0.024864568    3.455          0.0099458271 
   1383000   246.03076     -44148.424     -50155.466      49.58916      -0.0045278252   3.4575        -0.0018111301 
   1384000   246.01047     -44158.765     -50165.311      148.88501     -0.016297849    3.46          -0.0065191397 
   1385000   244.42485     -44287.832     -50255.664     -49.22731       0.0012090143   3.4625         0.00048360574
   1386000   245.30505     -44251.389     -50240.712     -53.842151      0.0059978063   3.465          0.0023991225 
   1387000   246.79606     -44235.13      -50260.857     -67.816408      0.0035848093   3.4675         0.0014339237 
   1388000   245.15031     -44318.721     -50304.266      47.770695     -0.0037584913   3.47          -0.0015033965 
   1389000   247.09563     -44047.142     -50080.183     -280.98378      0.026156258    3.4725         0.010462503  
   1390000   243.0258      -44233.957     -50167.63      -398.52066      0.039618123    3.475          0.015847249  
   1391000   250.41338     -44113.032     -50227.079     -28.498867     -0.0037043719   3.4775        -0.0014817487 
   1392000   246.5053      -44325.244     -50343.872     -357.78825      0.036668304    3.48           0.014667321  
   1393000   247.39117     -44127.446     -50167.703      163.1934      -0.017764885    3.4825        -0.0071059539 
   1394000   246.41779     -44297.793     -50314.284      47.531002     -0.0083884124   3.485         -0.003355365  
   1395000   244.56846     -44200.126     -50171.464     -283.0712       0.027758708    3.4875         0.011103483  
   1396000   251.05226     -44085.116     -50214.762     -367.99908      0.034234139    3.49           0.013693656  
   1397000   246.35245     -44256.316     -50271.212     -21.914132      0.0003503183   3.4925         0.00014012732
   1398000   243.92748     -44236.235     -50191.923     -157.18189      0.013713522    3.495          0.0054854087 
   1399000   244.68728     -44313.4       -50287.64      -167.4141       0.0131301      3.4975         0.0052520399 
   1400000   245.8777      -44293.367     -50296.672     -144.62436      0.014138452    3.5            0.0056553807 
Loop time of 454.883 on 56 procs for 100000 steps with 12288 atoms

Performance: 18.994 ns/day, 1.264 hours/ns, 219.837 timesteps/s, 2.701 Matom-step/s
99.8% CPU use with 56 MPI tasks x no OpenMP threads

MPI task timing breakdown:
Section |  min time  |  avg time  |  max time  |%varavg| %total
---------------------------------------------------------------
Pair    | 185.74     | 196.3      | 205.97     |  26.8 | 43.15
Bond    | 0.015317   | 0.024383   | 0.038647   |   2.8 |  0.01
Kspace  | 129.59     | 139.88     | 150.31     |  30.8 | 30.75
Neigh   | 21.791     | 21.807     | 21.821     |   0.1 |  4.79
Comm    | 15.801     | 16.7       | 18.554     |  14.3 |  3.67
Output  | 0.22489    | 0.40299    | 0.57354    |  16.3 |  0.09
Modify  | 67.207     | 70.308     | 77.535     |  31.4 | 15.46
Other   |            | 9.463      |            |       |  2.08

Nlocal:        219.429 ave         240 max         202 min
Histogram: 2 4 8 10 8 8 10 3 1 2
Nghost:        7301.68 ave        7361 max        7243 min
Histogram: 1 2 4 10 12 10 10 5 0 2
Neighs:        96057.5 ave      104979 max       88262 min
Histogram: 2 7 6 5 13 6 8 5 2 2

Total # of neighbors = 5379218
Ave neighs/atom = 437.76188
Ave special neighs/atom = 2
Neighbor list builds = 1871
Dangerous builds = 0
kspace_style pppm/tip4p 1.0e-5
next nloop
jump SELF loop_start
run 100000 # 100ps
PPPM initialization ...
  extracting TIP4P info from pair style
  using 12-bit tables for long-range coulomb
  G vector (1/distance) = 0.32815664
  grid = 50 75 50
  stencil order = 5
  estimated absolute RMS force accuracy = 0.0035802102
  estimated relative force accuracy = 1.0781697e-05
  using double precision KISS FFT
  3d grid and FFT values/proc = 15776 4000
Generated 0 of 1 mixed pair_coeff terms from geometric mixing rule
Per MPI rank memory allocation (min/avg/max) = 11.2 | 11.34 | 11.45 Mbytes
   Step          Temp          TotEng         PotEng          Pxy           v_sxy         v_strain     v_viscosity  
   1400000   245.87675     -44293.39      -50296.672     -138.73738      0.013538681    3.5            0.0054154724 
   1401000   245.1639      -44328.291     -50314.167     -331.99792      0.033483922    3.5025         0.013393569  
   1402000   243.78494     -44220.68      -50172.888     -191.55701      0.021199688    3.505          0.0084798753 
   1403000   250.40742     -44056.15      -50170.051     -112.77941      0.0090374524   3.5075         0.0036149809 
   1404000   242.58799     -44414.235     -50337.218     -113.49679      0.0094317456   3.51           0.0037726982 
   1405000   247.01104     -44135.831     -50166.807     -451.22584      0.047173847    3.5125         0.018869539  
   1406000   247.97303     -44105.135     -50159.599     -29.404852      0.0038890587   3.515          0.0015556235 
   1407000   242.45912     -44272.154     -50191.991      227.66763     -0.022592587    3.5175        -0.0090370346 
   1408000   246.65153     -44149.316     -50171.515     -163.755        0.013008836    3.52           0.0052035343 
   1409000   247.04197     -44154.807     -50186.538     -126.01134      0.010267       3.5225         0.0041068001 
   1410000   241.57812     -44329.16      -50227.487     -282.53381      0.024931804    3.525          0.0099727217 
   1411000   248.52726     -44090.165     -50158.161     -202.39923      0.019639181    3.5275         0.0078556722 
   1412000   241.61327     -44488.496     -50387.681     -129.41502      0.010058938    3.53           0.0040235751 
   1413000   247.06243     -44280.879     -50313.11      -286.20541      0.026841916    3.5325         0.010736767  
   1414000   246.60854     -44298.192     -50319.341     -142.14484      0.011002448    3.535          0.0044009794 
   1415000   244.50093     -44196.295     -50165.985     -256.22235      0.022557187    3.5375         0.0090228746 
   1416000   245.91745     -44185.729     -50190.004      313.54632     -0.032268716    3.54          -0.012907486  
   1417000   245.80163     -44236.803     -50238.25       135.9307      -0.012936034    3.5425        -0.0051744134 
   1418000   246.42642     -44227.225     -50243.927     -145.63456      0.012868857    3.545          0.0051475426 
   1419000   245.1234      -44168.626     -50153.513     -300.24833      0.026986433    3.5475         0.010794573  
   1420000   246.49373     -44321.353     -50339.698      91.086066     -0.0082364403   3.55          -0.0032945761 
   1421000   243.18749     -44327.395     -50265.016     -56.770828      0.00023343585  3.5525         9.3374339e-05
   1422000   245.55783     -44221.327     -50216.822     -346.69421      0.033730058    3.555          0.013492023  
   1423000   243.78902     -44303.498     -50255.806     -294.19034      0.030799402    3.5575         0.012319761  
   1424000   244.31622     -44325.952     -50291.132     -49.798736      0.0045919273   3.56           0.0018367709 
   1425000   243.61981     -44365.99      -50314.166     -328.39379      0.030874968    3.5625         0.012349987  
   1426000   246.26017     -44089.773     -50102.416     -218.61966      0.023174757    3.565          0.0092699026 
   1427000   246.76254     -44431.701     -50456.609     -165.88469      0.015429809    3.5675         0.0061719234 
   1428000   247.02892     -44272.515     -50303.927     -0.4420589     -0.0012342779   3.57          -0.00049371115
   1429000   244.49805     -44375.332     -50344.951      168.38201     -0.017902981    3.5725        -0.0071611925 
   1430000   245.88628     -44190.992     -50194.506     -275.5245       0.029665046    3.575          0.011866018  
   1431000   248.2731      -44055.076     -50116.866     -86.344366      0.010405278    3.5775         0.004162111  
   1432000   247.79219     -44305.293     -50355.341      246.63655     -0.023805294    3.58          -0.0095221177 
   1433000   243.55284     -44312.411     -50258.952      15.307967     -0.0045705551   3.5825        -0.001828222  
   1434000   243.55062     -44153.393     -50099.88      -221.85762      0.022525595    3.585          0.009010238  
   1435000   244.23211     -44231.024     -50194.15      -151.00912      0.013658004    3.5875         0.0054632015 
   1436000   247.37899     -44278.142     -50318.101     -284.00654      0.027908859    3.59           0.011163544  
   1437000   248.02785     -44192.321     -50248.123      10.62316      -0.0028946014   3.5925        -0.0011578405 
   1438000   248.71865     -44225.52      -50298.189     -354.10602      0.036306121    3.595          0.014522448  
   1439000   243.07453     -44351.39      -50286.253      62.365295     -0.0071643915   3.5975        -0.0028657566 
   1440000   244.18219     -44394.484     -50356.391      253.80787     -0.023853429    3.6           -0.0095413715 
   1441000   245.26245     -44239.823     -50228.106      73.297543     -0.0079025965   3.6025        -0.0031610386 
   1442000   247.3563      -44240.072     -50279.478     -65.471586      0.0061318611   3.605          0.0024527444 
   1443000   248.55712     -44352.462     -50421.186     -186.0935       0.020009792    3.6075         0.0080039169 
   1444000   247.54063     -44208.471     -50252.377     -75.946309      0.0035265436   3.61           0.0014106175 
   1445000   243.70285     -44415.747     -50365.95      -206.22176      0.016046982    3.6125         0.0064187928 
   1446000   243.50701     -44370.416     -50315.838      95.267807     -0.0099909349   3.615         -0.003996374  
   1447000   245.35205     -44256.559     -50247.029     -331.57853      0.03270058     3.6175         0.013080232  
   1448000   250.31912     -44250.194     -50361.939     -82.844247      0.012351402    3.62           0.0049405609 
   1449000   242.9883      -44364.604     -50297.361      93.367138     -0.0077449404   3.6225        -0.0030979762 
   1450000   247.68638     -44224.241     -50271.706     -73.593974      0.0055669933   3.625          0.0022267973 
   1451000   243.84723     -44435.204     -50388.933     -362.54262      0.036507527    3.6275         0.014603011  
   1452000   245.14587     -44455.478     -50440.914     -739.66984      0.074766301    3.63           0.02990652   
   1453000   247.70031     -44373.666     -50421.471     -349.0024       0.033774895    3.6325         0.013509958  
   1454000   245.11783     -44449.208     -50433.959     -316.1811       0.032884349    3.635          0.01315374   
   1455000   249.20631     -44278.499     -50363.074     -246.50078      0.026783923    3.6375         0.010713569  
   1456000   249.90225     -44245.124     -50346.691     -314.11378      0.032580695    3.64           0.013032278  
   1457000   244.75875     -44436.432     -50412.417     -244.10194      0.022626432    3.6425         0.009050573  
   1458000   247.34563     -44235.643     -50274.788     -399.10586      0.040626321    3.645          0.016250528  
   1459000   246.68261     -44314.508     -50337.466      15.159664     -0.00062770643  3.6475        -0.00025108257
   1460000   245.95373     -44282.586     -50287.747     -189.27259      0.01401077     3.65           0.0056043081 
   1461000   247.91255     -44230.047     -50283.034     -387.7437       0.041390795    3.6525         0.016556318  
   1462000   247.3339      -44282.647     -50321.506     -160.97525      0.016981173    3.655          0.006792469  
   1463000   251.24313     -44119.458     -50253.764     -683.68891      0.065141636    3.6575         0.026056654  
   1464000   248.48154     -44192.756     -50259.635     -172.81674      0.016618295    3.66           0.006647318  
   1465000   246.08923     -44259.439     -50267.908     -105.59065      0.0099794359   3.6625         0.0039917743 
   1466000   248.17407     -44208.445     -50267.817      9.1756596     -0.00033121909  3.665         -0.00013248764
   1467000   242.241       -44331.538     -50246.049     -0.050268274    0.0032112258   3.6675         0.0012844903 
   1468000   243.73527     -44293.597     -50244.592      10.331977     -0.0063836868   3.67          -0.0025534747 
   1469000   244.25027     -44493.493     -50457.063      183.63412     -0.01333866     3.6725        -0.0053354641 
   1470000   248.0179      -44256.444     -50312.003     -75.387932      0.0068377486   3.675          0.0027350995 
   1471000   247.93236     -44257.936     -50311.407     -561.59636      0.054588881    3.6775         0.021835552  
   1472000   245.96902     -44360.847     -50366.381     -245.5447       0.021232049    3.68           0.0084928195 
   1473000   246.80565     -44307.277     -50333.238     -169.04997      0.01825462     3.6825         0.0073018478 
   1474000   248.2006      -44319.939     -50379.959     -122.68167      0.01178139     3.685          0.0047125561 
   1475000   246.6963      -44182.175     -50205.466     -215.38582      0.018284286    3.6875         0.0073137145 
   1476000   247.95738     -44114.416     -50168.497     -308.07569      0.028782893    3.69           0.011513157  
   1477000   246.54656     -44263.236     -50282.871     -113.26187      0.0096394412   3.6925         0.0038557765 
   1478000   247.49444     -44395.895     -50438.673     -351.20549      0.039019316    3.695          0.015607726  
   1479000   247.15137     -44220.04      -50254.442     -244.30948      0.023498805    3.6975         0.0093995219 
   1480000   243.55939     -44273.558     -50220.259     -278.7208       0.026785933    3.7            0.010714373  
   1481000   244.86137     -44265.788     -50244.278     -126.44618      0.01052554     3.7025         0.0042102161 
   1482000   243.07042     -44402.324     -50337.086     -396.85323      0.04087043     3.705          0.016348172  
   1483000   243.69691     -44439.799     -50389.858     -174.92811      0.017035856    3.7075         0.0068143422 
   1484000   246.06598     -44173.949     -50181.85       86.501582     -0.005718728    3.71          -0.0022874912 
   1485000   245.43973     -44368.87      -50361.481     -209.91454      0.021004491    3.7125         0.0084017966 
   1486000   247.07139     -44130.858     -50163.307     -52.618617      0.0074924142   3.715          0.0029969657 
   1487000   246.27544     -44278.083     -50291.099     -169.74374      0.016589397    3.7175         0.0066357587 
   1488000   247.58555     -44295.602     -50340.605     -412.01058      0.043649591    3.72           0.017459836  
   1489000   244.47384     -44404.323     -50373.351     -172.95025      0.017906207    3.7225         0.0071624827 
   1490000   251.94244     -44110.034     -50261.415     -320.45191      0.03510746     3.725          0.014042984  
   1491000   244.0866      -44366.774     -50326.347     -174.14807      0.020043232    3.7275         0.0080172929 
   1492000   246.64029     -44118.236     -50140.16      -224.08168      0.023834357    3.73           0.0095337427 
   1493000   245.66062     -44296.636     -50294.64       74.647874     -0.0053417997   3.7325        -0.0021367199 
   1494000   249.11823     -44171.113     -50253.538     -82.714005      0.0088967192   3.735          0.0035586877 
   1495000   244.3686      -44322.07      -50288.529     -245.48521      0.02547823     3.7375         0.010191292  
   1496000   244.2162      -44361.308     -50324.046     -121.3448       0.013407538    3.74           0.0053630151 
   1497000   249.17826     -44095.114     -50179.005     -137.39535      0.01490227     3.7425         0.0059609078 
   1498000   241.63783     -44399.08      -50298.864     -300.39813      0.02945259     3.745          0.011781036  
   1499000   244.85252     -44214.749     -50193.023     -149.44063      0.013657618    3.7475         0.0054630472 
   1500000   248.2455      -44300.893     -50362.009     -120.90563      0.010994804    3.75           0.0043979216 
Loop time of 490.86 on 56 procs for 100000 steps with 12288 atoms

Performance: 17.602 ns/day, 1.364 hours/ns, 203.724 timesteps/s, 2.503 Matom-step/s
99.8% CPU use with 56 MPI tasks x no OpenMP threads

MPI task timing breakdown:
Section |  min time  |  avg time  |  max time  |%varavg| %total
---------------------------------------------------------------
Pair    | 187.67     | 196.64     | 208.21     |  27.4 | 40.06
Bond    | 0.017686   | 0.026077   | 0.043532   |   2.8 |  0.01
Kspace  | 148.14     | 158.69     | 166.98     |  29.8 | 32.33
Neigh   | 22.023     | 22.036     | 22.047     |   0.1 |  4.49
Comm    | 15.952     | 17.798     | 19.894     |  22.8 |  3.63
Output  | 0.22535    | 0.40325    | 0.57384    |  16.3 |  0.08
Modify  | 74.502     | 80.83      | 92.71      |  50.8 | 16.47
Other   |            | 14.43      |            |       |  2.94

Nlocal:        219.429 ave         237 max         195 min
Histogram: 1 1 3 3 10 13 6 10 3 6
Nghost:        6950.07 ave        6998 max        6906 min
Histogram: 4 3 7 8 6 9 10 3 4 2
Neighs:        96055.8 ave      104220 max       85496 min
Histogram: 1 1 4 8 8 10 6 9 5 4

Total # of neighbors = 5379122
Ave neighs/atom = 437.75407
Ave special neighs/atom = 2
Neighbor list builds = 1876
Dangerous builds = 0
kspace_style pppm/tip4p 1.0e-5
next nloop
jump SELF loop_start
run 100000 # 100ps
PPPM initialization ...
  extracting TIP4P info from pair style
  using 12-bit tables for long-range coulomb
  G vector (1/distance) = 0.3306794
  grid = 50 64 50
  stencil order = 5
  estimated absolute RMS force accuracy = 0.0030797115
  estimated relative force accuracy = 9.2744596e-06
  using double precision KISS FFT
  3d grid and FFT values/proc = 13600 3200
Generated 0 of 1 mixed pair_coeff terms from geometric mixing rule
Per MPI rank memory allocation (min/avg/max) = 11.08 | 11.19 | 11.31 Mbytes
   Step          Temp          TotEng         PotEng          Pxy           v_sxy         v_strain     v_viscosity  
   1500000   248.24444     -44300.921     -50362.012     -115.90846      0.010482711    3.75           0.0041930843 
   1501000   244.86211     -44317.689     -50296.197     -264.61816      0.028773205    3.7525         0.011509282  
   1502000   244.79398     -44359.396     -50336.241     -191.67056      0.020291935    3.755          0.008116774  
   1503000   244.53686     -44344.459     -50315.025     -177.07398      0.018102049    3.7575         0.0072408195 
   1504000   244.91048     -44239.286     -50218.975     -260.78148      0.02641912     3.76           0.010567648  
   1505000   246.78946     -44236.899     -50262.465     -289.40673      0.030864557    3.7625         0.012345823  
   1506000   243.40391     -44442.461     -50385.366     -155.05587      0.019329708    3.765          0.0077318832 
   1507000   250.71744     -44029.181     -50150.651     -382.88265      0.040152193    3.7675         0.016060877  
   1508000   248.20639     -44305.137     -50365.298     -133.87376      0.014354882    3.77           0.0057419529 
   1509000   244.39435     -44346.361     -50313.448     -261.02211      0.026418243    3.7725         0.010567297  
   1510000   246.6893      -44256.768     -50279.888     -40.623295      4.0938553e-05  3.775          1.6375421e-05
   1511000   243.14527     -44377.297     -50313.887     -362.82515      0.034893468    3.7775         0.013957387  
   1512000   245.47149     -44364.656     -50358.042     -1.1582308     -0.0019122307   3.78          -0.00076489228
   1513000   247.47535     -44353.869     -50396.181     -205.70539      0.019071201    3.7825         0.0076284805 
   1514000   243.44736     -44447.746     -50391.711     -12.994301     -0.0008074138   3.785         -0.00032296552
   1515000   248.7331      -44242.639     -50315.661      257.18459     -0.028599944    3.7875        -0.011439978  
   1516000   247.43691     -44295.101     -50336.474      68.296406     -0.0039577395   3.79          -0.0015830958 
   1517000   247.4595      -44409.567     -50451.492     -121.68889      0.013104788    3.7925         0.0052419153 
   1518000   245.43769     -44338.53      -50331.091     -88.688744      0.0062262785   3.795          0.0024905114 
   1519000   243.46479     -44402.52      -50346.912     -195.37546      0.020344388    3.7975         0.0081377552 
   1520000   244.28199     -44274.034     -50238.378     -220.56384      0.020198032    3.8            0.0080792128 
   1521000   246.78803     -44318.1       -50343.631     -224.70222      0.020796783    3.8025         0.0083187133 
   1522000   247.74958     -44259.262     -50308.27      -231.12438      0.023504191    3.805          0.0094016764 
   1523000   249.69589     -44285.164     -50381.693     -272.44479      0.026232592    3.8075         0.010493037  
   1524000   248.05792     -44222.833     -50279.37      -286.59523      0.028162533    3.81           0.011265013  
   1525000   247.17445     -44243.602     -50278.567     -35.498282      0.00014875288  3.8125         5.950115e-05 
   1526000   243.87993     -44071.096     -50025.623      140.07914     -0.015027338    3.815         -0.0060109353 
   1527000   246.1103      -44248.733     -50257.717      11.649899     -0.0022550502   3.8175        -0.00090202007
   1528000   247.32618     -44262.762     -50301.432     -78.785537      0.0049461096   3.82           0.0019784438 
   1529000   248.84622     -44130.749     -50206.532     -435.1804       0.039636878    3.8225         0.015854751  
   1530000   244.58024     -44326.902     -50298.528     -5.3316954      0.0019036297   3.825          0.00076145188
   1531000   246.91387     -44351.378     -50379.982     -389.03952      0.037780416    3.8275         0.015112166  
   1532000   244.55587     -44353.543     -50324.574     -527.22106      0.050524041    3.83           0.020209616  
   1533000   248.40016     -44194.158     -50259.05      -476.15577      0.050630045    3.8325         0.020252018  
   1534000   243.77943     -44346.676     -50298.749      59.091842     -0.004871185    3.835         -0.001948474  
   1535000   250.51685     -44133.203     -50249.776     -184.37192      0.018250632    3.8375         0.0073002528 
   1536000   245.83159     -44241.863     -50244.042     -187.5741       0.019670244    3.84           0.0078680977 
   1537000   245.61733     -44266.24      -50263.187     -342.08172      0.033859437    3.8425         0.013543775  
   1538000   248.3585      -44195.242     -50259.117     -31.268069     -0.00062813044  3.845         -0.00025125217
   1539000   244.86594     -44228.906     -50207.508     -292.99526      0.032027758    3.8475         0.012811103  
   1540000   247.67218     -44111.357     -50158.475     -66.586329      0.0059054113   3.85           0.0023621645 
   1541000   246.99459     -44306.9       -50337.474     -131.79897      0.017140048    3.8525         0.0068560193 
   1542000   246.33754     -44375.694     -50390.226     -291.31283      0.027925191    3.855          0.011170077  
   1543000   246.39811     -44440.997     -50457.008     -598.49176      0.061525027    3.8575         0.024610011  
   1544000   246.43781     -44430.465     -50447.445     -319.78863      0.031811506    3.86           0.012724603  
   1545000   243.57174     -44459.18      -50406.183     -0.27453763     0.0050771141   3.8625         0.0020308456 
   1546000   247.8613      -44317.506     -50369.242      10.031185     -0.00078864833  3.865         -0.00031545933
   1547000   250.48311     -44258.983     -50374.733      102.30874     -0.008448586    3.8675        -0.0033794344 
   1548000   244.45055     -44389.373     -50357.832      23.883969      0.00078256022  3.87           0.00031302409
   1549000   246.71987     -44276.864     -50300.731      48.680116     -0.0041759307   3.8725        -0.0016703723 
   1550000   246.10093     -44261.719     -50270.474      149.9114      -0.014557588    3.875         -0.0058230352 
   1551000   244.80923     -44402.115     -50379.332      76.508864     -0.0084647974   3.8775        -0.003385919  
   1552000   249.97278     -44184.414     -50287.704      163.03392     -0.014269572    3.88          -0.0057078288 
   1553000   245.38259     -44269.53      -50260.746      245.36305     -0.024840582    3.8825        -0.0099362328 
   1554000   247.0351      -44280.885     -50312.449      290.47942     -0.029209424    3.885         -0.01168377   
   1555000   245.81732     -44293.369     -50295.199     -81.143165      0.008209037    3.8875         0.0032836148 
   1556000   243.4174      -44188.786     -50132.02      -24.896036      0.0019362518   3.89           0.00077450073
   1557000   245.23504     -44225.221     -50212.835     -109.76657      0.01273838     3.8925         0.005095352  
   1558000   246.48573     -44260.193     -50278.343      105.20499     -0.010130291    3.895         -0.0040521163 
   1559000   247.0193      -44277.92      -50309.098     -33.89642       0.0058507862   3.8975         0.0023403145 
   1560000   248.11169     -44111.626     -50169.476      85.446681     -0.0087527979   3.9           -0.0035011192 
   1561000   241.30561     -44502.995     -50394.668     -148.31612      0.011846315    3.9025         0.004738526  
   1562000   247.96607     -44224.452     -50278.746     -300.22739      0.028771076    3.905          0.01150843   
   1563000   245.55567     -44447.234     -50442.676      156.10866     -0.019381834    3.9075        -0.0077527335 
   1564000   247.00451     -44258.156     -50288.972     -228.91649      0.022128411    3.91           0.0088513644 
   1565000   245.70359     -44400.229     -50399.282     -116.64282      0.010797278    3.9125         0.0043189113 
   1566000   246.30799     -44199.347     -50213.157      140.82853     -0.016570873    3.915         -0.006628349  
   1567000   248.37191     -44053.567     -50117.769     -102.13849      0.0097997406   3.9175         0.0039198962 
   1568000   245.67685     -44270.388     -50268.789     -1.4334722      0.0014421613   3.92           0.00057686451
   1569000   248.5449      -44049.891     -50118.318     -132.21975      0.01326933     3.9225         0.0053077318 
   1570000   245.17733     -44111.68      -50097.885     -201.35662      0.017479693    3.925          0.0069918772 
   1571000   246.99878     -44113.543     -50144.22      -105.84495      0.013620494    3.9275         0.0054481977 
   1572000   247.16892     -44234.734     -50269.565     -407.78218      0.03715303     3.93           0.014861212  
   1573000   246.5867      -44073.954     -50094.569      7.5837203     -0.0034976314   3.9325        -0.0013990526 
   1574000   242.73156     -44374.39      -50300.879      11.679828     -0.00069835127  3.935         -0.00027934051
   1575000   246.72298     -44094.835     -50118.778     -57.629635      0.0064698258   3.9375         0.0025879303 
   1576000   249.32826     -44030.024     -50117.577     -344.24442      0.034792257    3.94           0.013916903  
   1577000   243.60907     -44336.215     -50284.129     -491.15684      0.04851556     3.9425         0.019406224  
   1578000   247.00395     -44118.338     -50149.14      -128.54445      0.01069418     3.945          0.0042776722 
   1579000   245.48232     -44239.708     -50233.359      6.9833172     -0.0038522902   3.9475        -0.0015409161 
   1580000   246.86324     -44219.652     -50247.019     -165.10817      0.01425731     3.95           0.0057029238 
   1581000   247.66806     -44028.304     -50075.322     -377.21498      0.03648782     3.9525         0.014595128  
   1582000   246.45828     -44212.659     -50230.139     -198.24165      0.021505795    3.955          0.0086023179 
   1583000   243.58236     -44222.191     -50169.453     -341.36441      0.033375369    3.9575         0.013350148  
   1584000   244.67863     -44146.699     -50120.727     -239.91362      0.017939903    3.96           0.0071759613 
   1585000   247.30131     -44197.64      -50235.704     -133.22478      0.013079637    3.9625         0.0052318547 
   1586000   245.31059     -44289.005     -50278.464     -45.677744      0.0032326142   3.965          0.0012930457 
   1587000   247.95459     -44105.285     -50159.299     -266.013        0.026991222    3.9675         0.010796489  
   1588000   249.35874     -44143.483     -50231.78       0.97257532    -0.00098986814  3.97          -0.00039594726
   1589000   246.6781      -44234.978     -50257.825     -65.708225      0.0077376316   3.9725         0.0030950526 
   1590000   249.93292     -44122.556     -50224.872     -179.5959       0.019542297    3.975          0.0078169189 
   1591000   245.92651     -44213.651     -50218.147     -88.481657      0.0069691959   3.9775         0.0027876784 
   1592000   245.31207     -44357.032     -50346.526     -22.65253       0.0034675395   3.98           0.0013870158 
   1593000   243.25178     -44324.218     -50263.408      72.610766     -0.0055912888   3.9825        -0.0022365155 
   1594000   244.32101     -44344.948     -50310.245      65.2256       -0.0023010986   3.985         -0.00092043946
   1595000   249.1616      -44360.263     -50443.747     -348.55771      0.037188565    3.9875         0.014875426  
   1596000   243.71329     -44344.073     -50294.532     -208.73068      0.018833876    3.99           0.0075335504 
   1597000   249.25631     -44291.004     -50376.8       -459.99457      0.043607099    3.9925         0.01744284   
   1598000   248.61276     -44365.546     -50435.629     -314.8602       0.033233508    3.995          0.013293403  
   1599000   245.4382      -44380.75      -50373.324     -221.36929      0.023378212    3.9975         0.0093512849 
   1600000   242.91197     -44423.017     -50353.911      58.376803     -0.0099175447   4             -0.0039670179 
Loop time of 451.562 on 56 procs for 100000 steps with 12288 atoms

Performance: 19.134 ns/day, 1.254 hours/ns, 221.453 timesteps/s, 2.721 Matom-step/s
99.8% CPU use with 56 MPI tasks x no OpenMP threads

MPI task timing breakdown:
Section |  min time  |  avg time  |  max time  |%varavg| %total
---------------------------------------------------------------
Pair    | 189.07     | 195.41     | 201.67     |  23.4 | 43.27
Bond    | 0.016351   | 0.023504   | 0.039041   |   2.4 |  0.01
Kspace  | 132.39     | 138.27     | 144.44     |  27.6 | 30.62
Neigh   | 22.084     | 22.1       | 22.115     |   0.1 |  4.89
Comm    | 15.4       | 16.222     | 18.123     |  13.6 |  3.59
Output  | 0.22584    | 0.40394    | 0.57479    |  16.3 |  0.09
Modify  | 66.561     | 70.009     | 76.925     |  30.8 | 15.50
Other   |            | 9.129      |            |       |  2.02

Nlocal:        219.429 ave         239 max         199 min
Histogram: 3 0 2 7 14 14 7 6 2 1
Nghost:        6851.82 ave        6930 max        6798 min
Histogram: 3 6 9 10 10 6 9 1 1 1
Neighs:        96076.6 ave      105376 max       86292 min
Histogram: 3 0 3 8 12 13 8 6 2 1

Total # of neighbors = 5380291
Ave neighs/atom = 437.8492
Ave special neighs/atom = 2
Neighbor list builds = 1865
Dangerous builds = 0
kspace_style pppm/tip4p 1.0e-5
next nloop
jump SELF loop_start
run 100000 # 100ps
PPPM initialization ...
  extracting TIP4P info from pair style
  using 12-bit tables for long-range coulomb
  G vector (1/distance) = 0.32815664
  grid = 50 50 50
  stencil order = 5
  estimated absolute RMS force accuracy = 0.0035802102
  estimated relative force accuracy = 1.0781697e-05
  using double precision KISS FFT
  3d grid and FFT values/proc = 11424 2800
Generated 0 of 1 mixed pair_coeff terms from geometric mixing rule
Per MPI rank memory allocation (min/avg/max) = 10.91 | 11.03 | 11.12 Mbytes
   Step          Temp          TotEng         PotEng          Pxy           v_sxy         v_strain     v_viscosity  
   1600000   242.91071     -44423.024     -50353.887      63.979055     -0.010489042    4             -0.0041956169 
   1601000   247.48737     -44343.948     -50386.554     -49.316005      0.002379409    4.0025         0.00095176359
   1602000   245.2245      -44344.257     -50331.613      135.17482     -0.014946415    4.005         -0.0059785658 
   1603000   245.3896      -44356.953     -50348.34      -309.04438      0.032040306    4.0075         0.012816123  
   1604000   247.3398      -44344.396     -50383.399     -43.572193      0.0026973985   4.01           0.0010789594 
   1605000   249.08538     -44244.317     -50325.94       134.07282     -0.010867811    4.0125        -0.0043471242 
   1606000   248.2024      -44325.937     -50386.001     -477.23593      0.048635822    4.015          0.019454329  
   1607000   251.37322     -44189.762     -50327.244     -48.903406      0.0049586345   4.0175         0.0019834538 
   1608000   249.02537     -44308.001     -50388.158     -655.27689      0.065547255    4.02           0.026218902  
   1609000   244.17327     -44242.559     -50204.249     -167.90634      0.01614583     4.0225         0.006458332  
   1610000   244.3924      -44449.536     -50416.576      175.12506     -0.017999914    4.025         -0.0071999656 
   1611000   246.7157      -44464.825     -50488.59       114.498       -0.011294144    4.0275        -0.0045176575 
   1612000   247.90382     -44416.82      -50469.594      114.48314     -0.0099210073   4.03          -0.0039684029 
   1613000   248.49057     -44429.912     -50497.012     -317.06247      0.036222483    4.0325         0.014488993  
   1614000   245.48644     -44523.602     -50517.353     -228.76977      0.023106174    4.035          0.0092424695 
   1615000   246.34611     -44199.008     -50213.749     -99.927526      0.010373448    4.0375         0.0041493793 
   1616000   241.45693     -44432.115     -50327.483     -71.802335      0.010397993    4.04           0.0041591973 
   1617000   247.41386     -44217.288     -50258.099      3.1744216      0.001899715    4.0425         0.00075988601
   1618000   246.3989      -44262.547     -50278.577     -263.91911      0.024651576    4.045          0.0098606303 
   1619000   243.86313     -44457.164     -50411.282     -147.08534      0.01549937     4.0475         0.0061997479 
   1620000   248.1367      -44279.068     -50337.528     -385.28624      0.038717827    4.05           0.015487131  
   1621000   245.26091     -44304.925     -50293.17      -145.07362      0.011283937    4.0525         0.004513575  
   1622000   247.05406     -44231.099     -50263.125     -127.97031      0.014925283    4.055          0.0059701132 
   1623000   251.71665     -44167.618     -50313.485      45.742878     -0.0065393865   4.0575        -0.0026157546 
   1624000   248.42029     -44373.857     -50439.241      52.66741      -0.0053936678   4.06          -0.0021574671 
   1625000   247.07131     -44403.93      -50436.378     -109.59374      0.0097457881   4.0625         0.0038983152 
   1626000   245.38022     -44245.449     -50236.607     -78.041725      0.0059702763   4.065          0.0023881105 
   1627000   245.92048     -44506.504     -50510.853     -262.24653      0.024566894    4.0675         0.0098267575 
   1628000   247.47115     -44328.502     -50370.712     -138.13173      0.013390006    4.07           0.0053560026 
   1629000   245.67756     -44436.777     -50435.195     -302.11656      0.031758991    4.0725         0.012703596  
   1630000   245.87288     -44373.814     -50377         -136.06117      0.01358354     4.075          0.0054334161 
   1631000   249.5965      -44279.604     -50373.706     -50.162632      0.008522854    4.0775         0.0034091416 
   1632000   248.27087     -44235.579     -50297.315     -321.53244      0.029591473    4.08           0.011836589  
   1633000   248.64028     -44321.412     -50392.167     -316.42184      0.028313789    4.0825         0.011325515  
   1634000   247.28545     -44299.295     -50336.971     -247.89833      0.025771867    4.085          0.010308747  
   1635000   244.53874     -44443.031     -50413.643     -248.21515      0.022380073    4.0875         0.0089520291 
   1636000   246.97087     -44315.331     -50345.326     -15.460455      0.0034846706   4.09           0.0013938682 
   1637000   246.25588     -44332.92      -50345.458     -499.30825      0.04639829     4.0925         0.018559316  
   1638000   247.60312     -44410.002     -50455.434     -100.40575      0.0078038059   4.095          0.0031215224 
   1639000   251.21623     -44064.026     -50197.675      209.60079     -0.019122618    4.0975        -0.0076490473 
   1640000   244.13815     -44431.293     -50392.125      72.214181     -0.006109119    4.1           -0.0024436476 
   1641000   244.85417     -44416.259     -50394.573     -390.65074      0.034916736    4.1025         0.013966695  
   1642000   249.33282     -44164.816     -50252.48       106.24611     -0.011817157    4.105         -0.0047268626 
   1643000   243.46353     -44378.353     -50322.714     -360.91531      0.035836772    4.1075         0.014334709  
   1644000   247.76712     -44359.029     -50408.465     -227.34834      0.022883226    4.11           0.0091532904 
   1645000   248.00886     -44238.684     -50294.022      104.36909     -0.0065600915   4.1125        -0.0026240366 
   1646000   246.40939     -44300.977     -50317.263     -95.914618      0.011489221    4.115          0.0045956883 
   1647000   250.06834     -44280.58      -50386.203     -157.69914      0.016063144    4.1175         0.0064252576 
   1648000   248.29331     -44335.799     -50398.083     -606.70567      0.057500067    4.12           0.023000027  
   1649000   247.91258     -44182.016     -50235.004     -331.14888      0.031193273    4.1225         0.012477309  
   1650000   245.18025     -44486.766     -50473.042      25.165308     -0.0055501087   4.125         -0.0022200435 
   1651000   247.98043     -44155.701     -50210.345      68.834132     -0.0051329315   4.1275        -0.0020531726 
   1652000   242.01492     -44472.849     -50381.841     -15.011539      0.002898563    4.13           0.0011594252 
   1653000   250.3792      -44249.359     -50362.571     -181.77769      0.017516557    4.1325         0.0070066229 
   1654000   246.20694     -44251.45      -50262.793     -235.67046      0.020796154    4.135          0.0083184614 
   1655000   245.0005      -44356.572     -50338.459     -264.62588      0.027168215    4.1375         0.010867286  
   1656000   246.96987     -44403.274     -50433.245      60.286797      0.00069309372  4.14           0.00027723749
   1657000   245.38797     -44310.122     -50301.469     -430.13839      0.04261001     4.1425         0.017044004  
   1658000   245.74373     -44376.719     -50376.753      74.060175     -0.0062733541   4.145         -0.0025093416 
   1659000   245.66626     -44299.245     -50297.387     -171.29113      0.015040221    4.1475         0.0060160883 
   1660000   243.17063     -44484.383     -50421.592     -261.68176      0.024366271    4.15           0.0097465085 
   1661000   245.85575     -44386.393     -50389.162      31.118824      0.00026158558  4.1525         0.00010463423
   1662000   246.21905     -44424.22      -50435.859      36.413639     -0.0012722877   4.155         -0.0005089151 
   1663000   246.86461     -44428.283     -50455.684     -110.50025      0.014620115    4.1575         0.0058480459 
   1664000   245.45371     -44359.283     -50352.235     -264.27109      0.02679244     4.16           0.010716976  
   1665000   244.71623     -44452.13      -50427.076     -80.49763       0.0087601869   4.1625         0.0035040748 
   1666000   249.59601     -44314.318     -50408.408     -313.32613      0.032620325    4.165          0.01304813   
   1667000   247.58513     -44287.063     -50332.056     -300.12085      0.030280172    4.1675         0.012112069  
   1668000   240.92086     -44394.352     -50276.632     -172.47211      0.017821082    4.17           0.007128433  
   1669000   248.10848     -44188.249     -50246.019     -51.568157      0.0094140652   4.1725         0.0037656261 
   1670000   245.70628     -44402.154     -50401.273     -348.21014      0.030480301    4.175          0.01219212   
   1671000   247.46121     -44321.438     -50363.405     -227.17849      0.022952404    4.1775         0.0091809617 
   1672000   243.29917     -44412.947     -50353.294      189.60399     -0.019261215    4.18          -0.0077044861 
   1673000   247.56062     -44403.858     -50448.253     -293.41414      0.028268638    4.1825         0.011307455  
   1674000   251.19487     -44180.543     -50313.67       124.77163     -0.016045595    4.185         -0.006418238  
   1675000   241.50614     -44438.172     -50334.741     -164.85658      0.015035338    4.1875         0.0060141353 
   1676000   245.15964     -44323.208     -50308.98      -144.30895      0.01366589     4.19           0.0054663558 
   1677000   244.9582      -44339.535     -50320.389      108.14118     -0.006896915    4.1925        -0.002758766  
   1678000   246.4669      -44343.898     -50361.589     -21.324129      0.0026410911   4.195          0.0010564365 
   1679000   242.5414      -44437.103     -50358.949      11.586307     -0.00076669986  4.1975        -0.00030667994
   1680000   248.95987     -44210.984     -50289.542     -104.65184      0.0096724797   4.2            0.0038689919 
   1681000   238.74855     -44475.579     -50304.82      -140.65854      0.012589483    4.2025         0.0050357933 
   1682000   245.72094     -44232.589     -50232.066      101.06795     -0.0089282854   4.205         -0.0035713142 
   1683000   246.15123     -44309.205     -50319.188     -261.47325      0.024107572    4.2075         0.0096430288 
   1684000   246.23553     -44442.788     -50454.829     -290.70445      0.025755753    4.21           0.010302301  
   1685000   245.93132     -44402.614     -50407.227      53.498345     -0.006471756    4.2125        -0.0025887024 
   1686000   244.95991     -44467.613     -50448.508      134.89978     -0.014204344    4.215         -0.0056817376 
   1687000   247.95029     -44474.922     -50528.83       42.786013     -0.0051768822   4.2175        -0.0020707529 
   1688000   248.93942     -44367.197     -50445.255     -273.72767      0.025645634    4.22           0.010258254  
   1689000   248.74904     -44371.796     -50445.206     -69.464997      0.0047260944   4.2225         0.0018904378 
   1690000   246.41715     -44390.671     -50407.147     -74.410923      0.0064682758   4.225          0.0025873103 
   1691000   247.65541     -44248.233     -50294.942     -194.49195      0.019843508    4.2275         0.0079374033 
   1692000   248.13518     -44331.948     -50390.371     -291.11854      0.026651987    4.23           0.010660795  
   1693000   247.30255     -44359.288     -50397.381     -270.31565      0.026337353    4.2325         0.010534941  
   1694000   246.05953     -44238.437     -50246.181     -154.42477      0.017988216    4.235          0.0071952865 
   1695000   245.96832     -44433.373     -50438.89      -35.885206      0.0052121006   4.2375         0.0020848403 
   1696000   245.52359     -44381.593     -50376.252     -135.51821      0.012297258    4.24           0.0049189034 
   1697000   244.86442     -44431.652     -50410.216      74.698405     -0.0069395181   4.2425        -0.0027758072 
   1698000   249.29519     -44315.758     -50402.504     -49.544919      0.0031029376   4.245          0.001241175  
   1699000   244.74023     -44415.005     -50390.537     -7.4410116     -0.0006765685   4.2475        -0.0002706274 
   1700000   244.58121     -44410.863     -50382.513     -412.89815      0.0441117      4.25           0.01764468   
Loop time of 417.744 on 56 procs for 100000 steps with 12288 atoms

Performance: 20.683 ns/day, 1.160 hours/ns, 239.381 timesteps/s, 2.942 Matom-step/s
99.8% CPU use with 56 MPI tasks x no OpenMP threads

MPI task timing breakdown:
Section |  min time  |  avg time  |  max time  |%varavg| %total
---------------------------------------------------------------
Pair    | 188.51     | 193.91     | 202.62     |  22.2 | 46.42
Bond    | 0.01518    | 0.022157   | 0.037175   |   2.3 |  0.01
Kspace  | 107.68     | 116.24     | 121.94     |  29.1 | 27.82
Neigh   | 22.112     | 22.125     | 22.139     |   0.1 |  5.30
Comm    | 14.483     | 15.651     | 17.067     |  15.9 |  3.75
Output  | 0.22651    | 0.40479    | 0.57588    |  16.3 |  0.10
Modify  | 51.712     | 56.572     | 67.027     |  46.5 | 13.54
Other   |            | 12.82      |            |       |  3.07

Nlocal:        219.429 ave         234 max         202 min
Histogram: 4 1 1 9 5 12 9 6 6 3
Nghost:        6964.57 ave        7035 max        6916 min
Histogram: 4 7 8 8 10 11 4 1 0 3
Neighs:        96059.7 ave      102860 max       87362 min
Histogram: 2 3 2 7 4 15 11 3 5 4

Total # of neighbors = 5379342
Ave neighs/atom = 437.77197
Ave special neighs/atom = 2
Neighbor list builds = 1868
Dangerous builds = 0
kspace_style pppm/tip4p 1.0e-5
next nloop
jump SELF loop_start
run 100000 # 100ps
PPPM initialization ...
  extracting TIP4P info from pair style
  using 12-bit tables for long-range coulomb
  G vector (1/distance) = 0.32881326
  grid = 50 64 50
  stencil order = 5
  estimated absolute RMS force accuracy = 0.003443216
  estimated relative force accuracy = 1.0369143e-05
  using double precision KISS FFT
  3d grid and FFT values/proc = 13600 3200
Generated 0 of 1 mixed pair_coeff terms from geometric mixing rule
Per MPI rank memory allocation (min/avg/max) = 11.08 | 11.19 | 11.31 Mbytes
   Step          Temp          TotEng         PotEng          Pxy           v_sxy         v_strain     v_viscosity  
   1700000   244.5819      -44410.854     -50382.52      -406.91859      0.043498679    4.25           0.017399472  
   1701000   244.79799     -44365.534     -50342.476     -271.29547      0.024619763    4.2525         0.0098479053 
   1702000   246.1409      -44337.698     -50347.429     -105.30207      0.010237439    4.255          0.0040949756 
   1703000   250.25206     -44135.116     -50245.224      255.02989     -0.024094553    4.2575        -0.0096378213 
   1704000   246.37152     -44423.804     -50439.166     -88.083052      0.0074424204   4.26           0.0029769682 
   1705000   244.41664     -44377.579     -50345.211     -230.59234      0.023312273    4.2625         0.0093249091 
   1706000   246.386       -44332.675     -50348.39      -15.775378     -0.0012809215   4.265         -0.00051236859
   1707000   249.76363     -44386.451     -50484.633     -212.91806      0.016704515    4.2675         0.0066818058 
   1708000   243.11109     -44559.344     -50495.1       -168.03137      0.018669117    4.27           0.0074676469 
   1709000   246.92533     -44423.37      -50452.253     -390.99819      0.041837325    4.2725         0.01673493   
   1710000   246.60316     -44400.024     -50421.041     -117.99703      0.01120202     4.275          0.0044808079 
   1711000   245.47919     -44351.182     -50344.757     -202.37283      0.018789288    4.2775         0.007515715  
   1712000   246.54483     -44300.564     -50320.157     -221.39907      0.023356959    4.28           0.0093427834 
   1713000   243.09472     -44351.202     -50286.558     -128.80597      0.013079648    4.2825         0.0052318591 
   1714000   249.40563     -44147.677     -50237.118     -278.11801      0.028582409    4.285          0.011432963  
   1715000   247.82773     -44228.233     -50279.149     -271.77714      0.028027421    4.2875         0.011210968  
   1716000   247.60946     -44326.595     -50372.182     -399.13615      0.037604535    4.29           0.015041814  
   1717000   242.35661     -44233.194     -50150.528     -19.70781       0.0039838469   4.2925         0.0015935388 
   1718000   247.69263     -44218.588     -50266.206     -110.80468      0.01213013     4.295          0.004852052  
   1719000   247.48745     -44333.822     -50376.429     -210.45074      0.023610623    4.2975         0.0094442493 
   1720000   246.12832     -44174.29      -50183.713      9.9818313     -0.0044861574   4.3           -0.0017944629 
   1721000   244.58955     -44176.822     -50148.675     -119.08681      0.0099529847   4.3025         0.0039811939 
   1722000   243.6768      -44105.164     -50054.732     -360.51074      0.036479227    4.305          0.014591691  
   1723000   240.51739     -44308.234     -50180.662     -294.68346      0.02671799     4.3075         0.010687196  
   1724000   249.95058     -44193.077     -50295.824     -134.86932      0.012439334    4.31           0.0049757336 
   1725000   242.4511      -44292.12      -50211.761      21.199421     -0.0037133461   4.3125        -0.0014853384 
   1726000   242.26182     -44334.086     -50249.106     -52.046099      0.0043114237   4.315          0.0017245695 
   1727000   241.17745     -44389.93      -50278.474     -434.53079      0.049379334    4.3175         0.019751734  
   1728000   247.75552     -44314.138     -50363.29      -86.920534      0.0099423283   4.32           0.0039769313 
   1729000   243.9297      -44450.089     -50405.832     -421.88776      0.043629588    4.3225         0.017451835  
   1730000   248.44945     -44162.362     -50228.458     -248.76641      0.023637916    4.325          0.0094551666 
   1731000   246.26323     -44416.487     -50429.204     -154.13977      0.012156627    4.3275         0.0048626506 
   1732000   249.60931     -44293.903     -50388.318     -274.29408      0.027309722    4.33           0.010923889  
   1733000   248.33604     -44351.293     -50414.619     -187.9785       0.021764516    4.3325         0.0087058065 
   1734000   247.02335     -44474.042     -50505.318     -184.77541      0.016894994    4.335          0.0067579975 
   1735000   248.18585     -44257.84      -50317.499     -115.39238      0.012735414    4.3375         0.0050941655 
   1736000   244.93616     -44366.662     -50346.978      32.447924     -0.0064083992   4.34          -0.0025633597 
   1737000   244.66941     -44449.704     -50423.507     -365.15403      0.03641905     4.3425         0.01456762   
   1738000   248.22914     -44366.774     -50427.491     -75.972938      0.011810261    4.345          0.0047241043 
   1739000   244.34055     -44323.754     -50289.527     -118.61459      0.011277524    4.3475         0.0045110096 
   1740000   249.04644     -44253.944     -50334.615      75.140519     -0.0052653349   4.35          -0.002106134  
   1741000   246.41938     -44459.029     -50475.559      24.066711      0.0013818254   4.3525         0.00055273015
   1742000   246.54594     -44157.239     -50176.859     -353.98466      0.034805755    4.355          0.013922302  
   1743000   244.82694     -44257.323     -50234.973     -617.69892      0.063019712    4.3575         0.025207885  
   1744000   246.1496      -44364.216     -50374.159     -136.34155      0.012175698    4.36           0.0048702791 
   1745000   245.03363     -44306.014     -50288.71      -122.28921      0.015411514    4.3625         0.0061646057 
   1746000   244.33996     -44196.411     -50162.17      -357.35396      0.033595458    4.365          0.013438183  
   1747000   245.71834     -44162.049     -50161.463     -98.420533      0.014200985    4.3675         0.0056803938 
   1748000   241.83337     -44444.512     -50349.071     -463.07827      0.048942244    4.37           0.019576898  
   1749000   245.97751     -44241.316     -50247.057      338.77793     -0.033054345    4.3725        -0.013221738  
   1750000   246.8872      -44326.678     -50354.63      -119.55629      0.011142992    4.375          0.0044571967 
   1751000   243.49248     -44380.816     -50325.883      37.846064     -0.0035540603   4.3775        -0.0014216241 
   1752000   247.03505     -44262.441     -50294.003     -90.38024       0.0095294097   4.38           0.0038117639 
   1753000   244.69033     -44240.16      -50214.474     -251.65321      0.022180209    4.3825         0.0088720838 
   1754000   244.62594     -44321.361     -50294.102      11.048482     -0.0016242969   4.385         -0.00064971877
   1755000   242.75967     -44440.595     -50367.77      -172.69579      0.016381225    4.3875         0.0065524902 
   1756000   243.74785     -44344.445     -50295.748     -257.51702      0.023991609    4.39           0.0095966436 
   1757000   243.67009     -44342.207     -50291.61      -137.07369      0.010284986    4.3925         0.0041139943 
   1758000   246.14499     -44281.744     -50291.574     -286.93519      0.029164877    4.395          0.011665951  
   1759000   244.38371     -44290.121     -50256.949     -66.075535      0.0076555692   4.3975         0.0030622277 
   1760000   246.84562     -44171.389     -50198.326     -267.27462      0.021988502    4.4            0.0087954007 
   1761000   248.83462     -44104.497     -50179.997     -421.00524      0.03921715     4.4025         0.01568686   
   1762000   244.2252      -44383.534     -50346.492     -116.03032      0.0079260602   4.405          0.0031704241 
   1763000   248.03239     -44151.207     -50207.12      -24.85179       0.0019515049   4.4075         0.00078060196
   1764000   244.45345     -44304.602     -50273.132      138.5129      -0.0084750364   4.41          -0.0033900146 
   1765000   246.08574     -44214.593     -50222.977     -166.26019      0.015567371    4.4125         0.0062269482 
   1766000   249.50161     -44023.291     -50115.077     -122.20737      0.0084960958   4.415          0.0033984383 
   1767000   245.03085     -44201.726     -50184.354     -40.664928      0.0051707632   4.4175         0.0020683053 
   1768000   246.88908     -43972.105     -50000.104      135.26405     -0.016440492    4.42          -0.0065761967 
   1769000   244.34044     -44251.564     -50217.334     -113.42773      0.010166258    4.4225         0.0040665034 
   1770000   247.08292     -44172.015     -50204.746     -70.132898      0.0081067634   4.425          0.0032427054 
   1771000   246.46665     -44281.07      -50298.754      1.327304      -0.00014338545  4.4275        -5.7354182e-05
   1772000   244.9738      -44253.487     -50234.722     -245.89242      0.026638251    4.43           0.0106553    
   1773000   244.70187     -44202.418     -50177.013     -35.282323      0.0011879454   4.4325         0.00047517814
   1774000   243.06454     -44239.342     -50173.96      -260.13248      0.025376192    4.435          0.010150477  
   1775000   243.13928     -44260.345     -50196.789     -122.17468      0.013173158    4.4375         0.0052692633 
   1776000   247.06259     -44132.049     -50164.284     -76.388176      0.0060342329   4.44           0.0024136932 
   1777000   246.21654     -44164.288     -50175.865      159.43934     -0.015607064    4.4425        -0.0062428256 
   1778000   246.95385     -44211.258     -50240.838      169.25107     -0.02056783     4.445         -0.008227132  
   1779000   244.56006     -44249.874     -50221.008     -84.409503      0.010862459    4.4475         0.0043449836 
   1780000   246.44028     -44142.194     -50159.234      141.70626     -0.014757535    4.45          -0.005903014  
   1781000   253.17538     -43957.878     -50139.362      2.227526       0.0027944347   4.4525         0.0011177739 
   1782000   245.09289     -44291.746     -50275.888     -54.517327      0.0046668226   4.455          0.001866729  
   1783000   245.10153     -44201.386     -50185.739     -211.35553      0.021144344    4.4575         0.0084577375 
   1784000   248.3049      -44033.388     -50095.954     -359.95261      0.041122134    4.46           0.016448854  
   1785000   245.16822     -44192.461     -50178.443      333.98097     -0.035851174    4.4625        -0.014340469  
   1786000   244.58661     -44124.289     -50096.07       151.01466     -0.012531124    4.465         -0.0050124497 
   1787000   241.39553     -44099.873     -49993.741      5.2256138     -0.00048418744  4.4675        -0.00019367498
   1788000   246.63915     -44022.103     -50043.999     -111.98196      0.013295589    4.47           0.0053182354 
   1789000   244.65699     -44242.565     -50216.065      11.870705     -0.0010326516   4.4725        -0.00041306064
   1790000   247.94231     -44085.458     -50139.171     -120.44108      0.012161195    4.475          0.0048644782 
   1791000   242.06629     -44303.611     -50213.857     -189.38119      0.016078139    4.4775         0.0064312556 
   1792000   243.36952     -44433.261     -50375.326     -190.23605      0.01929001     4.48           0.0077160038 
   1793000   247.5397      -44196.847     -50240.731     -32.820708      0.0013767706   4.4825         0.00055070825
   1794000   243.94409     -44292.796     -50248.89      -13.933125      0.00071084573  4.485          0.00028433829
   1795000   246.47424     -44319.112     -50336.981      53.646347     -0.0040259194   4.4875        -0.0016103678 
   1796000   242.60162     -44450.587     -50373.903     -184.04095      0.018238265    4.49           0.0072953061 
   1797000   248.1981      -44067.998     -50127.957      98.832522     -0.010091367    4.4925        -0.0040365468 
   1798000   247.98082     -44322.804     -50377.458      15.06986      -0.00088905171  4.495         -0.00035562069
   1799000   246.32955     -44357.143     -50371.48       105.30189     -0.0085600416   4.4975        -0.0034240166 
   1800000   249.51022     -44162.349     -50254.345     -57.273879      0.0071536725   4.5            0.002861469  
Loop time of 453.992 on 56 procs for 100000 steps with 12288 atoms

Performance: 19.031 ns/day, 1.261 hours/ns, 220.268 timesteps/s, 2.707 Matom-step/s
99.8% CPU use with 56 MPI tasks x no OpenMP threads

MPI task timing breakdown:
Section |  min time  |  avg time  |  max time  |%varavg| %total
---------------------------------------------------------------
Pair    | 184.87     | 195.46     | 206.84     |  27.5 | 43.05
Bond    | 0.015357   | 0.023528   | 0.039659   |   2.5 |  0.01
Kspace  | 129.38     | 139.85     | 151.39     |  32.0 | 30.80
Neigh   | 21.961     | 21.977     | 21.99      |   0.1 |  4.84
Comm    | 15.691     | 16.659     | 18.38      |  15.6 |  3.67
Output  | 0.22598    | 0.40413    | 0.57486    |  16.3 |  0.09
Modify  | 66.877     | 70.313     | 77.049     |  31.8 | 15.49
Other   |            | 9.307      |            |       |  2.05

Nlocal:        219.429 ave         237 max         206 min
Histogram: 7 4 10 7 4 8 8 3 1 4
Nghost:        7280.11 ave        7357 max        7210 min
Histogram: 3 6 5 4 11 9 10 6 1 1
Neighs:        96066.7 ave      105344 max       89573 min
Histogram: 6 5 13 6 5 9 6 1 3 2

Total # of neighbors = 5379733
Ave neighs/atom = 437.80379
Ave special neighs/atom = 2
Neighbor list builds = 1883
Dangerous builds = 0
kspace_style pppm/tip4p 1.0e-5
next nloop
jump SELF loop_start
run 100000 # 100ps
PPPM initialization ...
  extracting TIP4P info from pair style
  using 12-bit tables for long-range coulomb
  G vector (1/distance) = 0.32815664
  grid = 50 75 50
  stencil order = 5
  estimated absolute RMS force accuracy = 0.0035802102
  estimated relative force accuracy = 1.0781697e-05
  using double precision KISS FFT
  3d grid and FFT values/proc = 15776 4000
Generated 0 of 1 mixed pair_coeff terms from geometric mixing rule
Per MPI rank memory allocation (min/avg/max) = 11.2 | 11.34 | 11.45 Mbytes
   Step          Temp          TotEng         PotEng          Pxy           v_sxy         v_strain     v_viscosity  
   1800000   249.51155     -44162.322     -50254.35      -51.035207      0.0065109779   4.5            0.0026043911 
   1801000   242.65367     -44433.066     -50357.653     -193.60708      0.015733304    4.5025         0.0062933217 
   1802000   246.30536     -44402.545     -50416.291     -284.99269      0.026324002    4.505          0.010529601  
   1803000   246.24314     -44318.711     -50330.938     -131.78651      0.011951621    4.5075         0.0047806482 
   1804000   243.04202     -44290.174     -50224.243      22.567673     -0.0032160108   4.51          -0.0012864043 
   1805000   247.1476      -44385.566     -50419.876     -196.18566      0.021080793    4.5125         0.0084323171 
   1806000   245.16487     -44393.116     -50379.016     -468.81904      0.046195921    4.515          0.018478368  
   1807000   247.20157     -44338.862     -50374.489     -95.274178      0.0099222645   4.5175         0.0039689058 
   1808000   246.75405     -44382.246     -50406.948      8.9202198     -0.0015031149   4.52          -0.00060124595
   1809000   247.15221     -44151.241     -50185.664      212.91873     -0.017315559    4.5225        -0.0069262234 
   1810000   243.16499     -44313.874     -50250.945     -88.356468      0.0088679126   4.525          0.0035471651 
   1811000   244.60756     -44304.061     -50276.355     -340.95267      0.035365407    4.5275         0.014146163  
   1812000   244.04932     -44535.44      -50494.103     -341.95477      0.035880148    4.53           0.014352059  
   1813000   249.22154     -44386.602     -50471.549     -204.078        0.020552899    4.5325         0.0082211595 
   1814000   246.56885     -44383.738     -50403.918     -285.51181      0.02576662     4.535          0.010306648  
   1815000   245.24222     -44317.289     -50305.078      15.700048      0.00039625415  4.5375         0.00015850166
   1816000   246.1906      -44211.546     -50222.49      -181.65217      0.019796827    4.54           0.0079187309 
   1817000   243.26267     -44272.655     -50212.111     -93.248562      0.013706831    4.5425         0.0054827324 
   1818000   245.2819      -44246.914     -50235.671     -333.90991      0.032783038    4.545          0.013113215  
   1819000   249.5369      -44102.695     -50195.341     -582.20938      0.059138092    4.5475         0.023655237  
   1820000   243.52939     -44313.414     -50259.382     -391.61342      0.036359359    4.55           0.014543744  
   1821000   245.96254     -44213.538     -50218.914     -45.351739      0.0049800723   4.5525         0.0019920289 
   1822000   246.46415     -44192.26      -50209.884     -194.96484      0.016705925    4.555          0.00668237   
   1823000   248.98045     -44239.187     -50318.248     -246.28778      0.024826652    4.5575         0.0099306609 
   1824000   247.32934     -44361.523     -50400.27      -159.3255       0.019696187    4.56           0.0078784747 
   1825000   244.45463     -44293.502     -50262.061     -343.60143      0.035305137    4.5625         0.014122055  
   1826000   245.75683     -44404.688     -50405.042      270.71275     -0.027062138    4.565         -0.010824855  
   1827000   245.33155     -44270.539     -50260.509     -148.6489       0.016534408    4.5675         0.0066137634 
   1828000   244.10923     -44398.159     -50358.285     -84.123431      0.0075330124   4.57           0.0030132049 
   1829000   243.01946     -44259.502     -50193.02      -340.07186      0.030873825    4.5725         0.01234953   
   1830000   249.69094     -44118.429     -50214.837     -203.624        0.020209945    4.575          0.0080839778 
   1831000   245.15154     -44281.146     -50266.721     -221.68488      0.021260921    4.5775         0.0085043685 
   1832000   247.29421     -44198.068     -50235.958     -151.74852      0.015779668    4.58           0.0063118673 
   1833000   247.96391     -44169.892     -50224.133      36.389964     -0.0069623505   4.5825        -0.0027849402 
   1834000   247.41728     -44234.143     -50275.038     -147.55034      0.015955894    4.585          0.0063823577 
   1835000   245.02169     -44293.687     -50276.091     -2.907276       0.0010498469   4.5875         0.00041993877
   1836000   242.60287     -44330.524     -50253.871     -4.4544131     -0.00016797207  4.59          -6.7188828e-05
   1837000   249.08689     -44285.453     -50367.113      16.290129     -0.0033543728   4.5925        -0.0013417491 
   1838000   247.50117     -44289.161     -50332.104      75.717872     -0.0073529658   4.595         -0.0029411863 
   1839000   246.04716     -44263.539     -50270.981      24.443944     -0.0020729379   4.5975        -0.00082917517
   1840000   247.41044     -44244.458     -50285.185     -243.08237      0.021550653    4.6            0.0086202612 
   1841000   247.94063     -44252.198     -50305.871     -239.73876      0.019868993    4.6025         0.0079475971 
   1842000   247.18354     -44300.602     -50335.79      -115.25069      0.0086463107   4.605          0.0034585243 
   1843000   244.97658     -44367.316     -50348.619      9.8988426     -0.00068258992  4.6075        -0.00027303597
   1844000   249.41705     -44087.353     -50177.073     -383.60223      0.040801233    4.61           0.016320493  
   1845000   241.02023     -44316.109     -50200.814     -21.826659      0.0020154763   4.6125         0.00080619053
   1846000   248.81956     -44226.534     -50301.666     -262.93964      0.025240778    4.615          0.010096311  
   1847000   243.89817     -44261.266     -50216.239     -96.223339      0.007887264    4.6175         0.0031549056 
   1848000   249.49981     -44065.544     -50157.285     -77.293079      0.0063806252   4.62           0.0025522501 
   1849000   242.89741     -44409.828     -50340.366      42.915235     -0.0058011798   4.6225        -0.0023204719 
   1850000   249.78484     -44231.945     -50330.645     -181.92887      0.017854798    4.625          0.0071419194 
   1851000   244.20565     -44523.532     -50486.012      198.54817     -0.018273515    4.6275        -0.0073094059 
   1852000   243.936       -44365.461     -50321.357     -141.77294      0.014103941    4.63           0.0056415766 
   1853000   247.71817     -44201.358     -50249.599     -128.1072       0.01033744     4.6325         0.0041349759 
   1854000   245.94504     -44425.977     -50430.926     -139.14867      0.013092468    4.635          0.005236987  
   1855000   241.89307     -44393.798     -50299.815     -72.48962       0.0063230029   4.6375         0.0025292012 
   1856000   244.10599     -44344.498     -50304.545     -205.57585      0.019924695    4.64           0.007969878  
   1857000   243.69343     -44174.63      -50124.604     -103.29315      0.010112284    4.6425         0.0040449136 
   1858000   247.20656     -44222.814     -50258.564     -201.50283      0.024258159    4.645          0.0097032635 
   1859000   244.54974     -44295.253     -50266.135     -314.69034      0.026590439    4.6475         0.010636176  
   1860000   247.20587     -44212.473     -50248.206      308.35312     -0.032142721    4.65          -0.012857088  
   1861000   242.71571     -44432.848     -50358.95      -131.56096      0.015529631    4.6525         0.0062118524 
   1862000   246.03407     -44311.958     -50319.08      -280.91783      0.028544124    4.655          0.01141765   
   1863000   244.40905     -44166.794     -50134.241     -95.285595      0.0084000974   4.6575         0.0033600389 
   1864000   245.30519     -44145.911     -50135.237      9.7011691      0.00016922503  4.66           6.7690011e-05
   1865000   244.53943     -44226.168     -50196.798     -131.88738      0.012326235    4.6625         0.004930494  
   1866000   245.6069      -44165.133     -50161.826      62.649535     -0.0062908877   4.665         -0.0025163551 
   1867000   248.94622     -44148.248     -50226.473     -187.64992      0.017048995    4.6675         0.0068195979 
   1868000   241.69687     -44265.94      -50167.166     -6.9029143      0.0026812533   4.67           0.0010725013 
   1869000   247.20975     -44141.854     -50177.682     -231.43529      0.020692523    4.6725         0.0082770091 
   1870000   245.41429     -44272.65      -50264.64      -150.88433      0.015698948    4.675          0.0062795794 
   1871000   245.26683     -44191.47      -50179.86      -140.49834      0.012159175    4.6775         0.00486367   
   1872000   251.91733     -44157.188     -50307.955     -135.22679      0.01273467     4.68           0.0050938679 
   1873000   248.18143     -44252.851     -50312.403     -177.00586      0.013627201    4.6825         0.0054508805 
   1874000   245.13509     -44300.815     -50285.988     -515.06699      0.053172787    4.685          0.021269115  
   1875000   247.21568     -44034.166     -50070.138     -84.432295      0.0085398434   4.6875         0.0034159373 
   1876000   240.40243     -44324.956     -50194.577      77.875873     -0.0072338956   4.69          -0.0028935582 
   1877000   244.74211     -43985.858     -49961.436     -131.41192      0.0094783055   4.6925         0.0037913222 
   1878000   250.05019     -44092.04      -50197.219     -263.37689      0.02512502     4.695          0.010050008  
   1879000   246.82848     -44332.256     -50358.775     -97.295275      0.0078602167   4.6975         0.0031440867 
   1880000   245.85125     -43966.918     -49969.576     -133.87649      0.011810626    4.7            0.0047242503 
   1881000   247.62613     -44114.668     -50160.662     -339.88055      0.034179249    4.7025         0.013671699  
   1882000   246.11702     -44159.745     -50168.893      116.33214     -0.011786167    4.705         -0.0047144666 
   1883000   246.99551     -43987.946     -50018.543     -476.34565      0.049166675    4.7075         0.01966667   
   1884000   241.4009      -44387.691     -50281.69       149.49006     -0.014218953    4.71          -0.0056875811 
   1885000   246.53644     -44113.543     -50132.931     -624.40924      0.061812316    4.7125         0.024724926  
   1886000   250.15266     -43907.612     -50015.293     -360.22623      0.03457415     4.715          0.01382966   
   1887000   248.38149     -44143.766     -50208.203     -223.99537      0.023584513    4.7175         0.0094338053 
   1888000   248.50743     -44163.152     -50230.663     -194.78641      0.022313869    4.72           0.0089255475 
   1889000   247.79187     -44173.4       -50223.44      -328.02196      0.035780985    4.7225         0.014312394  
   1890000   242.05438     -44252.845     -50162.799     -150.83325      0.018456524    4.725          0.0073826095 
   1891000   245.42347     -44111.264     -50103.478     -76.827419      0.0036031685   4.7275         0.0014412674 
   1892000   243.6355      -44164.966     -50113.525     -115.46872      0.013075139    4.73           0.0052300555 
   1893000   244.37117     -44194.889     -50161.411      6.729818       0.00061599238  4.7325         0.00024639695
   1894000   248.39199     -43912.519     -49977.211      120.81629     -0.010512434    4.735         -0.0042049737 
   1895000   243.16979     -44317.869     -50255.058     -198.88828      0.019024152    4.7375         0.007609661  
   1896000   245.26981     -44106.906     -50095.368     -133.28498      0.015124034    4.74           0.0060496135 
   1897000   242.03052     -44306.374     -50215.746      333.04249     -0.029830207    4.7425        -0.011932083  
   1898000   245.52014     -44126.813     -50121.387     -53.875622      0.0047276402   4.745          0.0018910561 
   1899000   248.84455     -44146.038     -50221.78       17.075501      1.9253398e-05  4.7475         7.7013591e-06
   1900000   246.26469     -44217.324     -50230.077      112.00607     -0.010743018    4.75          -0.0042972071 
Loop time of 490.91 on 56 procs for 100000 steps with 12288 atoms

Performance: 17.600 ns/day, 1.364 hours/ns, 203.703 timesteps/s, 2.503 Matom-step/s
99.8% CPU use with 56 MPI tasks x no OpenMP threads

MPI task timing breakdown:
Section |  min time  |  avg time  |  max time  |%varavg| %total
---------------------------------------------------------------
Pair    | 187.05     | 196.21     | 206.28     |  26.8 | 39.97
Bond    | 0.017162   | 0.025511   | 0.043869   |   2.6 |  0.01
Kspace  | 150.77     | 158.67     | 170.17     |  32.7 | 32.32
Neigh   | 22.077     | 22.091     | 22.101     |   0.1 |  4.50
Comm    | 15.869     | 18.17      | 20.421     |  27.1 |  3.70
Output  | 0.22703    | 0.40463    | 0.57462    |  16.2 |  0.08
Modify  | 74.355     | 80.881     | 92.873     |  51.2 | 16.48
Other   |            | 14.46      |            |       |  2.94

Nlocal:        219.429 ave         235 max         202 min
Histogram: 3 4 4 9 5 8 8 6 3 6
Nghost:        6955.32 ave        7019 max        6893 min
Histogram: 1 1 5 12 12 10 8 3 3 1
Neighs:        96054.6 ave      103825 max       88384 min
Histogram: 4 4 4 9 6 8 10 4 2 5

Total # of neighbors = 5379056
Ave neighs/atom = 437.7487
Ave special neighs/atom = 2
Neighbor list builds = 1896
Dangerous builds = 0
kspace_style pppm/tip4p 1.0e-5
next nloop
jump SELF loop_start
run 100000 # 100ps
PPPM initialization ...
  extracting TIP4P info from pair style
  using 12-bit tables for long-range coulomb
  G vector (1/distance) = 0.3306794
  grid = 50 64 50
  stencil order = 5
  estimated absolute RMS force accuracy = 0.0030797115
  estimated relative force accuracy = 9.2744596e-06
  using double precision KISS FFT
  3d grid and FFT values/proc = 13600 3200
Generated 0 of 1 mixed pair_coeff terms from geometric mixing rule
Per MPI rank memory allocation (min/avg/max) = 11.08 | 11.2 | 11.31 Mbytes
   Step          Temp          TotEng         PotEng          Pxy           v_sxy         v_strain     v_viscosity  
   1900000   246.26456     -44217.338     -50230.087      116.82355     -0.011236275    4.75          -0.0044945099 
   1901000   245.4722      -44247.61      -50241.014     -216.70038      0.022596256    4.7525         0.0090385025 
   1902000   246.04701     -44274.02      -50281.459      192.92749     -0.015139537    4.755         -0.0060558149 
   1903000   242.72164     -44440.605     -50366.852      6.6720245     -0.00066431114  4.7575        -0.00026572446
   1904000   247.14796     -44126.581     -50160.9        246.1816      -0.02494071     4.76          -0.0099762841 
   1905000   248.77153     -44245.658     -50319.618     -271.84493      0.026959936    4.7625         0.010783974  
   1906000   242.72855     -44328.69      -50255.105     -283.75535      0.028413684    4.765          0.011365474  
   1907000   247.63195     -44193.946     -50240.082     -10.110546      0.00027477174  4.7675         0.0001099087 
   1908000   243.00196     -44440.578     -50373.669     -8.9096619      0.00040315704  4.77           0.00016126282
   1909000   244.49248     -44362.72      -50332.203     -130.57263      0.01542072     4.7725         0.0061682881 
   1910000   248.94375     -44328.094     -50406.258      162.9032      -0.018466824    4.775         -0.0073867297 
   1911000   245.81564     -44346.186     -50347.975     -205.89179      0.022062843    4.7775         0.0088251372 
   1912000   248.30075     -44295.994     -50358.459     -101.87254      0.012601028    4.78           0.0050404111 
   1913000   249.30572     -44248.614     -50335.617     -156.88902      0.018595159    4.7825         0.0074380634 
   1914000   244.96685     -44468.377     -50449.442     -88.854448      0.0048727822   4.785          0.0019491129 
   1915000   246.32135     -44326.013     -50340.149     -53.577347      0.0059276199   4.7875         0.002371048  
   1916000   246.21727     -44367.378     -50378.973     -345.54477      0.035185101    4.79           0.01407404   
   1917000   245.09195     -44392.237     -50376.357     -204.06514      0.023159549    4.7925         0.0092638194 
   1918000   245.3632      -44398.819     -50389.562     -123.55474      0.012822982    4.795          0.0051291928 
   1919000   246.70669     -44283.994     -50307.539     -178.93941      0.019326384    4.7975         0.0077305535 
   1920000   248.39471     -44272.251     -50337.01      -107.32181      0.011373876    4.8            0.0045495504 
   1921000   245.98159     -44329.682     -50335.523     -84.607353      0.0074569479   4.8025         0.0029827791 
   1922000   247.00947     -44265.514     -50296.452     -50.510451      0.0064349366   4.805          0.0025739747 
   1923000   245.86114     -44314.404     -50317.304     -353.78638      0.033283169    4.8075         0.013313268  
   1924000   240.89442     -44294.747     -50176.381      41.404375     -0.00065192014  4.81          -0.00026076806
   1925000   245.03645     -44129.431     -50112.195     -229.32196      0.021093948    4.8125         0.0084375791 
   1926000   248.17512     -44258.043     -50317.441      146.68628     -0.015899616    4.815         -0.0063598464 
   1927000   246.96132     -44243.726     -50273.488      86.188928     -0.0088298882   4.8175        -0.0035319553 
   1928000   243.64467     -44338.993     -50287.776     -340.03686      0.036266431    4.82           0.014506573  
   1929000   248.27483     -44072.668     -50134.501     -151.17393      0.015153927    4.8225         0.0060615709 
   1930000   244.54071     -44176.76      -50147.42       293.98415     -0.033011197    4.825         -0.013204479  
   1931000   248.25512     -44173.22      -50234.571      77.632271     -0.0094082853   4.8275        -0.0037633141 
   1932000   246.90164     -44171.142     -50199.446     -157.48401      0.019349571    4.83           0.0077398284 
   1933000   246.45554     -44174.711     -50192.124      75.059691     -0.0075944312   4.8325        -0.0030377725 
   1934000   242.71291     -44386.408     -50312.441     -380.30473      0.037503668    4.835          0.015001467  
   1935000   250.55785     -44118.534     -50236.108     -263.55209      0.026606226    4.8375         0.01064249   
   1936000   244.70299     -44294.335     -50268.958      58.18948      -0.005177887    4.84          -0.0020711548 
   1937000   248.22817     -44213.893     -50274.586     -230.20474      0.020075439    4.8425         0.0080301758 
   1938000   245.41607     -44206.955     -50198.988     -310.49283      0.029143264    4.845          0.011657305  
   1939000   248.40942     -44201.19      -50266.308     -182.18005      0.018878877    4.8475         0.0075515509 
   1940000   244.82671     -44270.368     -50248.012     -44.085711      0.0025849542   4.85           0.0010339817 
   1941000   243.61641     -44269.55      -50217.643      9.1001447     -0.00060574391  4.8525        -0.00024229756
   1942000   248.08562     -44133.3       -50190.513     -155.59902      0.011488926    4.855          0.0045955704 
   1943000   247.91195     -44195.103     -50248.075     -264.43719      0.026022255    4.8575         0.010408902  
   1944000   246.16694     -44216.567     -50226.934     -472.68107      0.048776455    4.86           0.019510582  
   1945000   244.54905     -44177.263     -50148.127     -437.05357      0.040971086    4.8625         0.016388434  
   1946000   240.65192     -44391.34      -50267.053      25.720342     -0.0033762156   4.865         -0.0013504862 
   1947000   242.98483     -44241.19      -50173.863     -636.6628       0.061347434    4.8675         0.024538974  
   1948000   241.32781     -44374.148     -50266.364     -174.46172      0.017076408    4.87           0.006830563  
   1949000   247.65116     -44276.43      -50323.035     -133.7013       0.011775568    4.8725         0.0047102272 
   1950000   242.46193     -44310.103     -50230.009      45.960386     -0.0038454551   4.875         -0.001538182  
   1951000   245.82961     -44259.318     -50261.448      84.238552     -0.006967119    4.8775        -0.0027868476 
   1952000   246.36156     -44171.319     -50186.438     -248.88038      0.022068251    4.88           0.0088273004 
   1953000   244.56969     -44331.727     -50303.096     -86.402068      0.0067912574   4.8825         0.002716503  
   1954000   246.68841     -44114.991     -50138.09       58.248802     -0.0087651608   4.885         -0.0035060643 
   1955000   247.45999     -44286.33      -50328.267     -61.914916      0.0047110596   4.8875         0.0018844238 
   1956000   241.68119     -44288.995     -50189.838     -104.81443      0.0092642009   4.89           0.0037056803 
   1957000   247.32929     -44278.044     -50316.79      -117.87082      0.0082903592   4.8925         0.0033161437 
   1958000   248.31509     -44157.298     -50220.114     -54.89314       0.0025394499   4.895          0.00101578   
   1959000   246.24952     -44276.163     -50288.546     -107.31753      0.0058508024   4.8975         0.002340321  
   1960000   246.363       -44356.174     -50371.328     -96.976745      0.0087545177   4.9            0.0035018071 
   1961000   245.40574     -44143.528     -50135.309     -294.78225      0.030094339    4.9025         0.012037736  
   1962000   246.62688     -44326.086     -50347.682     -449.94288      0.043974656    4.905          0.017589862  
   1963000   243.44284     -44378.066     -50321.921     -318.94329      0.031471736    4.9075         0.012588694  
   1964000   247.17499     -44287.753     -50322.732     -132.78369      0.010639572    4.91           0.0042558289 
   1965000   245.85922     -44191.2       -50194.053     -562.14561      0.053337057    4.9125         0.021334823  
   1966000   244.20495     -44418.236     -50380.698     -130.63049      0.01134674     4.915          0.0045386962 
   1967000   248.51926     -44189.722     -50257.522     -208.79201      0.021759342    4.9175         0.0087037367 
   1968000   248.79542     -44063.165     -50137.708     -273.13209      0.025674951    4.92           0.01026998   
   1969000   244.32321     -44317.098     -50282.449     -140.2347       0.016321294    4.9225         0.0065285176 
   1970000   245.05495     -44309.498     -50292.714      94.021258     -0.0078684542   4.925         -0.0031473817 
   1971000   246.97459     -44347.238     -50377.324      83.509102     -0.0099275228   4.9275        -0.0039710091 
   1972000   245.0805      -44317.208     -50301.049      116.68528     -0.013754685    4.93          -0.005501874  
   1973000   245.05099     -44325.287     -50308.407     -140.14222      0.015413356    4.9325         0.0061653422 
   1974000   245.99354     -44348.349     -50354.482      0.89512004     0.0011961231   4.935          0.00047844926
   1975000   244.50787     -44395.659     -50365.518      200.06672     -0.021164681    4.9375        -0.0084658725 
   1976000   244.20387     -44372.28      -50334.716     -139.48352      0.0077524497   4.94           0.0031009799 
   1977000   246.06138     -44207.381     -50215.17      -521.43488      0.049096803    4.9425         0.019638721  
   1978000   245.72091     -44254.134     -50253.611     -7.9262756     -0.00060133724  4.945         -0.00024053489
   1979000   244.53899     -44198.517     -50169.136     -257.92696      0.025212095    4.9475         0.010084838  
   1980000   247.32955     -44246.573     -50285.325      249.60552     -0.026393629    4.95          -0.010557452  
   1981000   251.2501      -44140.075     -50274.551     -73.494992      0.010576677    4.9525         0.004230671  
   1982000   240.96924     -44319.465     -50202.925     -37.766469      0.0046293634   4.955          0.0018517454 
   1983000   250.05054     -44167.806     -50272.994      159.90887     -0.014214933    4.9575        -0.0056859732 
   1984000   247.30389     -44417.704     -50455.83      -103.86993      0.013982544    4.96           0.0055930175 
   1985000   243.77778     -44353.587     -50305.62      -139.13204      0.0089571302   4.9625         0.0035828521 
   1986000   242.76366     -44321.47      -50248.743     -126.71349      0.012019427    4.965          0.0048077707 
   1987000   240.64026     -44342.735     -50218.163     -244.67022      0.025568436    4.9675         0.010227374  
   1988000   246.75297     -44125.277     -50149.952     -245.22604      0.022607104    4.97           0.0090428418 
   1989000   247.66319     -44059.833     -50106.732     -324.50666      0.034005724    4.9725         0.01360229   
   1990000   246.26414     -44144.794     -50157.534     -59.401923      0.0082278646   4.975          0.0032911458 
   1991000   245.05162     -44216.009     -50199.144     -121.95647      0.011398036    4.9775         0.0045592145 
   1992000   246.56001     -44275.096     -50295.059     -21.960057      0.0026561275   4.98           0.001062451  
   1993000   249.75172     -44044.106     -50141.997     -97.67079       0.010061683    4.9825         0.0040246731 
   1994000   246.4758      -44150.124     -50168.031     -229.18082      0.024580646    4.985          0.0098322586 
   1995000   245.82043     -44077.277     -50079.183      58.415736     -0.0067342765   4.9875        -0.0026937106 
   1996000   245.88878     -44145.263     -50148.838     -405.83771      0.04086478     4.99           0.016345912  
   1997000   244.651       -44179.98      -50153.334     -128.33557      0.012383051    4.9925         0.0049532203 
   1998000   247.61848     -44198.552     -50244.359     -185.04955      0.020955276    4.995          0.0083821102 
   1999000   248.45741     -44181.016     -50247.306     -44.255816      0.0059057521   4.9975         0.0023623009 
   2000000   245.47632     -44283.577     -50277.082     -226.14218      0.020473223    5              0.0081892893 
Loop time of 451.729 on 56 procs for 100000 steps with 12288 atoms

Performance: 19.126 ns/day, 1.255 hours/ns, 221.371 timesteps/s, 2.720 Matom-step/s
99.8% CPU use with 56 MPI tasks x no OpenMP threads

MPI task timing breakdown:
Section |  min time  |  avg time  |  max time  |%varavg| %total
---------------------------------------------------------------
Pair    | 184.84     | 195.2      | 200.89     |  24.6 | 43.21
Bond    | 0.016128   | 0.023455   | 0.040728   |   2.4 |  0.01
Kspace  | 133.01     | 138.44     | 147.21     |  28.8 | 30.65
Neigh   | 22.307     | 22.323     | 22.334     |   0.1 |  4.94
Comm    | 15.531     | 16.26      | 17.825     |  14.1 |  3.60
Output  | 0.22785    | 0.40628    | 0.57715    |  16.3 |  0.09
Modify  | 66.456     | 69.987     | 76.969     |  31.1 | 15.49
Other   |            | 9.09       |            |       |  2.01

Nlocal:        219.429 ave         238 max         202 min
Histogram: 2 2 5 15 5 10 8 4 4 1
Nghost:        6836.77 ave        6911 max        6795 min
Histogram: 6 7 9 14 5 7 6 1 0 1
Neighs:        96074.9 ave      105135 max       87929 min
Histogram: 2 3 7 9 11 9 6 5 2 2

Total # of neighbors = 5380193
Ave neighs/atom = 437.84123
Ave special neighs/atom = 2
Neighbor list builds = 1886
Dangerous builds = 0
kspace_style pppm/tip4p 1.0e-5
next nloop
jump SELF loop_start
# run ${Ttotal}
# variable nloop loop ${nloops}
# label loop_start
# run ${stepsPerReset}
# kspace_style pppm/tip4p 1.0e-5
# next nloop
# jump SELF loop_start
Total wall time: 2:32:28
