LAMMPS (22 Jul 2025 - Update 1)
units real
atom_style full
boundary p p p

# package intel 1 omp 2

pair_style lj/cut/tip4p/long 1 2 1 1 0.1546 9.5

bond_style zero
angle_style zero
pair_modify tail yes

read_data 4096_equilibrated_${T}.data
read_data 4096_equilibrated_246.data
Reading data file ...
  triclinic box = (0 0 0) to (49.79052 49.79052 49.79052) with tilt (0 0 0)
  2 by 4 by 7 MPI processor grid
  reading atoms ...
  12288 atoms
  reading velocities ...
  12288 velocities
  scanning bonds ...
  2 = max bonds/atom
  scanning angles ...
  1 = max angles/atom
  triclinic box = (0 0 0) to (49.79052 49.79052 49.79052) with tilt (0 0 0)
  2 by 4 by 7 MPI processor grid
  reading bonds ...
  8192 bonds
  reading angles ...
  4096 angles
Finding 1-2 1-3 1-4 neighbors ...
  special bond factors lj:    0        0        0       
  special bond factors coul:  0        0        0       
     2 = max # of 1-2 neighbors
     1 = max # of 1-3 neighbors
     1 = max # of 1-4 neighbors
     2 = max # of special neighbors
  special bonds CPU = 0.005 seconds
  read_data CPU = 0.113 seconds
# read_data equilibration_NVT_${T}.data
# replicate 2 2 2

print "Initial configuration loaded."
Initial configuration loaded.
reset_timestep 0
print "Applying shear rate: ${gamma}"
Applying shear rate: 5e-7
change_box all triclinic
Changing box ...
  triclinic box = (0 0 0) to (49.79052 49.79052 49.79052) with tilt (0 0 0)
kspace_style pppm/tip4p 1.0e-5

pair_coeff 1 1 0.18521 3.1589 #O-O
pair_coeff * 2 0.0 0.0

bond_coeff 1 0.9572 #O-H
angle_coeff 1 104.52 #H-O-H

group gH2O type 1 2
12288 atoms in group gH2O
group gO type 1
4096 atoms in group gO

neighbor 3.0 bin
neigh_modify delay 0 every 1 check yes

timestep 1.0
fix 1 gH2O shake 1.0e-4 100 0 b 1 a 1
Finding SHAKE clusters ...
       0 = # of size 2 clusters
       0 = # of size 3 clusters
       0 = # of size 4 clusters
    4096 = # of frozen angles
  find clusters CPU = 0.005 seconds

# # 系统弛豫到平衡态
# fix fnvt_equil all nvt temp ${T} ${T} 100.0
# thermo 1000
# thermo_style custom step temp etotal pe
# thermo_modify flush yes
# run 500000 # 500 ps
# unfix fnvt_equil
# write_data 4096_equilibrated_${T}.data

# 系统剪切变形

fix fdeform all deform 1 xy erate ${gamma} remap v
fix fdeform all deform 1 xy erate 5e-7 remap v
fix fnvt all nvt/sllod temp ${T} ${T} 100.0
fix fnvt all nvt/sllod temp 246 ${T} 100.0
fix fnvt all nvt/sllod temp 246 246 100.0

compute tilt all temp/deform

variable L0_x equal lx
variable L0_y equal ly
variable L0_z equal lz

compute p all pressure NULL virial
variable sxy equal -c_p[4] * 1.01325e-4  # convert to GPa


variable strainInc equal 0.01
variable dt equal 1.0e-15
variable gammaSI equal ${gamma}*1e15
variable gammaSI equal 5e-7*1e15
variable stepsPerReset equal ceil(${strainInc}/(${gammaSI}*${dt}))
variable stepsPerReset equal ceil(0.01/(${gammaSI}*${dt}))
variable stepsPerReset equal ceil(0.01/(500000000*${dt}))
variable stepsPerReset equal ceil(0.01/(500000000*1e-15))
print "Steps per reset: ${stepsPerReset}"
Steps per reset: 20000

variable massAll equal mass(all)/6.022e23
variable volCm3 equal vol*1.0e-24
variable density_sys equal v_massAll/v_volCm3
variable tau_pa equal v_sxy * 1e9
variable gamma_s equal ${gamma} * 1e15
variable gamma_s equal 5e-7 * 1e15
variable viscosity equal v_tau_pa / v_gamma_s

variable strain equal step*${gammaSI}*${dt}
variable strain equal step*500000000*${dt}
variable strain equal step*500000000*1e-15

thermo 1000
thermo_style custom step temp etotal pe pxy v_sxy v_strain v_viscosity
thermo_modify flush yes

dump traj all custom 500 traj_${gamma}_${T}.lammpstrj id type xu yu zu vx vy vz # 0.5ps
dump traj all custom 500 traj_5e-7_${T}.lammpstrj id type xu yu zu vx vy vz 
dump traj all custom 500 traj_5e-7_246.lammpstrj id type xu yu zu vx vy vz 
dump_modify traj sort id
fix stress all ave/time 500 1 500 v_strain v_sxy file stress_${gamma}_${T}.data  # 每0.5ps输出一次应力和应变
fix stress all ave/time 500 1 500 v_strain v_sxy file stress_5e-7_${T}.data  
fix stress all ave/time 500 1 500 v_strain v_sxy file stress_5e-7_246.data  

# compute peratom all stress/atom NULL
# dump stress gO custom 5000 stress_${gamma}_${T}.lammpstrj id type c_peratom[1] c_peratom[2] c_peratom[3] c_peratom[4] c_peratom[5] c_peratom[6]
# dump_modify stress sort id

variable Ttotal equal 2000000 # 2.0 ns
variable nloops equal ceil(${Ttotal}/(100000))
variable nloops equal ceil(2000000/(100000))
print "Total loops: ${nloops}"
Total loops: 20

variable nloop loop ${nloops}
variable nloop loop 20
label loop_start
run 100000 # 100ps
PPPM initialization ...
  extracting TIP4P info from pair style
  using 12-bit tables for long-range coulomb
  G vector (1/distance) = 0.32815664
  grid = 50 50 50
  stencil order = 5
  estimated absolute RMS force accuracy = 0.0035802102
  estimated relative force accuracy = 1.0781697e-05
  using double precision KISS FFT
  3d grid and FFT values/proc = 11424 2800
WARNING: Communication cutoff 0 is shorter than a bond length based estimate of 4.4358. This may lead to errors. (../comm.cpp:743)
WARNING: Increasing communication cutoff to 13.6118 for TIP4P pair style (../pair_lj_cut_tip4p_long.cpp:497)
Generated 0 of 1 mixed pair_coeff terms from geometric mixing rule
Neighbor list info ...
  update: every = 1 steps, delay = 0 steps, check = yes
  max neighbors/atom: 2000, page size: 100000
  master list distance cutoff = 12.8092
  ghost atom cutoff = 13.6118
  binsize = 6.4046, bins = 8 8 8
  1 neighbor lists, perpetual/occasional/extra = 1 0 0
  (1) pair lj/cut/tip4p/long, perpetual
      attributes: half, newton on
      pair build: half/bin/newton/tri
      stencil: half/bin/3d/tri
      bin: standard
Per MPI rank memory allocation (min/avg/max) = 9.2 | 9.373 | 9.718 Mbytes
   Step          Temp          TotEng         PotEng          Pxy           v_sxy         v_strain     v_viscosity  
         0   245.46957     -44327.561     -50320.901      139.5099      -0.016153381    0             -0.032306763  
      1000   248.50129     -44213.399     -50280.761     -67.896223      0.0070770282   0.0005         0.014154056  
      2000   248.66731     -44268.299     -50339.714     -147.01779      0.016296321    0.001          0.032592642  
      3000   242.84182     -44449.732     -50378.913      207.29357     -0.017226805    0.0015        -0.034453609  
      4000   246.70814     -44318.676     -50342.256     -93.12881       0.012720508    0.002          0.025441016  
      5000   243.60473     -44333.767     -50281.575     -267.25135      0.029212283    0.0025         0.058424566  
      6000   241.31419     -44472.121     -50364.003     -220.14173      0.024221188    0.003          0.048442377  
      7000   243.8977      -44274.331     -50229.292     -310.48475      0.027772633    0.0035         0.055545266  
      8000   243.20319     -44381.101     -50319.105     -86.906308      0.0090292249   0.004          0.01805845   
      9000   249.93844     -44162.834     -50265.285      5.6207015      0.0055454695   0.0045         0.011090939  
     10000   245.22661     -44257.007     -50244.414      178.18565     -0.014061888    0.005         -0.028123776  
     11000   249.09316     -44216.073     -50297.886      249.75633     -0.023493257    0.0055        -0.046986514  
     12000   244.08302     -44266.783     -50226.269     -70.355555      0.0082846456   0.006          0.016569291  
     13000   246.80352     -44436.363     -50462.273      189.44217     -0.017374582    0.0065        -0.034749163  
     14000   247.77006     -44258.488     -50307.996     -227.9514       0.021733226    0.007          0.043466452  
     15000   250.12009     -44257.168     -50364.053      68.360377     -0.0049342142   0.0075        -0.0098684285 
     16000   242.96794     -44513.64      -50445.9       -139.99858      0.017075579    0.008          0.034151159  
     17000   249.5815      -44106.213     -50199.949     -101.09385      0.0099485831   0.0085         0.019897166  
     18000   248.03412     -44367.675     -50423.63      -181.05046      0.018313154    0.009          0.036626309  
     19000   246.66979     -44265.229     -50287.873     -345.01195      0.035778898    0.0095         0.071557797  
     20000   243.00549     -44336.092     -50269.269      166.56499     -0.017787821    0.01          -0.035575642  
     21000   245.35573     -44195.953     -50186.513      90.724948     -0.007998087    0.0105        -0.015996174  
     22000   244.2834      -44299.493     -50263.871     -181.18002      0.02020242     0.011          0.040404841  
     23000   243.02107     -44395.2       -50328.758     -266.28772      0.022804947    0.0115         0.045609894  
     24000   245.51089     -44369.454     -50363.803     -53.347294      0.0022497977   0.012          0.0044995955 
     25000   249.35451     -44242.644     -50330.838     -158.20514      0.012751562    0.0125         0.025503124  
     26000   245.47637     -44257.31      -50250.816     -355.08514      0.032582715    0.013          0.06516543   
     27000   242.71724     -44343.328     -50269.467     -174.6063       0.016224144    0.0135         0.032448287  
     28000   244.39414     -44336.451     -50303.533     -94.6005        0.011206203    0.014          0.022412407  
     29000   244.74679     -44341.876     -50317.568     -200.80313      0.019393705    0.0145         0.038787411  
     30000   245.50012     -44316.929     -50311.015     -169.66688      0.014897163    0.015          0.029794326  
     31000   243.20294     -44453.589     -50391.587      117.02746     -0.010076056    0.0155        -0.020152111  
     32000   247.67602     -44183.543     -50230.754      38.892891     -0.0031415625   0.016         -0.006283125  
     33000   247.63554     -44291.991     -50338.215     -242.06119      0.019995177    0.0165         0.039990354  
     34000   248.27602     -44227.293     -50289.154      42.791805     -0.0043995171   0.017         -0.0087990342 
     35000   246.38664     -44333.236     -50348.966     -40.420883      0.0045330796   0.0175         0.0090661592 
     36000   245.50693     -44352.319     -50346.571      45.891468     -0.0044472725   0.018         -0.0088945451 
     37000   247.08525     -44379.077     -50411.865     -177.33062      0.015567346    0.0185         0.031134693  
     38000   242.91401     -44452.967     -50383.911     -169.33984      0.020187728    0.019          0.040375456  
     39000   244.27006     -44207.499     -50171.551      49.16703      -0.0070868717   0.0195        -0.014173743  
     40000   244.79475     -44124.952     -50101.815      135.31233     -0.015834707    0.02          -0.031669415  
     41000   244.53904     -44248.867     -50219.487     -37.791932      0.0028874977   0.0205         0.0057749954 
     42000   244.89294     -44280.624     -50259.885     -213.188        0.021818691    0.021          0.043637382  
     43000   246.31673     -44221.666     -50235.69       123.30007     -0.012435804    0.0215        -0.024871608  
     44000   243.57031     -44220.961     -50167.929      74.113867     -0.0085036626   0.022         -0.017007325  
     45000   245.53511     -44138.261     -50133.201      132.70032     -0.014140008    0.0225        -0.028280016  
     46000   247.17363     -44301.964     -50336.909     -217.16685      0.025500904    0.023          0.051001808  
     47000   247.31029     -44148.344     -50186.626     -86.966457      0.00053926347  0.0235         0.0010785269 
     48000   242.56422     -44274.93      -50197.333      254.46875     -0.02613594     0.024         -0.052271879  
     49000   248.38528     -44060.996     -50125.525     -78.999744      0.010385142    0.0245         0.020770285  
     50000   246.05484     -44215.855     -50223.484     -306.39157      0.031121303    0.025          0.062242605  
     51000   248.64265     -44198.681     -50269.494      18.041167     -0.0042036703   0.0255        -0.0084073406 
     52000   243.66329     -44274.56      -50223.798      351.50599     -0.036619115    0.026         -0.07323823   
     53000   250.22087     -44131.27      -50240.617      196.6557      -0.017464867    0.0265        -0.034929735  
     54000   245.09452     -44234.187     -50218.37       253.32792     -0.024107175    0.027         -0.048214349  
     55000   248.53526     -44069.619     -50137.81      -2.1033677     -0.00033909367  0.0275        -0.00067818733
     56000   241.92125     -44258.598     -50165.303     -158.33113      0.017135939    0.028          0.034271877  
     57000   250.45248     -43954.381     -50069.383      197.26334     -0.018332024    0.0285        -0.036664049  
     58000   244.93436     -44207.776     -50188.049     -66.618545      0.0063450052   0.029          0.01269001   
     59000   243.81943     -44342.791     -50295.842      201.93801     -0.017424127    0.0295        -0.034848254  
     60000   246.43186     -44139.946     -50156.78      -255.90364      0.026701262    0.03           0.053402524  
     61000   247.10736     -44189.103     -50222.431     -76.208686      0.0089429922   0.0305         0.017885984  
     62000   249.42868     -44070.464     -50160.468     -85.211208      0.01045958     0.031          0.020919161  
     63000   243.90044     -44144.338     -50099.366     -152.47766      0.015148314    0.0315         0.030296628  
     64000   246.10274     -44202.422     -50211.221     -212.3597       0.017723387    0.032          0.035446775  
     65000   247.70558     -44192.656     -50240.59      -115.41423      0.012221377    0.0325         0.024442754  
     66000   247.20666     -44220.816     -50256.568     -251.88573      0.027337747    0.033          0.054675495  
     67000   249.08182     -44121.708     -50203.244      9.8615555     -0.0004577196   0.0335        -0.0009154392 
     68000   243.21248     -44302.618     -50240.849     -190.5054       0.02091781     0.034          0.04183562   
     69000   244.28799     -44268.675     -50233.165     -107.00543      0.011636895    0.0345         0.023273789  
     70000   245.25463     -44223.571     -50211.663     -40.235231      0.0019215485   0.035          0.003843097  
     71000   247.81918     -44297.527     -50348.234      113.12172     -0.009103938    0.0355        -0.018207876  
     72000   248.38235     -44258.574     -50323.032      92.509391     -0.012051802    0.036         -0.024103603  
     73000   246.53429     -44207.288     -50226.623      40.46117      -0.0030320107   0.0365        -0.0060640213 
     74000   244.65338     -44235.087     -50208.499     -59.924601      0.0038452161   0.037          0.0076904322 
     75000   244.88872     -44217.354     -50196.512     -238.26724      0.021057247    0.0375         0.042114494  
     76000   246.18075     -44212.474     -50223.177     -541.8819       0.053782238    0.038          0.10756448   
     77000   247.61108     -44153.376     -50199.002     -66.959411      0.0026357034   0.0385         0.0052714068 
     78000   245.37509     -44355.026     -50346.059      227.83529     -0.021306591    0.039         -0.042613183  
     79000   245.82221     -44232.046     -50233.995     -36.592149      0.0038696627   0.0395         0.0077393253 
     80000   243.60567     -44350.578     -50298.409     -232.29125      0.021605178    0.04           0.043210357  
     81000   246.49201     -44418.867     -50437.17       12.603564      0.00027536     0.0405         0.00055071999
     82000   246.52499     -44295.527     -50314.635      59.277981     -0.0011141483   0.041         -0.0022282966 
     83000   244.04116     -44307.978     -50266.441      39.058617     -0.0026673816   0.0415        -0.0053347633 
     84000   248.39385     -44320.025     -50384.763     -344.40301      0.033821241    0.042          0.067642483  
     85000   249.97649     -44026.534     -50129.914      12.155162     -0.0025054952   0.0425        -0.0050109904 
     86000   244.42131     -44349.197     -50316.943     -71.171077      0.0058745033   0.043          0.011749007  
     87000   248.82095     -44180.199     -50255.365     -157.93669      0.016532043    0.0435         0.033064086  
     88000   244.14885     -44487.151     -50448.244     -3.9213132     -0.00011568666  0.044         -0.00023137332
     89000   245.15351     -44281.871     -50267.493     -96.656317      0.0091904359   0.0445         0.018380872  
     90000   241.56372     -44475.257     -50373.232     -177.50647      0.018938797    0.045          0.037877594  
     91000   242.49974     -44403.623     -50324.452      156.91073     -0.016718432    0.0455        -0.033436865  
     92000   241.7633      -44461.532     -50364.38       116.56655     -0.014399328    0.046         -0.028798656  
     93000   247.89916     -44272.849     -50325.509      116.01885     -0.0084047353   0.0465        -0.016809471  
     94000   246.95146     -44295.327     -50324.848      70.904929     -0.0066376747   0.047         -0.013275349  
     95000   243.40282     -44369.123     -50312.001     -64.686939      0.0064453699   0.0475         0.01289074   
     96000   247.89392     -44240.779     -50293.311     -327.77203      0.037358146    0.048          0.074716293  
     97000   244.41821     -44496.939     -50464.609     -6.7188914     -0.00024434135  0.0485        -0.0004886827 
     98000   246.49562     -44310.27      -50328.662      37.482872     -0.0065550213   0.049         -0.013110043  
     99000   244.58161     -44507.972     -50479.631     -60.173624      0.0043412327   0.0495         0.0086824654 
    100000   247.73751     -44374.883     -50423.596     -323.87205      0.032386354    0.05           0.064772708  
Loop time of 423.491 on 56 procs for 100000 steps with 12288 atoms

Performance: 20.402 ns/day, 1.176 hours/ns, 236.132 timesteps/s, 2.902 Matom-step/s
99.7% CPU use with 56 MPI tasks x no OpenMP threads

MPI task timing breakdown:
Section |  min time  |  avg time  |  max time  |%varavg| %total
---------------------------------------------------------------
Pair    | 187.27     | 199.11     | 206.54     |  24.3 | 47.02
Bond    | 0.014478   | 0.026305   | 0.042862   |   2.8 |  0.01
Kspace  | 108.74     | 116.53     | 127.55     |  31.9 | 27.52
Neigh   | 22.266     | 22.277     | 22.286     |   0.1 |  5.26
Comm    | 14.405     | 15.583     | 17.158     |  16.9 |  3.68
Output  | 0.22528    | 0.40207    | 0.57242    |  16.2 |  0.09
Modify  | 50.874     | 55.739     | 67.28      |  46.3 | 13.16
Other   |            | 13.83      |            |       |  3.27

Nlocal:        219.429 ave         242 max         204 min
Histogram: 3 6 12 8 9 8 4 5 0 1
Nghost:        6866.82 ave        6928 max        6806 min
Histogram: 2 2 5 7 12 14 6 3 3 2
Neighs:        96048.3 ave      107126 max       88301 min
Histogram: 4 4 12 8 8 11 2 5 1 1

Total # of neighbors = 5378706
Ave neighs/atom = 437.72021
Ave special neighs/atom = 2
Neighbor list builds = 1860
Dangerous builds = 0
kspace_style pppm/tip4p 1.0e-5
next nloop
jump SELF loop_start
run 100000 # 100ps
PPPM initialization ...
  extracting TIP4P info from pair style
  using 12-bit tables for long-range coulomb
  G vector (1/distance) = 0.32881326
  grid = 50 54 50
  stencil order = 5
  estimated absolute RMS force accuracy = 0.003443216
  estimated relative force accuracy = 1.0369143e-05
  using double precision KISS FFT
  3d grid and FFT values/proc = 11968 2800
Generated 0 of 1 mixed pair_coeff terms from geometric mixing rule
Per MPI rank memory allocation (min/avg/max) = 10.92 | 10.98 | 11.03 Mbytes
   Step          Temp          TotEng         PotEng          Pxy           v_sxy         v_strain     v_viscosity  
    100000   247.73734     -44374.883     -50423.592     -322.72866      0.032269839    0.05           0.064539677  
    101000   247.85736     -44417.163     -50468.802     -302.25587      0.029376576    0.0505         0.058753151  
    102000   243.35777     -44486.287     -50428.066      39.441015     -0.0045298337   0.051         -0.0090596674 
    103000   248.3297      -44263.279     -50326.451     -117.14214      0.01326296     0.0515         0.02652592   
    104000   243.14619     -44484.049     -50420.662      147.34195     -0.01625075     0.052         -0.0325015    
    105000   248.02338     -44259.813     -50315.506     -59.67649       0.005305864    0.0525         0.010611728  
    106000   247.38103     -44332.795     -50372.805      152.49325     -0.015514929    0.053         -0.031029859  
    107000   240.07496     -44554.744     -50416.37       5.303151       0.00048983891  0.0535         0.00097967782
    108000   244.48941     -44300.902     -50270.31      -128.75453      0.015433454    0.054          0.030866908  
    109000   243.89084     -44508.742     -50463.536     -47.261746      0.0066012437   0.0545         0.013202487  
    110000   246.16854     -44445.046     -50455.452      36.192127     -0.0012593414   0.055         -0.0025186829 
    111000   245.34103     -44498.063     -50488.264      19.535383     -0.0035060513   0.0555        -0.0070121026 
    112000   248.94725     -44340.223     -50418.473      83.365093     -0.0095394821   0.056         -0.019078964  
    113000   245.79859     -44355.378     -50356.751      56.95585      -0.0056761089   0.0565        -0.011352218  
    114000   246.56146     -44310.984     -50330.983     -80.708634      0.0039062846   0.057          0.0078125693 
    115000   249.34006     -44324.783     -50412.624      193.93371     -0.019706458    0.0575        -0.039412916  
    116000   246.01239     -44414.111     -50420.704      53.92871      -0.0045154481   0.058         -0.0090308961 
    117000   249.91906     -44355.485     -50457.462     -63.389782      0.0066644063   0.0585         0.013328813  
    118000   245.60963     -44267.289     -50264.048     -96.383263      0.013597277    0.059          0.027194554  
    119000   245.08186     -44456.353     -50440.226      177.23515     -0.014167593    0.0595        -0.028335186  
    120000   244.70534     -44480.302     -50454.982     -111.14885      0.0092605011   0.06           0.018521002  
    121000   248.90648     -44368.954     -50446.209      106.69337     -0.011226478    0.0605        -0.022452957  
    122000   246.49988     -44383.942     -50402.437     -208.11017      0.021107591    0.061          0.042215183  
    123000   245.43751     -44398.701     -50391.258     -364.24407      0.031514164    0.0615         0.063028327  
    124000   249.01164     -44341.21      -50421.032     -46.480175      0.0055412437   0.062          0.011082487  
    125000   249.24318     -44222.464     -50307.939     -59.52974       0.0060713241   0.0625         0.012142648  
    126000   246.16961     -44365.416     -50375.848     -31.922905      0.0031525544   0.063          0.0063051087 
    127000   244.03442     -44383.48      -50341.779     -40.233615      0.0043763722   0.0635         0.0087527443 
    128000   250.34196     -44140.558     -50252.861     -113.49595      0.012278146    0.064          0.024556292  
    129000   249.80167     -44169.584     -50268.695     -304.81545      0.030979693    0.0645         0.061959387  
    130000   242.64591     -44312.498     -50236.896      111.23819     -0.01332348     0.065         -0.02664696   
    131000   249.10187     -44198.795     -50280.82       254.1081      -0.026406868    0.0655        -0.052813737  
    132000   245.87485     -44324.598     -50327.833     -278.04177      0.024594516    0.066          0.049189031  
    133000   249.66462     -44271.26      -50367.025     -27.322927      0.0022398465   0.0665         0.004479693  
    134000   246.01068     -44307.348     -50313.9        128.84126     -0.013387842    0.067         -0.026775685  
    135000   247.82343     -44199.454     -50250.265     -293.40855      0.028966371    0.0675         0.057932743  
    136000   245.38162     -44308.449     -50299.641      89.298191     -0.011658951    0.068         -0.023317901  
    137000   246.69353     -44297.539     -50320.762     -154.89657      0.017334467    0.0685         0.034668934  
    138000   245.7024      -44195.923     -50194.947     -6.6096313     -0.0003344473   0.069         -0.0006688946 
    139000   244.88802     -44287.707     -50266.847     -28.001854      0.0029149339   0.0695         0.0058298679 
    140000   242.62852     -44325.729     -50249.702      317.49794     -0.033067274    0.07          -0.066134548  
    141000   245.17584     -44293.771     -50279.939     -247.75108      0.02665928     0.0705         0.05331856   
    142000   245.42926     -44073.45      -50065.806      236.80562     -0.025199035    0.071         -0.050398069  
    143000   242.3422      -44323.858     -50240.84       47.772346     -0.0069249496   0.0715        -0.013849899  
    144000   243.04856     -44327.724     -50261.953      90.893325     -0.010341148    0.072         -0.020682296  
    145000   245.19035     -44266.067     -50252.589      15.197193      0.00092949186  0.0725         0.0018589837 
    146000   245.09652     -44207.579     -50191.811      190.23651     -0.019846199    0.073         -0.039692397  
    147000   246.45137     -44322.476     -50339.788     -3.3442156     -0.00038723801  0.0735        -0.00077447601
    148000   242.52871     -44247.307     -50168.843     -232.42862      0.023305678    0.074          0.046611356  
    149000   247.77144     -44162.174     -50211.716     -63.932221      0.0036243238   0.0745         0.0072486477 
    150000   244.27658     -44317.236     -50281.448     -75.907631      0.0068783878   0.075          0.013756776  
    151000   244.68953     -44285.671     -50259.965     -26.649834      0.0044722555   0.0755         0.0089445109 
    152000   245.4247      -44247.57      -50239.814      107.66632     -0.013228367    0.076         -0.026456734  
    153000   242.07873     -44335.357     -50245.906      263.66512     -0.022545949    0.0765        -0.045091899  
    154000   244.54653     -44439.802     -50410.605      4.3095313     -4.2720884e-05  0.077         -8.5441768e-05
    155000   243.2939      -44438.114     -50378.332     -104.20791      0.01248302     0.0775         0.02496604   
    156000   246.25427     -44257.664     -50270.163     -82.861947      0.0073757472   0.078          0.014751494  
    157000   242.27363     -44400.311     -50315.62      -66.114657      0.0068112878   0.0785         0.013622576  
    158000   247.39738     -44205.64      -50246.049     -120.20212      0.01313737     0.079          0.026274741  
    159000   243.12285     -44338.997     -50275.039      190.35329     -0.01344682     0.0795        -0.026893641  
    160000   245.63726     -44241.387     -50238.821     -63.040006      0.0043504885   0.08           0.0087009769 
    161000   244.13927     -44368.317     -50329.176     -70.794409      0.0060091154   0.0805         0.012018231  
    162000   248.50353     -44254.596     -50322.012     -220.46093      0.022341816    0.081          0.044683632  
    163000   249.44044     -44163.252     -50253.544      212.97148     -0.018918704    0.0815        -0.037837408  
    164000   242.48394     -44367.826     -50288.269      291.69337     -0.028301833    0.082         -0.056603666  
    165000   246.09194     -44293.028     -50301.564      276.19808     -0.027161359    0.0825        -0.054322717  
    166000   244.51062     -44225.145     -50195.071      46.182061     -0.0065231244   0.083         -0.013046249  
    167000   245.50571     -44236.778     -50231.001      19.561861      0.00085099103  0.0835         0.0017019821 
    168000   247.18908     -44227.309     -50262.632     -68.45508       0.0096884393   0.084          0.019376879  
    169000   244.48941     -44356.159     -50325.568     -128.79338      0.016272201    0.0845         0.032544401  
    170000   244.40989     -44216.414     -50183.881     -34.425846      0.0012327345   0.085          0.002465469  
    171000   245.96866     -44233.609     -50239.134     -101.26626      0.0099445965   0.0855         0.019889193  
    172000   245.61659     -44129.51      -50126.44       42.061761     -0.0088994477   0.086         -0.017798895  
    173000   244.14948     -44263.771     -50224.88      -84.835343      0.0073391069   0.0865         0.014678214  
    174000   244.3377      -44188.081     -50153.785     -309.44985      0.032096767    0.087          0.064193534  
    175000   249.23385     -44104.672     -50189.92       324.44056     -0.032893867    0.0875        -0.065787735  
    176000   246.55115     -44314.438     -50334.185      226.10849     -0.026047102    0.088         -0.052094205  
    177000   247.30399     -44192.064     -50230.192     -184.22893      0.018630298    0.0885         0.037260597  
    178000   248.73511     -44162.31      -50235.381     -8.6190231      0.0014764442   0.089          0.0029528884 
    179000   244.73142     -44181.787     -50157.104      337.58717     -0.032545751    0.0895        -0.065091501  
    180000   246.69241     -44093.633     -50116.83      -159.68363      0.01446837     0.09           0.028936741  
    181000   242.97053     -44286.71      -50219.033     -205.94332      0.024237812    0.0905         0.048475624  
    182000   245.48483     -44256.027     -50249.739     -336.3822       0.03387584     0.091          0.067751679  
    183000   248.99769     -44090.893     -50170.375     -230.97906      0.02270735     0.0915         0.0454147    
    184000   244.30388     -44304.896     -50269.775     -114.16063      0.011731235    0.092          0.023462471  
    185000   246.83141     -44267.618     -50294.208     -493.06716      0.048208281    0.0925         0.096416563  
    186000   245.64714     -44166.979     -50164.654      124.17825     -0.013833774    0.093         -0.027667547  
    187000   245.68743     -44145.282     -50143.941     -109.97086      0.011528869    0.0935         0.023057739  
    188000   249.09797     -44124.913     -50206.843      237.01606     -0.024221164    0.094         -0.048442328  
    189000   244.28041     -44210.595     -50174.901      388.80677     -0.037457165    0.0945        -0.07491433   
    190000   248.9032      -44021.076     -50098.25       457.13708     -0.0450016      0.095         -0.090003201  
    191000   247.4748      -44123.623     -50165.922     -127.29465      0.012824304    0.0955         0.025648608  
    192000   247.39023     -43999.335     -50039.569     -112.95385      0.013305895    0.096          0.026611789  
    193000   244.82712     -44112.61      -50090.263     -127.6272       0.015780888    0.0965         0.031561776  
    194000   244.48738     -44249.913     -50219.272     -16.536236      0.0012749872   0.097          0.0025499743 
    195000   246.39444     -44086.058     -50101.979     -212.40121      0.023699233    0.0975         0.047398465  
    196000   243.80196     -44300.616     -50253.24      -236.8435       0.024270356    0.098          0.048540712  
    197000   248.05768     -44025.487     -50082.017     -331.08495      0.031067228    0.0985         0.062134456  
    198000   245.12758     -44330.814     -50315.803      168.36902     -0.016477015    0.099         -0.03295403   
    199000   244.67917     -44161.726     -50135.767     -132.28741      0.016581727    0.0995         0.033163454  
    200000   246.00586     -44114.497     -50120.931     -105.86848      0.01073808     0.1            0.021476161  
Loop time of 429.733 on 56 procs for 100000 steps with 12288 atoms

Performance: 20.105 ns/day, 1.194 hours/ns, 232.702 timesteps/s, 2.859 Matom-step/s
99.8% CPU use with 56 MPI tasks x no OpenMP threads

MPI task timing breakdown:
Section |  min time  |  avg time  |  max time  |%varavg| %total
---------------------------------------------------------------
Pair    | 187.22     | 198.27     | 206.14     |  29.8 | 46.14
Bond    | 0.017325   | 0.027013   | 0.044558   |   2.8 |  0.01
Kspace  | 116.68     | 124.14     | 134.46     |  34.8 | 28.89
Neigh   | 21.62      | 21.631     | 21.643     |   0.1 |  5.03
Comm    | 14.607     | 15.716     | 17.695     |  19.5 |  3.66
Output  | 0.22055    | 0.44933    | 0.62189    |  15.7 |  0.10
Modify  | 51.897     | 59.715     | 67.221     |  51.9 | 13.90
Other   |            | 9.788      |            |       |  2.28

Nlocal:        219.429 ave         234 max         203 min
Histogram: 1 5 4 4 13 7 10 3 3 6
Nghost:        6849.71 ave        6895 max        6787 min
Histogram: 2 1 1 4 8 11 13 10 3 3
Neighs:        96060.2 ave      103118 max       89375 min
Histogram: 3 6 3 10 8 9 7 3 2 5

Total # of neighbors = 5379373
Ave neighs/atom = 437.7745
Ave special neighs/atom = 2
Neighbor list builds = 1860
Dangerous builds = 0
kspace_style pppm/tip4p 1.0e-5
next nloop
jump SELF loop_start
run 100000 # 100ps
PPPM initialization ...
  extracting TIP4P info from pair style
  using 12-bit tables for long-range coulomb
  G vector (1/distance) = 0.32760519
  grid = 50 54 50
  stencil order = 5
  estimated absolute RMS force accuracy = 0.0036991513
  estimated relative force accuracy = 1.1139884e-05
  using double precision KISS FFT
  3d grid and FFT values/proc = 11968 2800
Generated 0 of 1 mixed pair_coeff terms from geometric mixing rule
Per MPI rank memory allocation (min/avg/max) = 10.92 | 10.98 | 11.03 Mbytes
   Step          Temp          TotEng         PotEng          Pxy           v_sxy         v_strain     v_viscosity  
    200000   246.00587     -44114.488     -50120.922     -104.63162      0.010612608    0.1            0.021225217  
    201000   248.36253     -44266.756     -50330.729      64.174708     -0.0077276596   0.1005        -0.015455319  
    202000   242.76562     -44300.749     -50228.07       77.065889     -0.0096510154   0.101         -0.019302031  
    203000   244.68022     -44431.577     -50405.644     -111.80505      0.012860257    0.1015         0.025720513  
    204000   248.57158     -44223.093     -50292.171     -56.334463      0.0052714995   0.102          0.010542999  
    205000   245.55917     -44129.61      -50125.137      52.442142     -0.0056485043   0.1025        -0.011297009  
    206000   244.46666     -44418.515     -50387.368     -88.825264      0.0099438762   0.103          0.019887752  
    207000   243.29779     -44247.097     -50187.411      162.73851     -0.017995171    0.1035        -0.035990341  
    208000   241.85705     -44359.902     -50265.039     -376.09466      0.037015477    0.104          0.074030955  
    209000   246.62934     -44298.746     -50320.403     -15.200041      0.0028059871   0.1045         0.0056119742 
    210000   247.10449     -44151.377     -50184.635     -191.13541      0.01622797     0.105          0.032455939  
    211000   247.42402     -44281.868     -50322.927     -360.01926      0.03674043     0.1055         0.073480859  
    212000   246.34627     -44221.184     -50235.929     -300.54831      0.030265481    0.106          0.060530961  
    213000   247.90629     -44130.32      -50183.154     -134.40281      0.01117671     0.1065         0.02235342   
    214000   242.90131     -44392.451     -50323.084     -142.0852       0.011645398    0.107          0.023290796  
    215000   246.52928     -44271.662     -50290.875     -366.12874      0.035322089    0.1075         0.070644179  
    216000   245.98337     -44110.992     -50116.876      104.98888     -0.01298722     0.108         -0.025974441  
    217000   245.98151     -44184.626     -50190.465     -231.34666      0.021403124    0.1085         0.042806247  
    218000   246.90815     -44305.422     -50333.886     -232.28718      0.020772813    0.109          0.041545625  
    219000   247.38361     -44168.595     -50208.668     -28.947666      0.0046642275   0.1095         0.009328455  
    220000   245.94078     -44266.764     -50271.608     -178.94184      0.022997821    0.11           0.045995641  
    221000   245.08318     -44362.516     -50346.422     -215.67952      0.023997575    0.1105         0.047995151  
    222000   247.86164     -44232.314     -50284.058     -130.68426      0.013542399    0.111          0.027084799  
    223000   246.86548     -44115.993     -50143.415      70.98648      -0.0023727135   0.1115        -0.004745427  
    224000   248.22213     -44311.117     -50371.663     -173.93747      0.01620366     0.112          0.03240732   
    225000   244.25726     -44362.432     -50326.172      54.290635     -0.0062541562   0.1125        -0.012508312  
    226000   248.12292     -44173.135     -50231.259     -196.62982      0.016640746    0.113          0.033281491  
    227000   245.94971     -44107.047     -50112.11      -133.61469      0.012545082    0.1135         0.025090164  
    228000   248.94666     -44242.13      -50320.366     -297.81676      0.032330763    0.114          0.064661526  
    229000   244.60183     -44367.143     -50339.296     -340.91465      0.033070199    0.1145         0.066140398  
    230000   246.3297      -44193.027     -50207.367     -203.91949      0.021647472    0.115          0.043294944  
    231000   246.75199     -44164.422     -50189.073     -106.59875      0.0077918194   0.1155         0.015583639  
    232000   242.96625     -44419.3       -50351.519      319.94016     -0.028537265    0.116         -0.057074529  
    233000   248.94595     -44093.116     -50171.334     -382.25934      0.035351901    0.1165         0.070703803  
    234000   249.07857     -44272.647     -50354.104     -197.79576      0.021623946    0.117          0.043247893  
    235000   245.60978     -44275.464     -50272.228     -69.068494      0.011880374    0.1175         0.023760749  
    236000   245.83614     -44173.72      -50176.01      -276.90802      0.027504361    0.118          0.055008722  
    237000   246.4504      -44169.728     -50187.015      163.41328     -0.017281577    0.1185        -0.034563154  
    238000   246.54762     -44286.295     -50305.956     -128.29658      0.015905016    0.119          0.031810031  
    239000   245.80092     -44203.822     -50205.252      9.028759      -0.0039507731   0.1195        -0.0079015463 
    240000   248.56564     -44177.983     -50246.916      41.121539     -0.0075802506   0.12          -0.015160501  
    241000   244.23677     -44371.736     -50334.976     -262.4683       0.027253934    0.1205         0.054507868  
    242000   246.2281      -44181.007     -50192.867      105.31206     -0.01100464     0.121         -0.022009281  
    243000   242.62341     -44277.69      -50201.539      305.71385     -0.030327318    0.1215        -0.060654637  
    244000   247.84168     -44182.091     -50233.347     -92.681627      0.012376169    0.122          0.024752338  
    245000   247.6978      -44136.171     -50183.915     -73.883606      0.011539533    0.1225         0.023079066  
    246000   244.22793     -44454.041     -50417.065     -134.8879       0.016006859    0.123          0.032013718  
    247000   250.37622     -44016.074     -50129.213      73.940186     -0.0074365567   0.1235        -0.014873113  
    248000   242.56993     -44397.383     -50319.926      102.84548     -0.0055033454   0.124         -0.011006691  
    249000   245.84421     -44287.935     -50290.422      197.40963     -0.017990585    0.1245        -0.035981169  
    250000   248.38793     -44209.808     -50274.402     -159.18818      0.017116841    0.125          0.034233682  
    251000   244.24266     -44360.054     -50323.437     -60.60055       0.004547573    0.1255         0.009095146  
    252000   245.31792     -44241.733     -50231.37       5.2539763     -0.0010962702   0.126         -0.0021925404 
    253000   246.51481     -44229.616     -50248.476     -463.38355      0.04625557     0.1265         0.092511139  
    254000   243.09497     -44406.667     -50342.029      85.362761     -0.010724787    0.127         -0.021449575  
    255000   248.99026     -44274.273     -50353.573      426.06238     -0.042317794    0.1275        -0.084635589  
    256000   246.18683     -44021.999     -50032.851     -241.92287      0.023906844    0.128          0.047813688  
    257000   247.02762     -44195.093     -50226.474     -23.352673      0.0057657812   0.1285         0.011531562  
    258000   246.2005      -44267.345     -50278.531      79.609846     -0.0082009943   0.129         -0.016401989  
    259000   245.43655     -44260.821     -50253.355      328.91328     -0.036743502    0.1295        -0.073487003  
    260000   246.93529     -44108.395     -50137.521     -82.329669      0.0021326739   0.13           0.0042653479 
    261000   244.21953     -44125.423     -50088.242     -177.05393      0.019277051    0.1305         0.038554102  
    262000   248.58432     -44254.26      -50323.649     -54.050381      0.0071694461   0.131          0.014338892  
    263000   242.05204     -44306.659     -50216.557     -24.348261      0.0031749566   0.1315         0.0063499131 
    264000   247.19471     -44123.537     -50158.997      191.36751     -0.014632209    0.132         -0.029264417  
    265000   244.16284     -44414.887     -50376.322      34.374305     -0.0022314262   0.1325        -0.0044628524 
    266000   245.41073     -44363.065     -50354.968      183.45699     -0.020423055    0.133         -0.04084611   
    267000   252.32461     -43991.92      -50152.631      289.87051     -0.028476391    0.1335        -0.056952781  
    268000   246.55936     -44265.976     -50285.924     -56.499205      0.010422814    0.134          0.020845628  
    269000   243.17647     -44413.487     -50350.839     -112.45173      0.011204135    0.1345         0.022408269  
    270000   245.85445     -44250.388     -50253.125     -328.07513      0.035715467    0.135          0.071430934  
    271000   245.11979     -44359.308     -50344.108     -52.156415      0.0067382097   0.1355         0.013476419  
    272000   248.94442     -44127.006     -50205.187     -463.75494      0.040635548    0.136          0.081271095  
    273000   245.29012     -44284.977     -50273.935     -141.76887      0.02015523     0.1365         0.04031046   
    274000   244.91455     -44205.437     -50185.226      5.1270429      0.00025500084  0.137          0.00051000168
    275000   247.80992     -44249.144     -50299.625     -106.20461      0.011315909    0.1375         0.022631819  
    276000   246.69549     -44276.159     -50299.43       214.67342     -0.022467927    0.138         -0.044935855  
    277000   246.33085     -44368.147     -50382.516      28.755758     -0.0046295074   0.1385        -0.0092590147 
    278000   243.59172     -44461.283     -50408.773     -27.462896      0.0052762509   0.139          0.010552502  
    279000   245.71701     -44279.323     -50278.704     -109.34473      0.013721567    0.1395         0.027443133  
    280000   245.74885     -44315.617     -50315.776      31.313488     -0.0021615883   0.14          -0.0043231767 
    281000   246.74441     -44288.886     -50313.352     -26.144085      0.0027272976   0.1405         0.0054545952 
    282000   245.98493     -44251.527     -50257.45      -8.5123633      0.00049796468  0.141          0.00099592937
    283000   243.5917      -44416.961     -50364.451     -159.36223      0.016137601    0.1415         0.032275202  
    284000   248.39618     -44239.123     -50303.918     -145.93847      0.009062543    0.142          0.018125086  
    285000   246.0896      -44243.499     -50251.978     -0.93758633    -0.00080007355  0.1425        -0.0016001471 
    286000   245.61579     -44220.81      -50217.72      -94.314031      0.0080172768   0.143          0.016034554  
    287000   245.81868     -44174.145     -50176.008     -42.273036      0.0063324232   0.1435         0.012664846  
    288000   247.81855     -44271.645     -50322.337     -375.7641       0.037161742    0.144          0.074323484  
    289000   246.8424      -44069.861     -50096.719      139.88517     -0.017780046    0.1445        -0.035560092  
    290000   246.82403     -44190.833     -50217.242     -164.9893       0.016701264    0.145          0.033402528  
    291000   245.94024     -44221.181     -50226.013      22.959047     -0.0017341868   0.1455        -0.0034683735 
    292000   245.2765      -44215.521     -50204.146     -3.2537221      0.0019805681   0.146          0.0039611363 
    293000   247.67949     -44029.448     -50076.745     -231.92927      0.023252208    0.1465         0.046504416  
    294000   244.16497     -44252.676     -50214.163     -113.90914      0.011642202    0.147          0.023284404  
    295000   244.53156     -44132.889     -50103.326     -11.572278     -0.00031016933  0.1475        -0.00062033867
    296000   244.99402     -44288.547     -50270.276     -121.28099      0.012480575    0.148          0.024961151  
    297000   245.13131     -44234.411     -50219.492     -206.10335      0.018461168    0.1485         0.036922335  
    298000   246.36662     -44081.695     -50096.937     -63.306333      0.0075135438   0.149          0.015027088  
    299000   244.52529     -44157.04      -50127.324      122.75651     -0.013784756    0.1495        -0.027569511  
    300000   245.11685     -44264.538     -50249.266      12.598385     -0.0011447512   0.15          -0.0022895024 
Loop time of 429.887 on 56 procs for 100000 steps with 12288 atoms

Performance: 20.098 ns/day, 1.194 hours/ns, 232.619 timesteps/s, 2.858 Matom-step/s
99.8% CPU use with 56 MPI tasks x no OpenMP threads

MPI task timing breakdown:
Section |  min time  |  avg time  |  max time  |%varavg| %total
---------------------------------------------------------------
Pair    | 189.48     | 197.68     | 205.74     |  25.2 | 45.99
Bond    | 0.017334   | 0.026825   | 0.044995   |   3.0 |  0.01
Kspace  | 116.19     | 124.09     | 130.86     |  29.8 | 28.87
Neigh   | 22.439     | 22.448     | 22.464     |   0.1 |  5.22
Comm    | 14.763     | 15.737     | 17.876     |  18.7 |  3.66
Output  | 0.21936    | 0.39546    | 0.565      |  16.3 |  0.09
Modify  | 52.095     | 59.816     | 67.237     |  51.3 | 13.91
Other   |            | 9.688      |            |       |  2.25

Nlocal:        219.429 ave         238 max         204 min
Histogram: 5 7 5 8 4 9 9 4 2 3
Nghost:        6898.43 ave        6949 max        6854 min
Histogram: 1 6 9 9 7 5 11 3 2 3
Neighs:        96068.4 ave      105097 max       88577 min
Histogram: 3 6 9 6 7 9 8 2 4 2

Total # of neighbors = 5379828
Ave neighs/atom = 437.81152
Ave special neighs/atom = 2
Neighbor list builds = 1875
Dangerous builds = 0
kspace_style pppm/tip4p 1.0e-5
next nloop
jump SELF loop_start
run 100000 # 100ps
PPPM initialization ...
  extracting TIP4P info from pair style
  using 12-bit tables for long-range coulomb
  G vector (1/distance) = 0.32915594
  grid = 50 60 50
  stencil order = 5
  estimated absolute RMS force accuracy = 0.0033736592
  estimated relative force accuracy = 1.0159674e-05
  using double precision KISS FFT
  3d grid and FFT values/proc = 13056 3200
Generated 0 of 1 mixed pair_coeff terms from geometric mixing rule
Per MPI rank memory allocation (min/avg/max) = 10.99 | 11.06 | 11.12 Mbytes
   Step          Temp          TotEng         PotEng          Pxy           v_sxy         v_strain     v_viscosity  
    300000   245.11686     -44264.545     -50249.273      13.651249     -0.0012524716   0.15          -0.0025049433 
    301000   248.094       -44012.995     -50070.412     -183.0247       0.015487853    0.1505         0.030975707  
    302000   246.36765     -44271.75      -50287.017     -221.43848      0.025561215    0.151          0.051122429  
    303000   248.7053      -44291.934     -50364.276     -72.762939      0.0058611561   0.1515         0.011722312  
    304000   248.17977     -44215.758     -50275.27      -38.362482      0.00084116437  0.152          0.0016823287 
    305000   241.83605     -44328.692     -50233.316     -312.16049      0.030690116    0.1525         0.061380233  
    306000   247.48401     -44147.927     -50190.451     -308.85811      0.028136346    0.153          0.056272693  
    307000   245.68163     -44268.52      -50267.037      180.86128     -0.016867962    0.1535        -0.033735924  
    308000   247.99713     -44219.058     -50274.11      -42.865754      0.00039036936  0.154          0.00078073872
    309000   244.2505      -44360.239     -50323.814     -89.630339      0.0076624807   0.1545         0.015324961  
    310000   248.94805     -44147.896     -50226.165      42.738808     -0.0079579685   0.155         -0.015915937  
    311000   247.66874     -44343.345     -50390.379      59.216111     -0.0064841335   0.1555        -0.012968267  
    312000   250.07788     -44163.865     -50269.72       155.88102     -0.014293258    0.156         -0.028586515  
    313000   241.90901     -44427.262     -50333.668      262.05763     -0.027668387    0.1565        -0.055336774  
    314000   245.70533     -44285.334     -50284.43       294.98865     -0.027325302    0.157         -0.054650603  
    315000   248.32267     -44270.731     -50333.731      225.68881     -0.023195696    0.1575        -0.046391392  
    316000   244.57762     -44276.599     -50248.161     -72.451632      0.0056122005   0.158          0.011224401  
    317000   246.37628     -44346.689     -50362.167     -83.400605      0.011853805    0.1585         0.023707609  
    318000   246.20271     -44260.313     -50271.553      63.836756     -0.0064932848   0.159         -0.01298657   
    319000   242.91337     -44245.892     -50176.819     -110.94747      0.010792768    0.1595         0.021585536  
    320000   246.10202     -44274.499     -50283.28      -13.451718      0.0022543984   0.16           0.0045087969 
    321000   250.7941      -44103.191     -50226.534     -274.08711      0.025453737    0.1605         0.050907473  
    322000   242.38516     -44305.158     -50223.19      -1.2977336     -0.0023196052   0.161         -0.0046392104 
    323000   246.56259     -44160.931     -50180.957     -170.68487      0.015042231    0.1615         0.030084461  
    324000   244.0362      -44241.048     -50199.39       192.77612     -0.01868604     0.162         -0.03737208   
    325000   246.52512     -44435.598     -50454.71       13.257501     -0.003253867    0.1625        -0.006507734  
    326000   245.75144     -44180.521     -50180.742     -90.473058      0.0089688675   0.163          0.017937735  
    327000   245.25673     -44314.938     -50303.081      201.90305     -0.021182735    0.1635        -0.042365471  
    328000   246.37698     -44135.907     -50151.402     -148.36414      0.01133576     0.164          0.022671521  
    329000   246.85669     -44441.367     -50468.575     -136.94176      0.013981264    0.1645         0.027962527  
    330000   240.35015     -44273.942     -50142.287     -84.721103      0.007525635    0.165          0.01505127   
    331000   246.50478     -44234.902     -50253.517      205.82637     -0.01812115     0.1655        -0.036242301  
    332000   248.63545     -44230.987     -50301.624      204.50468     -0.022154763    0.166         -0.044309526  
    333000   246.75486     -44241.547     -50266.268     -405.85185      0.037964088    0.1665         0.075928177  
    334000   245.36976     -44260.982     -50251.885      35.410609     -0.006271873    0.167         -0.012543746  
    335000   247.73906     -44401.378     -50450.13       64.077822     -0.0063639672   0.1675        -0.012727934  
    336000   247.78634     -44222.491     -50272.396      197.52502     -0.018655154    0.168         -0.037310308  
    337000   244.96443     -44475.025     -50456.032      61.313733     -0.0048483157   0.1685        -0.0096966314 
    338000   246.42545     -44379.486     -50396.164      6.4329016      0.00018524621  0.169          0.00037049241
    339000   246.98885     -44329.582     -50360.016      132.09138     -0.013762518    0.1695        -0.027525036  
    340000   246.40448     -44278.016     -50294.182     -617.94322      0.060767893    0.17           0.12153579   
    341000   242.58223     -44492.484     -50415.327      43.077864     -0.0080164863   0.1705        -0.016032973  
    342000   248.12156     -44275.704     -50333.794     -301.95338      0.033313202    0.171          0.066626403  
    343000   244.89331     -44308.745     -50288.015      336.02833     -0.033828488    0.1715        -0.067656976  
    344000   243.58914     -44476.129     -50423.556     -78.384389      0.0094665958   0.172          0.018933192  
    345000   244.17915     -44431.45      -50393.283      385.09721     -0.035771697    0.1725        -0.071543394  
    346000   247.02115     -44412.198     -50443.421      45.630733     -0.0027722594   0.173         -0.0055445188 
    347000   246.54457     -44218.402     -50237.988     -93.124023      0.0091238895   0.1735         0.018247779  
    348000   247.32317     -44244.489     -50283.086     -8.1752164      0.0055309563   0.174          0.011061913  
    349000   244.25181     -44312.574     -50276.181      303.58734     -0.027360975    0.1745        -0.05472195   
    350000   243.03846     -44414.558     -50348.54      -112.07887      0.011955196    0.175          0.023910392  
    351000   248.45695     -44154.945     -50221.224     -461.41802      0.044019763    0.1755         0.088039526  
    352000   246.38251     -44228.05      -50243.679     -120.42042      0.0096568395   0.176          0.019313679  
    353000   246.12029     -44217.68      -50226.907      78.132259     -0.0092835731   0.1765        -0.018567146  
    354000   245.76665     -44325.839     -50326.432      74.874119     -0.0086315205   0.177         -0.017263041  
    355000   246.40983     -44197.51      -50213.807     -40.85926       0.0018957034   0.1775         0.0037914069 
    356000   248.12365     -44161.896     -50220.038     -37.117132     -0.00033392278  0.178         -0.00066784556
    357000   244.65527     -44344.48      -50317.938      194.94546     -0.022163601    0.1785        -0.044327203  
    358000   246.87789     -44141.608     -50169.333      132.01304     -0.0092272222   0.179         -0.018454444  
    359000   241.31803     -44468.546     -50360.523     -33.72355       0.0051428153   0.1795         0.010285631  
    360000   245.91877     -44233.976     -50238.283     -201.48087      0.019916704    0.18           0.039833409  
    361000   247.25828     -44381.316     -50418.329      9.6125922     -0.0054114564   0.1805        -0.010822913  
    362000   251.65792     -44237.842     -50382.275      21.335113      1.6895589e-05  0.181          3.3791178e-05
    363000   246.506       -44420.835     -50439.48      -377.65042      0.039380962    0.1815         0.078761924  
    364000   246.25347     -44367.221     -50379.7       -62.894978      0.0071655202   0.182          0.01433104   
    365000   244.53339     -44384.093     -50354.575     -14.503908     -0.0015919372   0.1825        -0.0031838744 
    366000   245.5628      -44344.023     -50339.639     -368.80083      0.035043429    0.183          0.070086858  
    367000   243.3036      -44440.042     -50380.498     -162.7647       0.01409295     0.1835         0.028185901  
    368000   250.40364     -44243.874     -50357.683     -177.17121      0.018939046    0.184          0.037878092  
    369000   246.90613     -44131.81      -50160.225      141.45601     -0.014276431    0.1845        -0.028552861  
    370000   244.43283     -44425.009     -50393.036     -207.61857      0.020008234    0.185          0.040016467  
    371000   242.2809      -44458.503     -50373.989     -96.596028      0.0079107371   0.1855         0.015821474  
    372000   244.93009     -44247.618     -50227.785     -318.10392      0.032863933    0.186          0.065727866  
    373000   247.07408     -44320.331     -50352.846     -211.97231      0.019379578    0.1865         0.038759155  
    374000   247.35654     -44469.218     -50508.63      -63.265198      0.0061733423   0.187          0.012346685  
    375000   247.01275     -44219.286     -50250.303     -28.483934      0.0036216328   0.1875         0.0072432655 
    376000   246.07146     -44308.13      -50316.166      113.89787     -0.012375975    0.188         -0.02475195   
    377000   246.62217     -44376.314     -50397.795      124.57225     -0.0085014092   0.1885        -0.017002818  
    378000   246.74625     -44189.929     -50214.44       23.039398     -0.0050028427   0.189         -0.010005685  
    379000   245.32425     -44504.677     -50494.468      127.00154     -0.013494826    0.1895        -0.026989652  
    380000   251.04909     -44155.234     -50284.803      131.25635     -0.010558727    0.19          -0.021117453  
    381000   245.85804     -44297.783     -50300.608      283.22299     -0.031613838    0.1905        -0.063227676  
    382000   246.96068     -44251.851     -50281.597     -94.836679      0.012786243    0.191          0.025572486  
    383000   245.12805     -44291.729     -50276.73       371.5093      -0.039024124    0.1915        -0.078048249  
    384000   246.87785     -44139.167     -50166.891     -163.1103       0.016756105    0.192          0.033512209  
    385000   244.21564     -44206.472     -50169.196      199.38438     -0.020381151    0.1925        -0.040762301  
    386000   252.45373     -44120.76      -50284.623     -91.360311      0.006643155    0.193          0.01328631   
    387000   245.10389     -44352.134     -50336.546      46.888261     -0.0041663338   0.1935        -0.0083326676 
    388000   244.37375     -44327.207     -50293.791     -179.39849      0.018225782    0.194          0.036451564  
    389000   250.86136     -43962.394     -50087.378     -23.464731      2.958633e-05   0.1945         5.917266e-05 
    390000   246.62161     -44218.944     -50240.412      35.386878     -0.0028397755   0.195         -0.0056795511 
    391000   243.19353     -44337.946     -50275.714     -251.12703      0.024754787    0.1955         0.049509575  
    392000   244.66389     -44376.93      -50350.598     -296.63788      0.032222257    0.196          0.064444515  
    393000   248.21036     -44119.023     -50179.281     -246.50826      0.023983049    0.1965         0.047966099  
    394000   245.33922     -44384.997     -50375.154     -233.12025      0.022650146    0.197          0.045300293  
    395000   247.53461     -44345.657     -50389.416     -271.74873      0.027623965    0.1975         0.05524793   
    396000   241.92307     -44469.586     -50376.335      174.85456     -0.021563099    0.198         -0.043126199  
    397000   248.76835     -44206.869     -50280.751      159.64766     -0.02068857     0.1985        -0.041377141  
    398000   247.89781     -44332.042     -50384.669     -295.535        0.026174365    0.199          0.05234873   
    399000   245.9427      -44340.801     -50345.693      55.733316     -0.0077681701   0.1995        -0.01553634   
    400000   244.09951     -44434.019     -50393.907     -150.273        0.014074173    0.2            0.028148346  
Loop time of 451.128 on 56 procs for 100000 steps with 12288 atoms

Performance: 19.152 ns/day, 1.253 hours/ns, 221.667 timesteps/s, 2.724 Matom-step/s
99.8% CPU use with 56 MPI tasks x no OpenMP threads

MPI task timing breakdown:
Section |  min time  |  avg time  |  max time  |%varavg| %total
---------------------------------------------------------------
Pair    | 187.13     | 197.66     | 207.73     |  33.8 | 43.82
Bond    | 0.017517   | 0.027723   | 0.047509   |   3.1 |  0.01
Kspace  | 126.94     | 137.22     | 147.61     |  39.7 | 30.42
Neigh   | 21.64      | 21.654     | 21.669     |   0.1 |  4.80
Comm    | 15.103     | 15.945     | 16.964     |  11.5 |  3.53
Output  | 0.21979    | 0.39401    | 0.56135    |  16.1 |  0.09
Modify  | 58.35      | 65.46      | 76.186     |  51.8 | 14.51
Other   |            | 12.77      |            |       |  2.83

Nlocal:        219.429 ave         238 max         202 min
Histogram: 1 6 5 8 7 12 9 5 1 2
Nghost:        6917.52 ave        6970 max        6869 min
Histogram: 3 4 8 10 3 11 4 8 3 2
Neighs:        96050.9 ave      104939 max       88528 min
Histogram: 2 8 4 8 8 12 7 3 3 1

Total # of neighbors = 5378849
Ave neighs/atom = 437.73185
Ave special neighs/atom = 2
Neighbor list builds = 1868
Dangerous builds = 0
kspace_style pppm/tip4p 1.0e-5
next nloop
jump SELF loop_start
run 100000 # 100ps
PPPM initialization ...
  extracting TIP4P info from pair style
  using 12-bit tables for long-range coulomb
  G vector (1/distance) = 0.32815664
  grid = 50 60 50
  stencil order = 5
  estimated absolute RMS force accuracy = 0.0035802102
  estimated relative force accuracy = 1.0781697e-05
  using double precision KISS FFT
  3d grid and FFT values/proc = 13056 3200
Generated 0 of 1 mixed pair_coeff terms from geometric mixing rule
Per MPI rank memory allocation (min/avg/max) = 10.99 | 11.06 | 11.13 Mbytes
   Step          Temp          TotEng         PotEng          Pxy           v_sxy         v_strain     v_viscosity  
    400000   244.09934     -44434.017     -50393.902     -149.37841      0.01398191     0.2            0.02796382   
    401000   249.09868     -44300.846     -50382.793     -379.56753      0.037588841    0.2005         0.075177681  
    402000   243.48988     -44396.103     -50341.107      175.97644     -0.01928181     0.201         -0.038563619  
    403000   249.22042     -44276.719     -50361.639     -63.931804      0.0059208724   0.2015         0.011841745  
    404000   244.96533     -44421.599     -50402.627      36.819507     -0.0020115509   0.202         -0.0040231018 
    405000   244.30523     -44426.006     -50390.917      272.16361     -0.027622675    0.2025        -0.05524535   
    406000   245.32793     -44467.33      -50457.212      134.33907     -0.012730746    0.203         -0.025461493  
    407000   251.54057     -44159.259     -50300.827     -147.56663      0.01905757     0.2035         0.038115141  
    408000   243.87119     -44439.813     -50394.127     -154.55113      0.013914226    0.204          0.027828453  
    409000   244.86342     -44374.742     -50353.282     -102.04909      0.0079805048   0.2045         0.01596101   
    410000   245.11751     -44401.164     -50385.908      64.500561     -0.0043928557   0.205         -0.0087857113 
    411000   243.06224     -44410.986     -50345.549      316.9107      -0.027647399    0.2055        -0.055294799  
    412000   247.27391     -44231.712     -50269.105      399.66419     -0.037775208    0.206         -0.075550415  
    413000   246.08213     -44436.278     -50444.574     -304.74999      0.027452712    0.2065         0.054905424  
    414000   247.42453     -44376.34      -50417.412     -20.959218      0.0016725074   0.207          0.0033450148 
    415000   245.59025     -44156.508     -50152.794      9.5325793      0.0032089896   0.2075         0.0064179792 
    416000   244.50044     -44415.73      -50385.407     -111.97631      0.0055040875   0.208          0.011008175  
    417000   247.84209     -44383.344     -50434.611     -60.754958      0.0055877487   0.2085         0.011175497  
    418000   248.29789     -44269.645     -50332.04       130.90587     -0.011672434    0.209         -0.023344868  
    419000   244.18981     -44231.806     -50193.899     -210.98793      0.020767778    0.2095         0.041535555  
    420000   244.89558     -44444.975     -50424.3        224.46254     -0.024396652    0.21          -0.048793305  
    421000   247.60276     -44381.2       -50426.623      158.25603     -0.01683009     0.2105        -0.03366018   
    422000   245.13677     -44369.843     -50355.057     -107.77379      0.0063552431   0.211          0.012710486  
    423000   247.89529     -44228.597     -50281.163      14.58766      -0.0057148922   0.2115        -0.011429784  
    424000   244.27003     -44485.358     -50449.41       76.112702     -0.0079389456   0.212         -0.015877891  
    425000   246.79353     -44219.114     -50244.779      22.5847       -0.00022447841  0.2125        -0.00044895682
    426000   246.77723     -44300.885     -50326.152      21.814181     -0.0041449653   0.213         -0.0082899305 
    427000   245.27929     -44418.951     -50407.645     -111.35745      0.0099373606   0.2135         0.019874721  
    428000   248.26107     -44375.855     -50437.351      179.00944     -0.020125374    0.214         -0.040250747  
    429000   245.43159     -44497.876     -50490.289     -85.92157       0.006789735    0.2145         0.01357947   
    430000   246.07879     -44445.416     -50453.631     -195.84772      0.019389714    0.215          0.038779427  
    431000   247.5361      -44226.817     -50270.613     -66.5173        0.0082237101   0.2155         0.01644742   
    432000   246.48841     -44502.587     -50520.803      107.88631     -0.013872803    0.216         -0.027745606  
    433000   245.49445     -44553.172     -50547.119     -89.158137      0.010859831    0.2165         0.021719661  
    434000   244.03961     -44371.702     -50330.128     -16.335631      0.0020799076   0.217          0.0041598153 
    435000   250.63819     -44283.087     -50402.622      106.42808     -0.0080375775   0.2175        -0.016075155  
    436000   243.6247      -44317.944     -50266.24      -63.253476      0.0039900312   0.218          0.0079800623 
    437000   246.32434     -44210.366     -50224.575     -31.980357      0.0025804171   0.2185         0.0051608343 
    438000   244.21003     -44468.812     -50431.399      141.33124     -0.016062469    0.219         -0.032124938  
    439000   246.58491     -44200.682     -50221.253      313.88393     -0.032265586    0.2195        -0.064531173  
    440000   243.83088     -44483.901     -50437.23       263.55929     -0.028420552    0.22          -0.056841105  
    441000   248.31724     -44228.109     -50290.977      286.98264     -0.029616656    0.2205        -0.059233313  
    442000   245.98655     -44294.972     -50300.934     -10.061574     -0.0018194368   0.221         -0.0036388737 
    443000   251.14332     -44269.218     -50401.086     -246.13001      0.023744233    0.2215         0.047488465  
    444000   244.15129     -44345.133     -50306.286     -121.50403      0.010477918    0.222          0.020955837  
    445000   245.77108     -44261.064     -50261.765      81.36908      -0.0094593393   0.2225        -0.018918679  
    446000   247.24444     -44269.263     -50305.937      292.4166      -0.030143677    0.223         -0.060287354  
    447000   247.44038     -44355.327     -50396.786     -38.126672      0.0032210967   0.2235         0.0064421934 
    448000   247.5308      -44232.837     -50276.503      26.049173      1.783977e-05   0.224          3.5679539e-05
    449000   246.24433     -44473.047     -50485.303     -126.64455      0.010707909    0.2245         0.021415818  
    450000   247.84052     -44286.095     -50337.324     -112.8898       0.012751449    0.225          0.025502899  
    451000   245.67361     -44497.247     -50495.569      44.188107     -0.0036731217   0.2255        -0.0073462434 
    452000   242.59417     -44288.091     -50211.225      195.91291     -0.019713726    0.226         -0.039427452  
    453000   241.66004     -44632.813     -50533.14       47.119155     -0.0054222558   0.2265        -0.010844512  
    454000   246.21408     -44409.719     -50421.237     -359.33396      0.033824967    0.227          0.067649934  
    455000   241.85506     -44343.433     -50248.521     -59.34106       0.0065731377   0.2275         0.013146275  
    456000   245.73973     -44512.47      -50512.406     -155.81257      0.014536036    0.228          0.029072071  
    457000   244.83148     -44286.568     -50264.328      239.04746     -0.023514547    0.2285        -0.047029094  
    458000   246.24287     -44152.217     -50164.437     -53.694218      0.0046273829   0.229          0.0092547658 
    459000   244.11169     -44307.781     -50267.967      163.81084     -0.015131375    0.2295        -0.030262751  
    460000   247.008       -44141.712     -50172.614      207.94382     -0.022271958    0.23          -0.044543916  
    461000   248.59155     -44168.792     -50238.358      71.405632     -0.0092609808   0.2305        -0.018521962  
    462000   247.74191     -44305.35      -50354.17       179.8231      -0.020778795    0.231         -0.04155759   
    463000   244.15835     -44380.698     -50342.023     -140.21384      0.013592694    0.2315         0.027185388  
    464000   244.87914     -44257.112     -50236.036      148.46221     -0.014341155    0.232         -0.028682311  
    465000   244.66177     -44308.086     -50281.703     -79.535918      0.0059924428   0.2325         0.011984886  
    466000   247.81864     -44410.779     -50461.473     -276.68737      0.032306995    0.233          0.06461399   
    467000   245.89415     -44349.071     -50352.777     -221.14054      0.019428993    0.2335         0.038857986  
    468000   245.31445     -44294.903     -50284.455     -168.8116       0.013946267    0.234          0.027892534  
    469000   248.33292     -44171.082     -50234.332     -377.48734      0.037543702    0.2345         0.075087403  
    470000   245.40216     -44341.848     -50333.542     -246.82135      0.026348129    0.235          0.052696259  
    471000   248.01983     -44296.779     -50352.386     -23.697549      0.0026709425   0.2355         0.005341885  
    472000   246.8143      -44380.233     -50406.406      139.51109     -0.011416782    0.236         -0.022833564  
    473000   244.57942     -44376.433     -50348.039      116.89423     -0.011977472    0.2365        -0.023954944  
    474000   245.83791     -44413.554     -50415.887      203.02429     -0.02126942     0.237         -0.04253884   
    475000   246.63858     -44246.788     -50268.67      -263.20837      0.025474762    0.2375         0.050949525  
    476000   248.80298     -44227.086     -50301.814     -282.51816      0.029704853    0.238          0.059409706  
    477000   246.84642     -44390.716     -50417.672     -257.73619      0.024650966    0.2385         0.049301931  
    478000   244.35135     -44417.277     -50383.314     -86.144258      0.0098710348   0.239          0.01974207   
    479000   247.93068     -44451.928     -50505.358     -136.03819      0.010833407    0.2395         0.021666813  
    480000   246.13865     -44278.364     -50288.04      -50.347425      0.0032504635   0.24           0.0065009269 
    481000   244.69857     -44281.837     -50256.352     -27.585277      0.0011780896   0.2405         0.0023561793 
    482000   244.4121      -44333.68      -50301.201      321.53123     -0.027790477    0.241         -0.055580955  
    483000   248.34874     -44369.114     -50432.751     -94.914575      0.0078225314   0.2415         0.015645063  
    484000   246.05049     -44245.186     -50252.709     -369.74056      0.038260585    0.242          0.07652117   
    485000   246.78165     -44247.993     -50273.368     -140.67055      0.011515885    0.2425         0.023031771  
    486000   244.0949      -44382.662     -50342.438     -283.76158      0.024281294    0.243          0.048562588  
    487000   245.73876     -44415.076     -50414.988     -173.0784       0.015431358    0.2435         0.030862717  
    488000   245.32322     -44341.26      -50331.026      316.74387     -0.035035856    0.244         -0.070071711  
    489000   249.84945     -44331.618     -50431.896     -219.44346      0.021520741    0.2445         0.043041481  
    490000   247.005       -44238.15      -50268.979     -115.17232      0.0071205076   0.245          0.014241015  
    491000   243.29765     -44278.893     -50219.204     -216.21392      0.01758313     0.2455         0.035166259  
    492000   241.91704     -44333.347     -50239.949     -144.4264       0.015041561    0.246          0.030083121  
    493000   246.39519     -44220.661     -50236.6        183.15263     -0.017625612    0.2465        -0.035251224  
    494000   246.32283     -44388.734     -50402.906      167.19613     -0.016643236    0.247         -0.033286472  
    495000   247.76766     -44303.451     -50352.9       -38.011826      0.00085609998  0.2475         0.0017122    
    496000   246.83644     -44160.196     -50186.909     -79.308848      0.0067974312   0.248          0.013594862  
    497000   242.26481     -44403.281     -50318.374     -87.187088      0.0053153008   0.2485         0.010630602  
    498000   251.08504     -44123.55      -50253.996      309.62441     -0.02749363     0.249         -0.054987261  
    499000   247.18214     -44211.644     -50246.797      70.955622     -0.010333897    0.2495        -0.020667795  
    500000   250.48778     -44301.281     -50417.145     -173.8259       0.015315181    0.25           0.030630362  
Loop time of 449.726 on 56 procs for 100000 steps with 12288 atoms

Performance: 19.212 ns/day, 1.249 hours/ns, 222.357 timesteps/s, 2.732 Matom-step/s
99.8% CPU use with 56 MPI tasks x no OpenMP threads

MPI task timing breakdown:
Section |  min time  |  avg time  |  max time  |%varavg| %total
---------------------------------------------------------------
Pair    | 186.26     | 197.52     | 207.21     |  34.1 | 43.92
Bond    | 0.015153   | 0.02733    | 0.047092   |   3.3 |  0.01
Kspace  | 125.84     | 135.63     | 146.57     |  39.2 | 30.16
Neigh   | 21.702     | 21.714     | 21.727     |   0.1 |  4.83
Comm    | 15.106     | 16.015     | 17.383     |  14.9 |  3.56
Output  | 0.21961    | 0.39382    | 0.56122    |  16.1 |  0.09
Modify  | 58.716     | 65.502     | 76.372     |  51.9 | 14.56
Other   |            | 12.93      |            |       |  2.87

Nlocal:        219.429 ave         235 max         208 min
Histogram: 3 9 6 6 11 8 7 3 2 1
Nghost:        6962.71 ave        7053 max        6883 min
Histogram: 2 5 2 9 10 16 8 1 1 2
Neighs:        96081.2 ave      104505 max       90061 min
Histogram: 5 6 6 10 10 6 7 4 0 2

Total # of neighbors = 5380547
Ave neighs/atom = 437.87004
Ave special neighs/atom = 2
Neighbor list builds = 1866
Dangerous builds = 0
kspace_style pppm/tip4p 1.0e-5
next nloop
jump SELF loop_start
run 100000 # 100ps
PPPM initialization ...
  extracting TIP4P info from pair style
  using 12-bit tables for long-range coulomb
  G vector (1/distance) = 0.32881326
  grid = 50 64 50
  stencil order = 5
  estimated absolute RMS force accuracy = 0.003443216
  estimated relative force accuracy = 1.0369143e-05
  using double precision KISS FFT
  3d grid and FFT values/proc = 13600 3200
Generated 0 of 1 mixed pair_coeff terms from geometric mixing rule
Per MPI rank memory allocation (min/avg/max) = 11.03 | 11.1 | 11.15 Mbytes
   Step          Temp          TotEng         PotEng          Pxy           v_sxy         v_strain     v_viscosity  
    500000   250.48763     -44301.288     -50417.148     -172.74227      0.015203825    0.25           0.03040765   
    501000   245.24412     -44262.462     -50250.298     -1.7673522      0.0026188739   0.2505         0.0052377477 
    502000   243.07375     -44360.254     -50295.097     -196.00751      0.021170271    0.251          0.042340543  
    503000   244.90574     -44258.35      -50237.923     -436.85254      0.045188983    0.2515         0.090377966  
    504000   246.03952     -44349.601     -50356.856      16.093018     -0.00078357534  0.252         -0.0015671507 
    505000   247.68407     -44181.018     -50228.427     -277.36978      0.028947517    0.2525         0.057895033  
    506000   242.12919     -44397.061     -50308.843      259.44307     -0.025978643    0.253         -0.051957287  
    507000   244.61671     -44197.681     -50170.198     -145.82251      0.014151843    0.2535         0.028303685  
    508000   246.39097     -44170.994     -50186.83      -286.95148      0.029483613    0.254          0.058967226  
    509000   247.08856     -44180.39      -50213.258     -86.474332      0.00884891     0.2545         0.01769782   
    510000   244.44326     -44275.084     -50243.366      60.307697     -0.0070069418   0.255         -0.014013884  
    511000   249.71522     -44128.181     -50225.181      146.68361     -0.013497855    0.2555        -0.026995711  
    512000   243.08693     -44145.927     -50081.092      512.42033     -0.048275496    0.256         -0.096550991  
    513000   246.79856     -44182.201     -50207.989     -412.75667      0.041084308    0.2565         0.082168616  
    514000   245.33996     -44154.784     -50144.959      74.102581     -0.0085694972   0.257         -0.017138994  
    515000   244.81909     -44267.807     -50245.265      207.50436     -0.020682785    0.2575        -0.041365571  
    516000   249.08802     -44205.223     -50286.91      -240.95378      0.019626346    0.258          0.039252692  
    517000   247.47674     -44330.573     -50372.919     -57.739284      0.0048606115   0.2585         0.0097212229 
    518000   245.83258     -44277.319     -50279.522     -3.5322883     -0.0026034838   0.259         -0.0052069676 
    519000   246.60208     -44324.081     -50345.072     -29.096439      0.0023752538   0.2595         0.0047505075 
    520000   246.9559      -44234.239     -50263.869     -79.978169      0.0086485837   0.26           0.017297167  
    521000   244.1911      -44297.922     -50260.046      16.538046     -0.0041538213   0.2605        -0.0083076427 
    522000   249.27494     -44081.725     -50167.976     -184.58352      0.017580155    0.261          0.035160309  
    523000   244.45832     -44326.712     -50295.361      101.94779     -0.0076486736   0.2615        -0.015297347  
    524000   247.12508     -44155.327     -50189.087     -142.71771      0.010039097    0.262          0.020078194  
    525000   246.61317     -44246.064     -50267.326      49.025424     -0.0064819439   0.2625        -0.012963888  
    526000   244.68086     -44472.016     -50446.099      0.084482295    0.00048085064  0.263          0.00096170128
    527000   247.626       -44246.56      -50292.551     -1.3692678     -0.0043907525   0.2635        -0.008781505  
    528000   251.32288     -44125.86      -50262.113     -94.935231      0.0098063117   0.264          0.019612623  
    529000   248.43869     -44330.946     -50396.779      71.512797     -0.0094826174   0.2645        -0.018965235  
    530000   244.50498     -44222.711     -50192.5        47.956299     -0.0024939437   0.265         -0.0049878874 
    531000   247.7307      -44278.313     -50326.86       26.979133     -0.0016900643   0.2655        -0.0033801285 
    532000   246.25975     -44311.51      -50324.142     -302.40873      0.02550727     0.266          0.05101454   
    533000   249.42745     -44246.534     -50336.508      217.34745     -0.025701959    0.2665        -0.051403918  
    534000   245.29825     -44300.806     -50289.962      34.268756     -0.0031954586   0.267         -0.0063909171 
    535000   246.78163     -44111.323     -50136.698     -206.30384      0.018829493    0.2675         0.037658986  
    536000   246.63348     -44183.131     -50204.889     -120.98852      0.0093173814   0.268          0.018634763  
    537000   242.48151     -44169.006     -50089.39       88.309799     -0.010990949    0.2685        -0.021981898  
    538000   248.06172     -44329.341     -50385.97      -2.2971899      0.00026903687  0.269          0.00053807373
    539000   248.81935     -44218.445     -50293.573      199.12006     -0.019744344    0.2695        -0.039488688  
    540000   245.47307     -44305.458     -50298.883     -55.515783      0.0091081123   0.27           0.018216225  
    541000   247.02047     -44246.878     -50278.084     -60.082508      0.0043935526   0.2705         0.0087871052 
    542000   249.03183     -44227.076     -50307.391      1.4568517     -0.0012038541   0.271         -0.0024077081 
    543000   244.89509     -44254.349     -50233.662     -116.25364      0.011271582    0.2715         0.022543163  
    544000   248.92645     -44049.111     -50126.853      349.5268      -0.031612594    0.272         -0.063225189  
    545000   241.60252     -44398.656     -50297.579     -53.709027      0.0097629362   0.2725         0.019525872  
    546000   249.92952     -44183.835     -50286.068     -228.75359      0.019724764    0.273          0.039449527  
    547000   244.0753      -44314.042     -50273.339      135.50345     -0.014768933    0.2735        -0.029537865  
    548000   249.48085     -44240.02      -50331.298     -251.32934      0.025904397    0.274          0.051808795  
    549000   246.32196     -44309.826     -50323.977     -68.349651      0.009623169    0.2745         0.019246338  
    550000   249.21748     -44256.767     -50341.615     -191.39915      0.022700872    0.275          0.045401743  
    551000   243.45231     -44370.314     -50314.4        145.5276      -0.014044514    0.2755        -0.028089029  
    552000   245.40737     -44335.398     -50327.219      80.292808     -0.0045051141   0.276         -0.0090102281 
    553000   249.23403     -44286.501     -50371.753      88.807699     -0.0067492685   0.2765        -0.013498537  
    554000   246.27914     -44330.994     -50344.099      56.436828     -0.0041429367   0.277         -0.0082858735 
    555000   244.36777     -44313.385     -50279.823     -327.80405      0.035689935    0.2775         0.071379869  
    556000   247.23929     -44233.716     -50270.265      31.305245     -0.0024010567   0.278         -0.0048021134 
    557000   248.07311     -44144.982     -50201.889      46.046002     -0.0028165447   0.2785        -0.0056330893 
    558000   243.15535     -44337.786     -50274.622      88.751095     -0.0070132757   0.279         -0.014026551  
    559000   245.70254     -44227.441     -50226.469      269.68342     -0.026099064    0.2795        -0.052198127  
    560000   245.46286     -44270.74      -50263.916     -378.15119      0.040417204    0.28           0.080834408  
    561000   245.88953     -44230.491     -50234.084     -24.97784       0.0034072612   0.2805         0.0068145223 
    562000   248.00998     -44093.971     -50149.337     -45.173767      0.0040893201   0.281          0.0081786401 
    563000   247.7076      -44149.446     -50197.429     -340.82364      0.035343407    0.2815         0.070686815  
    564000   248.32363     -44117.515     -50180.539     -42.681569      0.0053990506   0.282          0.010798101  
    565000   244.96935     -44270.635     -50251.762      139.77678     -0.018816642    0.2825        -0.037633284  
    566000   244.87959     -44209.655     -50188.59      -35.965691      0.0036887912   0.283          0.0073775825 
    567000   249.59959     -44063.713     -50157.891     -52.613811      0.0038409006   0.2835         0.0076818013 
    568000   242.66985     -44275.339     -50200.321      228.44692     -0.021242386    0.284         -0.042484772  
    569000   244.9915      -44051.309     -50032.976     -114.28629      0.015590137    0.2845         0.031180274  
    570000   245.53767     -44099.737     -50094.74      -202.3721       0.018783992    0.285          0.037567984  
    571000   244.33939     -44114.4       -50080.145     -127.37549      0.018606411    0.2855         0.037212822  
    572000   242.3         -44243.613     -50159.565      7.6880903     -0.001316334    0.286         -0.002632668  
    573000   245.35867     -44151.309     -50141.941     -86.646722      0.0074376782   0.2865         0.014875356  
    574000   239.14292     -44244.894     -50083.763      150.84097     -0.013646479    0.287         -0.027292958  
    575000   247.32469     -44129.955     -50168.589      349.26573     -0.032408846    0.2875        -0.064817692  
    576000   246.5309      -44244.573     -50263.826      292.06576     -0.029594897    0.288         -0.059189793  
    577000   248.00806     -44059.983     -50115.302     -121.80245      0.0092915468   0.2885         0.018583094  
    578000   243.56947     -44403.546     -50350.493     -18.001491     -0.00073129952  0.289         -0.001462599  
    579000   244.47052     -44169.64      -50138.587      114.73453     -0.011888624    0.2895        -0.023777248  
    580000   243.1341      -44351.903     -50288.221     -274.4915       0.026744483    0.29           0.053488966  
    581000   246.11869     -44367.22      -50376.409      161.93273     -0.019671922    0.2905        -0.039343845  
    582000   242.90926     -44317.39      -50248.218      71.326041     -0.0082850822   0.291         -0.016570164  
    583000   246.26423     -44170.923     -50183.665      112.78162     -0.014780865    0.2915        -0.029561731  
    584000   244.04632     -44285.748     -50244.338      73.914187     -0.0065162364   0.292         -0.013032473  
    585000   243.42666     -44213.211     -50156.672     -102.99962      0.009605586    0.2925         0.019211172  
    586000   244.72981     -44276.402     -50251.68       58.402778     -0.0068992368   0.293         -0.013798474  
    587000   245.15972     -44330.834     -50316.608     -216.93696      0.01959875     0.2935         0.039197499  
    588000   241.68931     -44310.78      -50211.822     -190.5386       0.018262151    0.294          0.036524301  
    589000   250.47417     -44146.298     -50261.829      263.8731      -0.026096371    0.2945        -0.052192743  
    590000   246.49678     -44334.435     -50352.855     -50.054601      0.0064599853   0.295          0.012919971  
    591000   247.62544     -44045.03      -50091.007     -174.22014      0.017436771    0.2955         0.034873542  
    592000   241.94259     -44438.054     -50345.279      39.03743      -0.0062561902   0.296         -0.01251238   
    593000   243.92414     -43977.245     -49932.852      49.237666     -0.010012444    0.2965        -0.020024888  
    594000   244.55124     -44122.722     -50093.64       122.5981      -0.014607293    0.297         -0.029214586  
    595000   250.54339     -44074.249     -50191.47       27.58356      -0.004880078    0.2975        -0.0097601559 
    596000   245.34855     -44188.31      -50178.694      100.70817     -0.010109042    0.298         -0.020218084  
    597000   244.45496     -44269.397     -50237.964     -247.43283      0.023827746    0.2985         0.047655492  
    598000   246.16936     -44286.403     -50296.828      127.15954     -0.014337709    0.299         -0.028675417  
    599000   246.58608     -44347.005     -50367.605     -0.53400015    -0.0044191527   0.2995        -0.0088383053 
    600000   245.34841     -44351.483     -50341.864     -89.761557      0.0092999544   0.3            0.018599909  
Loop time of 453.634 on 56 procs for 100000 steps with 12288 atoms

Performance: 19.046 ns/day, 1.260 hours/ns, 220.442 timesteps/s, 2.709 Matom-step/s
99.8% CPU use with 56 MPI tasks x no OpenMP threads

MPI task timing breakdown:
Section |  min time  |  avg time  |  max time  |%varavg| %total
---------------------------------------------------------------
Pair    | 187.97     | 197.5      | 205.34     |  33.8 | 43.54
Bond    | 0.016545   | 0.026733   | 0.045727   |   3.4 |  0.01
Kspace  | 129.87     | 138.6      | 147.95     |  40.1 | 30.55
Neigh   | 22.122     | 22.134     | 22.147     |   0.1 |  4.88
Comm    | 15.504     | 16.27      | 17.785     |  13.3 |  3.59
Output  | 0.21925    | 0.39559    | 0.56439    |  16.2 |  0.09
Modify  | 65.718     | 69.232     | 76.902     |  32.3 | 15.26
Other   |            | 9.474      |            |       |  2.09

Nlocal:        219.429 ave         237 max         199 min
Histogram: 1 0 5 8 7 15 10 5 1 4
Nghost:        7014.05 ave        7065 max        6963 min
Histogram: 3 2 5 6 11 13 8 2 2 4
Neighs:        96066.5 ave      103926 max       85756 min
Histogram: 1 0 4 5 10 12 13 3 4 4

Total # of neighbors = 5379724
Ave neighs/atom = 437.80306
Ave special neighs/atom = 2
Neighbor list builds = 1874
Dangerous builds = 0
kspace_style pppm/tip4p 1.0e-5
next nloop
jump SELF loop_start
run 100000 # 100ps
PPPM initialization ...
  extracting TIP4P info from pair style
  using 12-bit tables for long-range coulomb
  G vector (1/distance) = 0.32760519
  grid = 50 64 50
  stencil order = 5
  estimated absolute RMS force accuracy = 0.0036991513
  estimated relative force accuracy = 1.1139884e-05
  using double precision KISS FFT
  3d grid and FFT values/proc = 13600 3200
Generated 0 of 1 mixed pair_coeff terms from geometric mixing rule
Per MPI rank memory allocation (min/avg/max) = 11.04 | 11.1 | 11.15 Mbytes
   Step          Temp          TotEng         PotEng          Pxy           v_sxy         v_strain     v_viscosity  
    600000   245.34811     -44351.479     -50341.853     -88.516638      0.0091725958   0.3            0.018345192  
    601000   246.23877     -44169.454     -50181.574     -202.95077      0.017880968    0.3005         0.035761936  
    602000   246.21459     -44421.562     -50433.092      134.61519     -0.014465359    0.301         -0.028930718  
    603000   247.54966     -44288.57      -50332.697      216.8196      -0.018435647    0.3015        -0.036871295  
    604000   247.45913     -44260.446     -50302.363     -93.266863      0.0099157017   0.302          0.019831403  
    605000   245.67017     -44286.344     -50284.582     -222.177        0.021313734    0.3025         0.042627468  
    606000   248.15509     -44224.154     -50283.063     -298.82762      0.031353388    0.303          0.062706776  
    607000   243.2726      -44255.28      -50194.979      61.398522     -0.0071891083   0.3035        -0.014378217  
    608000   247.46932     -44070.143     -50112.308      51.6968       -0.0044856374   0.304         -0.0089712749 
    609000   247.35131     -44192.805     -50232.089     -134.67189      0.015888667    0.3045         0.031777334  
    610000   245.78315     -44266.165     -50267.161     -310.39807      0.027212494    0.305          0.054424988  
    611000   246.86658     -44175.715     -50203.164     -219.84169      0.020873084    0.3055         0.041746169  
    612000   248.93196     -44094.402     -50172.279     -123.36611      0.011464894    0.306          0.022929788  
    613000   243.02457     -44341.642     -50275.285      40.110059     -0.0051202675   0.3065        -0.010240535  
    614000   245.96562     -44227.967     -50233.418     -25.925418      0.0025727374   0.307          0.0051454747 
    615000   246.31706     -44207.19      -50221.221     -12.595054      0.004988041    0.3075         0.0099760819 
    616000   244.85634     -44224.217     -50202.584      112.46432     -0.014304938    0.308         -0.028609876  
    617000   242.6458      -44326.386     -50250.781     -42.555357      0.0054104414   0.3085         0.010820883  
    618000   246.7682      -44209.269     -50234.316     -45.30199       0.00060808797  0.309          0.0012161759 
    619000   245.49749     -44253.13      -50247.151     -69.682617      0.0067248611   0.3095         0.013449722  
    620000   247.47975     -44071.388     -50113.807     -12.849786     -0.00014566272  0.31          -0.00029132543
    621000   247.00931     -44152.38      -50183.313      5.8360686      0.00017769778  0.3105         0.00035539556
    622000   244.02995     -44375.781     -50333.971      67.388432     -0.0058579999   0.311         -0.011716     
    623000   246.9575      -44271.745     -50301.414      69.984179     -0.0060707028   0.3115        -0.012141406  
    624000   247.27973     -44310.32      -50347.856     -185.68227      0.020501814    0.312          0.041003628  
    625000   243.51922     -44272.957     -50218.678     -298.28927      0.032942148    0.3125         0.065884296  
    626000   246.55291     -44312.32      -50332.111     -199.14984      0.022587625    0.313          0.045175249  
    627000   246.33401     -44257.193     -50271.638     -241.99471      0.026406775    0.3135         0.05281355   
    628000   247.30432     -44384.908     -50423.044     -100.46419      0.010079599    0.314          0.020159198  
    629000   246.03806     -44252.111     -50259.331     -233.15019      0.017520945    0.3145         0.035041891  
    630000   249.60378     -44171.388     -50265.668      125.77226     -0.01055523     0.315         -0.02111046   
    631000   246.20677     -44160.66      -50171.999      126.82125     -0.012613666    0.3155        -0.025227332  
    632000   246.58308     -44255.962     -50276.489     -337.61629      0.033757077    0.316          0.067514155  
    633000   249.83637     -44088.286     -50188.245     -114.88369      0.010599061    0.3165         0.021198123  
    634000   241.15586     -44516.968     -50404.985      98.635377     -0.0096628582   0.317         -0.019325716  
    635000   245.00599     -44214.756     -50196.777      204.82698     -0.020452225    0.3175        -0.04090445   
    636000   248.51379     -44331.95      -50399.617      104.97364     -0.011638327    0.318         -0.023276654  
    637000   246.83441     -44279.512     -50306.175     -35.973011      0.0072783832   0.3185         0.014556766  
    638000   247.60099     -44220.998     -50266.378      190.31105     -0.017305399    0.319         -0.034610798  
    639000   241.33431     -44567.909     -50460.283      245.15766     -0.024312066    0.3195        -0.048624131  
    640000   247.70827     -44154.962     -50202.961     -68.427399      0.0081074871   0.32           0.016214974  
    641000   244.65099     -44346.741     -50320.094     -194.63451      0.016312951    0.3205         0.032625902  
    642000   245.01838     -44291.241     -50273.565      184.13778     -0.019300428    0.321         -0.038600856  
    643000   245.92756     -44248.095     -50252.617     -332.5024       0.033053629    0.3215         0.066107258  
    644000   247.32689     -44310.735     -50349.423     -209.07917      0.02140004     0.322          0.042800079  
    645000   247.93315     -44294.47      -50347.96      -115.77239      0.0089213616   0.3225         0.017842723  
    646000   247.64836     -44183.007     -50229.544     -54.196618      0.002148442    0.323          0.004296884  
    647000   246.98557     -44248.138     -50278.492     -28.476196      0.00094992324  0.3235         0.0018998465 
    648000   244.63977     -44379.177     -50352.256     -131.3671       0.012110425    0.324          0.024220849  
    649000   244.18899     -44294.613     -50256.686     -305.41759      0.030375254    0.3245         0.060750508  
    650000   245.13366     -44382.492     -50367.63       80.910226     -0.0070311672   0.325         -0.014062334  
    651000   247.76712     -44146.684     -50196.121      245.80282     -0.02548577     0.3255        -0.05097154   
    652000   246.28018     -44322.675     -50335.806     -87.298432      0.0067486      0.326          0.0134972    
    653000   245.59937     -44345.843     -50342.352      25.129547     -0.001180448    0.3265        -0.0023608959 
    654000   247.33001     -44283.987     -50322.75      -42.808344      0.0043116075   0.327          0.0086232149 
    655000   248.50448     -44218.444     -50285.884     -497.25673      0.049677127    0.3275         0.099354254  
    656000   245.64196     -44235.03      -50232.578     -213.53834      0.018547714    0.328          0.037095427  
    657000   246.72599     -44258.672     -50282.689     -169.88512      0.016151032    0.3285         0.032302064  
    658000   246.38772     -44240.066     -50255.823      309.69262     -0.031225611    0.329         -0.062451221  
    659000   248.01015     -44124.562     -50179.932     -89.91841       0.0097522663   0.3295         0.019504533  
    660000   244.97241     -44269.216     -50250.417     -282.44952      0.030894507    0.33           0.061789014  
    661000   244.08094     -44370.086     -50329.521     -144.26927      0.014173376    0.3305         0.028346753  
    662000   248.14588     -44185.538     -50244.223     -80.619685      0.011930627    0.331          0.023861254  
    663000   247.55186     -44154.738     -50198.919     -111.28304      0.011568984    0.3315         0.023137968  
    664000   242.05415     -44269.811     -50179.76       234.55125     -0.022564796    0.332         -0.045129592  
    665000   243.74554     -44389.527     -50340.773     -104.21947      0.0074558245   0.3325         0.014911649  
    666000   243.87757     -44296.1       -50250.57       54.763557     -0.0051983538   0.333         -0.010396708  
    667000   243.97611     -44450.904     -50407.78      -24.342169      0.0013525516   0.3335         0.0027051031 
    668000   245.27676     -44421.262     -50409.894      179.72353     -0.020365945    0.334         -0.04073189   
    669000   244.94665     -44535.543     -50516.116      143.22031     -0.01751046     0.3345        -0.035020921  
    670000   244.87681     -44358.485     -50337.352     -152.72876      0.013435173    0.335          0.026870347  
    671000   248.35302     -44255.113     -50318.855     -37.72965       0.00080341471  0.3355         0.0016068294 
    672000   243.68568     -44425.583     -50375.368      22.812568     -0.002984801    0.336         -0.0059696019 
    673000   247.67481     -44160.661     -50207.843     -27.895546      0.0057053438   0.3365         0.011410688  
    674000   245.51486     -44363.656     -50358.101      27.720521     -0.0032397883   0.337         -0.0064795767 
    675000   248.62892     -44222.921     -50293.399     -58.142613      0.00085701235  0.3375         0.0017140247 
    676000   243.54571     -44300.39      -50246.757      104.70855     -0.0097553606   0.338         -0.019510721  
    677000   245.00002     -44328.009     -50309.884      99.888575     -0.011276596    0.3385        -0.022553192  
    678000   246.79591     -44335.476     -50361.199      134.32765     -0.012948617    0.339         -0.025897235  
    679000   245.36331     -44376.837     -50367.582     -61.192227      0.0066087148   0.3395         0.01321743   
    680000   245.80102     -44357.81      -50359.242     -492.8166       0.046864258    0.34           0.093728516  
    681000   246.26849     -44415.812     -50428.658     -366.10549      0.033245953    0.3405         0.066491906  
    682000   243.99503     -44475.346     -50432.683     -51.636421      0.0067938586   0.341          0.013587717  
    683000   245.6497      -44472.953     -50470.69       110.59628     -0.0099907992   0.3415        -0.019981598  
    684000   244.98123     -44330.175     -50311.592      135.75069     -0.013178185    0.342         -0.02635637   
    685000   244.47777     -44540.82      -50509.944     -227.51894      0.022663233    0.3425         0.045326466  
    686000   245.27281     -44418.697     -50407.233      267.48013     -0.0295403      0.343         -0.059080599  
    687000   245.30629     -44284.858     -50274.211      190.93041     -0.021377442    0.3435        -0.042754884  
    688000   249.134       -44196.091     -50278.901      63.114411     -0.0056401389   0.344         -0.011280278  
    689000   246.15335     -44230.864     -50240.898      345.24775     -0.029656512    0.3445        -0.059313024  
    690000   242.84457     -44314.185     -50243.433     -28.252362     -0.0047788372   0.345         -0.0095576744 
    691000   250.90365     -44090.13      -50216.147      67.151257     -0.0078980476   0.3455        -0.015796095  
    692000   242.54889     -44401.094     -50323.123     -138.79869      0.016881331    0.346          0.033762661  
    693000   245.54577     -44296.038     -50291.238     -44.859232      0.0020514591   0.3465         0.0041029182 
    694000   241.14903     -44482.637     -50370.487      336.76226     -0.03285837     0.347         -0.065716741  
    695000   247.42282     -44344.261     -50385.291     -171.06262      0.016922059    0.3475         0.033844117  
    696000   243.0655      -44326.657     -50261.3        165.72372     -0.015354556    0.348         -0.030709113  
    697000   245.69075     -44386.317     -50385.056     -336.28258      0.035396631    0.3485         0.070793262  
    698000   246.01267     -44342.079     -50348.679     -52.85105       0.002230651    0.349          0.0044613019 
    699000   250.1604      -44126.144     -50234.014      81.539291     -0.0064940375   0.3495        -0.012988075  
    700000   248.17155     -44145.435     -50204.746      4.3234915      0.00069051189  0.35           0.0013810238 
Loop time of 453.676 on 56 procs for 100000 steps with 12288 atoms

Performance: 19.044 ns/day, 1.260 hours/ns, 220.422 timesteps/s, 2.709 Matom-step/s
99.8% CPU use with 56 MPI tasks x no OpenMP threads

MPI task timing breakdown:
Section |  min time  |  avg time  |  max time  |%varavg| %total
---------------------------------------------------------------
Pair    | 188.02     | 197.12     | 209.75     |  32.8 | 43.45
Bond    | 0.015765   | 0.026488   | 0.04205    |   3.2 |  0.01
Kspace  | 126.57     | 139.44     | 148.36     |  38.0 | 30.74
Neigh   | 21.373     | 21.385     | 21.398     |   0.1 |  4.71
Comm    | 15.426     | 16.389     | 17.923     |  15.6 |  3.61
Output  | 0.22093    | 0.39736    | 0.56652    |  16.2 |  0.09
Modify  | 65.649     | 69.292     | 76.881     |  32.9 | 15.27
Other   |            | 9.627      |            |       |  2.12

Nlocal:        219.429 ave         237 max         205 min
Histogram: 6 2 7 9 9 7 4 5 5 2
Nghost:        7069.43 ave        7139 max        7015 min
Histogram: 6 5 5 8 15 4 5 0 5 3
Neighs:          96052 ave      105646 max       88787 min
Histogram: 5 4 7 11 10 4 6 5 3 1

Total # of neighbors = 5378913
Ave neighs/atom = 437.73706
Ave special neighs/atom = 2
Neighbor list builds = 1870
Dangerous builds = 0
kspace_style pppm/tip4p 1.0e-5
next nloop
jump SELF loop_start
run 100000 # 100ps
PPPM initialization ...
  extracting TIP4P info from pair style
  using 12-bit tables for long-range coulomb
  G vector (1/distance) = 0.32966529
  grid = 50 72 50
  stencil order = 5
  estimated absolute RMS force accuracy = 0.0032726513
  estimated relative force accuracy = 9.8554921e-06
  using double precision KISS FFT
  3d grid and FFT values/proc = 14688 3600
Generated 0 of 1 mixed pair_coeff terms from geometric mixing rule
Per MPI rank memory allocation (min/avg/max) = 11.12 | 11.19 | 11.25 Mbytes
   Step          Temp          TotEng         PotEng          Pxy           v_sxy         v_strain     v_viscosity  
    700000   248.17155     -44145.45      -50204.76       5.3477564      0.00058672824  0.35           0.0011734565 
    701000   245.57488     -44277.6       -50273.511     -162.53425      0.01916423     0.3505         0.038328459  
    702000   249.46683     -44271.828     -50362.764      344.06927     -0.032076324    0.351         -0.064152647  
    703000   248.39247     -44206.227     -50270.932     -94.88231       0.0080059036   0.3515         0.016011807  
    704000   248.66833     -44184.67      -50256.11      -234.0638       0.019268665    0.352          0.038537329  
    705000   247.09658     -44233.511     -50266.576      159.6606      -0.015381808    0.3525        -0.030763616  
    706000   244.3255      -44295.376     -50260.782     -62.856519      0.0068455366   0.353          0.013691073  
    707000   245.64792     -44236.476     -50234.17      -113.75743      0.017911977    0.3535         0.035823954  
    708000   250.05024     -44190.048     -50295.228      109.46272     -0.011582967    0.354         -0.023165934  
    709000   242.32688     -44385.455     -50302.064      10.082357      0.0023451457   0.3545         0.0046902914 
    710000   251.06703     -44142.843     -50272.849     -133.84514      0.012969581    0.355          0.025939162  
    711000   245.15603     -44328.932     -50314.616     -165.89689      0.016806463    0.3555         0.033612926  
    712000   243.95233     -44380.948     -50337.243      58.224039     -0.0041393001   0.356         -0.0082786002 
    713000   244.86797     -44233.202     -50211.853     -16.167619      0.0026180207   0.3565         0.0052360413 
    714000   245.17096     -44259.116     -50245.165     -237.72179      0.024383584    0.357          0.048767168  
    715000   244.47318     -44233.225     -50202.237      63.88713      -0.0091727523   0.3575        -0.018345505  
    716000   247.04081     -44084.035     -50115.738      72.168159     -0.0090004301   0.358         -0.01800086   
    717000   246.94275     -44326.424     -50355.733      95.484079     -0.0054373931   0.3585        -0.010874786  
    718000   243.85428     -44422.035     -50375.936      6.9114186      0.0010119546   0.359          0.0020239092 
    719000   246.89494     -44259.832     -50287.973     -368.89175      0.036589841    0.3595         0.073179682  
    720000   244.91831     -44356.111     -50335.991      66.720587     -0.010224563    0.36          -0.020449125  
    721000   245.24179     -44236.719     -50224.497      126.51496     -0.012341509    0.3605        -0.024683018  
    722000   245.08886     -44332.233     -50316.277      215.7932      -0.021829188    0.361         -0.043658377  
    723000   244.83337     -44387.15      -50364.956      118.06132     -0.0066038587   0.3615        -0.013207717  
    724000   247.28888     -44375.952     -50413.712      131.65959     -0.012680081    0.362         -0.025360162  
    725000   244.22981     -44333.125     -50296.195     -74.753078      0.0087573224   0.3625         0.017514645  
    726000   246.36023     -44259.153     -50274.238     -248.52002      0.023200637    0.363          0.046401275  
    727000   247.8516      -44238.838     -50290.337      228.82908     -0.026840716    0.3635        -0.053681431  
    728000   247.19054     -44389.386     -50424.745      25.900276     -0.008461817    0.364         -0.016923634  
    729000   247.09701     -44246.792     -50279.867      111.32399     -0.013250816    0.3645        -0.026501632  
    730000   246.30117     -44160.922     -50174.566      122.14592     -0.010448077    0.365         -0.020896155  
    731000   249.96933     -44206.26      -50309.465     -168.95585      0.013773435    0.3655         0.02754687   
    732000   246.80182     -44301.753     -50327.621      109.89756     -0.0094425688   0.366         -0.018885138  
    733000   246.82803     -44231.16      -50257.668     -55.435604      0.0054924527   0.3665         0.010984905  
    734000   246.58879     -44140.293     -50160.959      402.47317     -0.040194086    0.367         -0.080388172  
    735000   243.41733     -44325.516     -50268.748      160.50845     -0.015820644    0.3675        -0.031641287  
    736000   248.42551     -44170.275     -50235.786      19.578604      0.00097073867  0.368          0.0019414773 
    737000   245.14404     -44285.633     -50271.025      234.01434     -0.024576856    0.3685        -0.049153713  
    738000   244.37345     -44249.195     -50215.772     -319.10536      0.033451025    0.369          0.066902051  
    739000   243.49682     -44343.004     -50288.178      286.75604     -0.029254896    0.3695        -0.058509791  
    740000   249.76874     -44086.502     -50184.81      -109.66442      0.010888587    0.37           0.021777175  
    741000   245.33515     -44450.601     -50440.659      200.37391     -0.021128156    0.3705        -0.042256313  
    742000   247.87425     -44099.5       -50151.552      264.97289     -0.026105074    0.371         -0.052210149  
    743000   245.34792     -44345.492     -50335.861      117.58699     -0.011146345    0.3715        -0.022292689  
    744000   245.6625      -44235.344     -50233.394      89.850574     -0.0080426618   0.372         -0.016085324  
    745000   247.40769     -44266.384     -50307.044      211.24512     -0.019466767    0.3725        -0.038933534  
    746000   241.65393     -44459.406     -50359.584      51.929111     -0.0047219035   0.373         -0.0094438071 
    747000   246.96936     -44271.719     -50301.677      60.405619     -0.0026782408   0.3735        -0.0053564817 
    748000   245.05107     -44139.614     -50122.735     -239.67242      0.024662317    0.374          0.049324635  
    749000   243.62969     -44341.847     -50290.265      187.48812     -0.018525546    0.3745        -0.037051091  
    750000   248.79896     -44168.219     -50242.848     -26.921459      0.0018794502   0.375          0.0037589004 
    751000   246.64661     -44295.768     -50317.846     -74.535664      0.0063960383   0.3755         0.012792077  
    752000   242.73753     -44531.614     -50458.249      123.29194     -0.0075702012   0.376         -0.015140402  
    753000   250.64637     -44191.506     -50311.242      154.81358     -0.016536754    0.3765        -0.033073508  
    754000   243.56448     -44308.625     -50255.45      -105.57355      0.0085751255   0.377          0.017150251  
    755000   249.57242     -44272.128     -50365.642     -289.35697      0.025634342    0.3775         0.051268684  
    756000   248.6175      -44268.794     -50338.993     -44.045395      0.0075792066   0.378          0.015158413  
    757000   247.70956     -44309.624     -50357.655      210.53411     -0.01883951     0.3785        -0.037679019  
    758000   241.54561     -44626.376     -50523.909     -247.58187      0.02266611     0.379          0.04533222   
    759000   246.8629      -44168         -50195.359      101.34025     -0.011816472    0.3795        -0.023632944  
    760000   244.56672     -44412.647     -50383.943      143.15867     -0.017371155    0.38          -0.03474231   
    761000   246.16409     -44344.747     -50355.044     -134.46913      0.014622642    0.3805         0.029245284  
    762000   246.83713     -44234.357     -50261.087     -260.74966      0.018822027    0.381          0.037644054  
    763000   243.63528     -44412.769     -50361.323     -13.099296     -0.0012625535   0.3815        -0.002525107  
    764000   249.41217     -44231.7       -50321.301      6.0049458      0.0027954211   0.382          0.0055908423 
    765000   244.28242     -44384.129     -50348.483     -195.71905      0.020178423    0.3825         0.040356847  
    766000   247.79903     -44201.355     -50251.57      -29.163781      0.0036001575   0.383          0.0072003149 
    767000   244.13498     -44407.627     -50368.381     -20.614413      0.002063799    0.3835         0.0041275979 
    768000   247.64309     -44295.679     -50342.086      1.4287709     -0.0010074593   0.384         -0.0020149185 
    769000   243.12695     -44299.59      -50235.732     -255.48285      0.023334806    0.3845         0.046669611  
    770000   245.49566     -44167.921     -50161.898     -197.94842      0.021585852    0.385          0.043171704  
    771000   247.26396     -44347.665     -50384.817      18.154759     -0.0016755331   0.3855        -0.0033510663 
    772000   243.77618     -44256.299     -50208.293     -177.23027      0.013878074    0.386          0.027756149  
    773000   247.02365     -44117.888     -50149.171     -47.680971      0.0071969858   0.3865         0.014393972  
    774000   244.07544     -44412.385     -50371.686     -136.29734      0.0089434138   0.387          0.017886828  
    775000   244.91016     -44149.8       -50129.481     -10.592214      0.0024025874   0.3875         0.0048051748 
    776000   246.27482     -44195.578     -50208.579     -2.1489002     -0.00082455391  0.388         -0.0016491078 
    777000   242.19637     -44341.406     -50254.828      171.01683     -0.013125009    0.3885        -0.026250019  
    778000   242.9611      -44427.158     -50359.251      222.02608     -0.025436402    0.389         -0.050872804  
    779000   246.14285     -44170.837     -50180.615      58.357903     -0.0089898907   0.3895        -0.017979781  
    780000   249.47914     -44074.033     -50165.269     -117.25215      0.008652289    0.39           0.017304578  
    781000   244.58233     -44333.195     -50304.872     -250.67016      0.02515511     0.3905         0.05031022   
    782000   250.765       -44212.402     -50335.034     -8.1375216      0.0022435368   0.391          0.0044870736 
    783000   244.38523     -44260.619     -50227.483     -270.86605      0.02942726     0.3915         0.058854519  
    784000   246.14078     -44200.563     -50210.291     -105.38705      0.01153205     0.392          0.023064101  
    785000   247.91291     -44107.913     -50160.909      23.86137      -0.00026891627  0.3925        -0.00053783253
    786000   241.96996     -44178.457     -50086.351      112.82042     -0.0114217      0.393         -0.022843401  
    787000   245.61873     -44244.434     -50241.415     -11.207868      0.0019601212   0.3935         0.0039202423 
    788000   243.15818     -44219.392     -50156.297      306.50981     -0.027986742    0.394         -0.055973483  
    789000   245.9582      -44245.87      -50251.14      -24.103188      0.0031975037   0.3945         0.0063950074 
    790000   245.41254     -44231.074     -50223.021     -44.463445      0.0052073596   0.395          0.010414719  
    791000   247.24704     -44101.472     -50138.21       187.29936     -0.017442558    0.3955        -0.034885116  
    792000   245.75418     -44218.611     -50218.899      118.85628     -0.011310864    0.396         -0.022621728  
    793000   248.3549      -44086.181     -50149.968      59.005453     -0.0020724735   0.3965        -0.004144947  
    794000   243.50951     -44284.15      -50229.633     -30.219695      0.0037282014   0.397          0.0074564028 
    795000   245.69041     -44328.079     -50326.811     -3.3034585     -0.00013767944  0.3975        -0.00027535889
    796000   247.485       -44334.297     -50376.845     -217.35035      0.020339476    0.398          0.040678953  
    797000   248.18693     -44278.24      -50337.926      71.606831     -0.0048566639   0.3985        -0.0097133278 
    798000   246.30466     -44310.372     -50324.101      25.355558     -0.0020511721   0.399         -0.0041023442 
    799000   248.34841     -44169.485     -50233.114     -88.277055      0.0082705675   0.3995         0.016541135  
    800000   246.56245     -44409.099     -50429.122      70.856391     -0.0053929777   0.4           -0.010785955  
Loop time of 476.731 on 56 procs for 100000 steps with 12288 atoms

Performance: 18.123 ns/day, 1.324 hours/ns, 209.762 timesteps/s, 2.578 Matom-step/s
99.8% CPU use with 56 MPI tasks x no OpenMP threads

MPI task timing breakdown:
Section |  min time  |  avg time  |  max time  |%varavg| %total
---------------------------------------------------------------
Pair    | 190.01     | 197.64     | 207.84     |  32.5 | 41.46
Bond    | 0.015853   | 0.026945   | 0.044765   |   3.4 |  0.01
Kspace  | 142.8      | 152.34     | 160.48     |  35.8 | 31.96
Neigh   | 22.144     | 22.154     | 22.165     |   0.1 |  4.65
Comm    | 15.717     | 17.017     | 18.757     |  16.7 |  3.57
Output  | 0.22014    | 0.3965     | 0.56584    |  16.3 |  0.08
Modify  | 72.169     | 76.653     | 85.295     |  35.0 | 16.08
Other   |            | 10.51      |            |       |  2.20

Nlocal:        219.429 ave         241 max         203 min
Histogram: 3 6 10 9 5 9 7 4 1 2
Nghost:        7124.86 ave        7220 max        7052 min
Histogram: 4 4 8 11 6 8 8 3 3 1
Neighs:        96080.4 ave      105940 max       87531 min
Histogram: 2 6 5 13 5 10 4 7 2 2

Total # of neighbors = 5380500
Ave neighs/atom = 437.86621
Ave special neighs/atom = 2
Neighbor list builds = 1887
Dangerous builds = 0
kspace_style pppm/tip4p 1.0e-5
next nloop
jump SELF loop_start
run 100000 # 100ps
PPPM initialization ...
  extracting TIP4P info from pair style
  using 12-bit tables for long-range coulomb
  G vector (1/distance) = 0.32899308
  grid = 50 72 50
  stencil order = 5
  estimated absolute RMS force accuracy = 0.003406553
  estimated relative force accuracy = 1.0258733e-05
  using double precision KISS FFT
  3d grid and FFT values/proc = 14688 3600
Generated 0 of 1 mixed pair_coeff terms from geometric mixing rule
Per MPI rank memory allocation (min/avg/max) = 11.12 | 11.19 | 11.25 Mbytes
   Step          Temp          TotEng         PotEng          Pxy           v_sxy         v_strain     v_viscosity  
    800000   246.56247     -44409.088     -50429.112      71.714018     -0.00548034     0.4           -0.01096068   
    801000   243.48365     -44351.946     -50296.798     -21.421485     -0.0015876136   0.4005        -0.0031752272 
    802000   250.02963     -44214.482     -50319.16       235.34387     -0.027345645    0.401         -0.05469129   
    803000   244.87698     -44378.13      -50357.001     -94.696108      0.010166641    0.4015         0.020333281  
    804000   245.00679     -44247.026     -50229.067      307.29816     -0.029550546    0.402         -0.059101092  
    805000   243.43984     -44290.778     -50234.561      169.1614      -0.015816144    0.4025        -0.031632288  
    806000   247.13569     -44160.751     -50194.77       328.58398     -0.032108328    0.403         -0.064216657  
    807000   244.03917     -44218.715     -50177.13       118.70178     -0.014323884    0.4035        -0.028647768  
    808000   248.00687     -44152.501     -50207.791     -267.03177      0.028711902    0.404          0.057423804  
    809000   243.44188     -44391.163     -50334.995     -29.459767      0.0038993829   0.4045         0.0077987659 
    810000   247.43391     -44094.459     -50135.76      -107.89717      0.010835397    0.405          0.021670794  
    811000   245.53206     -44463.256     -50458.121     -191.29559      0.021366569    0.4055         0.042733138  
    812000   245.30159     -44161.73      -50150.968     -211.51485      0.019269806    0.406          0.038539612  
    813000   245.5121      -44336.167     -50330.545     -36.92981       0.0032126739   0.4065         0.0064253478 
    814000   245.271       -44286.932     -50275.424     -92.685566      0.010246075    0.407          0.020492149  
    815000   246.09084     -44248.325     -50256.834     -375.15407      0.036002331    0.4075         0.072004662  
    816000   243.01442     -44461.367     -50394.762     -29.937168      0.0013434543   0.408          0.0026869086 
    817000   247.3477      -44284.586     -50323.782      34.383535     -0.0048422253   0.4085        -0.0096844505 
    818000   248.69807     -44209.099     -50281.266      170.2039      -0.019171595    0.409         -0.03834319   
    819000   246.89222     -44422.705     -50450.78       179.78134     -0.010332906    0.4095        -0.020665812  
    820000   244.03309     -44270.979     -50229.246     -180.20883      0.0200586      0.41           0.0401172    
    821000   249.06313     -44254.462     -50335.542      26.730722     -0.0005777725   0.4105        -0.001155545  
    822000   247.50465     -44350.065     -50393.092      129.34471     -0.01762577     0.411         -0.03525154   
    823000   248.35855     -44356.304     -50420.18       157.47727     -0.015102525    0.4115        -0.03020505   
    824000   245.80401     -44317.954     -50319.46       62.076994     -0.0065458008   0.412         -0.013091602  
    825000   245.67524     -44112.1       -50110.462     -42.802092      0.0051686755   0.4125         0.010337351  
    826000   242.64855     -44364.575     -50289.038      190.50438     -0.017546277    0.413         -0.035092554  
    827000   249.03647     -44203.114     -50283.542     -118.73391      0.0081548898   0.4135         0.01630978   
    828000   245.65366     -44236.269     -50234.103      42.772568     -0.0045628179   0.414         -0.0091256358 
    829000   247.15314     -44107.115     -50141.561     -284.3193       0.024250639    0.4145         0.048501278  
    830000   246.30804     -44299.345     -50313.157      105.33122     -0.013252504    0.415         -0.026505008  
    831000   241.85991     -44387.561     -50292.768      10.015322     -0.0013464899   0.4155        -0.0026929798 
    832000   240.06792     -44472.64      -50334.094     -204.71912      0.016288773    0.416          0.032577546  
    833000   247.40674     -44252.184     -50292.821     -42.832503      0.0048104139   0.4165         0.0096208279 
    834000   244.93659     -44399.598     -50379.924     -4.2400785      0.00054462153  0.417          0.0010892431 
    835000   244.35109     -44402.151     -50368.182     -50.575092      0.0037413074   0.4175         0.0074826148 
    836000   247.03413     -44170.452     -50201.992     -96.49166       0.011154062    0.418          0.022308124  
    837000   249.08749     -44316.571     -50398.245     -223.36319      0.019498622    0.4185         0.038997243  
    838000   245.71719     -44206.843     -50206.228      230.89281     -0.020386568    0.419         -0.040773136  
    839000   245.12989     -44353.88      -50338.926      0.046237597    0.0015529677   0.4195         0.0031059354 
    840000   244.33005     -44460.342     -50425.86      -513.4584       0.048987205    0.42           0.09797441   
    841000   248.33444     -44343.402     -50406.689      335.49407     -0.031542085    0.4205        -0.06308417   
    842000   247.09038     -44372.63      -50405.543     -177.13866      0.015112346    0.421          0.030224691  
    843000   247.39409     -44364.397     -50404.726      77.891906     -0.0091150387   0.4215        -0.018230077  
    844000   244.72813     -44361.739     -50336.976      32.091649     -0.0012649706   0.422         -0.0025299413 
    845000   243.35777     -44423.926     -50365.704     -119.62572      0.011554273    0.4225         0.023108546  
    846000   244.77404     -44398.109     -50374.467     -439.61993      0.039175679    0.423          0.078351359  
    847000   241.86352     -44429.355     -50334.65      -10.270073      0.00087302258  0.4235         0.0017460452 
    848000   244.60616     -44346.046     -50318.304     -5.563387       0.0005113579   0.424          0.0010227158 
    849000   245.30807     -44432.032     -50421.428     -126.98555      0.014316133    0.4245         0.028632266  
    850000   245.10114     -44415.776     -50400.12      -158.81034      0.013005361    0.425          0.026010722  
    851000   249.11434     -44448.447     -50530.777      7.2024858      0.00094741256  0.4255         0.0018948251 
    852000   247.17115     -44348.331     -50383.216     -118.18505      0.014024212    0.426          0.028048423  
    853000   244.93208     -44407.671     -50387.887     -191.61809      0.018195324    0.4265         0.036390648  
    854000   248.05019     -44305.201     -50361.549      46.746148     -0.0042571414   0.427         -0.0085142828 
    855000   249.06092     -44277.635     -50358.661      94.052945     -0.010133794    0.4275        -0.020267589  
    856000   244.61496     -44406.744     -50379.218      7.0135922     -0.0013893952   0.428         -0.0027787904 
    857000   250.94578     -44265.407     -50392.453     -13.070305     -0.0010036981   0.4285        -0.0020073961 
    858000   242.7684      -44539.225     -50466.613      97.583619     -0.011199669    0.429         -0.022399338  
    859000   247.97033     -44304.391     -50358.789     -122.64976      0.016195981    0.4295         0.032391961  
    860000   245.44513     -44401.802     -50394.545      156.39405     -0.015352084    0.43          -0.030704167  
    861000   242.41437     -44312.805     -50231.549     -117.02966      0.010797593    0.4305         0.021595186  
    862000   246.15227     -44242.08      -50252.089      45.606458     -0.005264941    0.431         -0.010529882  
    863000   244.61629     -44213.122     -50185.628      268.319       -0.027271529    0.4315        -0.054543058  
    864000   244.56653     -44271.911     -50243.203      85.030171     -0.0095385501   0.432         -0.0190771    
    865000   247.79656     -44090.115     -50140.27      -114.80973      0.013672541    0.4325         0.027345081  
    866000   244.95611     -44150.468     -50131.271      65.355961     -0.008533103    0.433         -0.017066206  
    867000   245.34686     -44224.1       -50214.443     -78.777217      0.0089424727   0.4335         0.017884945  
    868000   245.43002     -44195.834     -50188.208     -193.63565      0.016371223    0.434          0.032742446  
    869000   246.87502     -44059.022     -50086.677      66.161434     -0.007494113    0.4345        -0.014988226  
    870000   248.77715     -44081.417     -50155.514      24.951672     -0.0021201369   0.435         -0.0042402737 
    871000   242.46754     -44364.014     -50284.056     -212.74522      0.018058591    0.4355         0.036117182  
    872000   246.11905     -44204.719     -50213.916     -2.8881894     -0.0027967399   0.436         -0.0055934799 
    873000   244.09922     -44173.964     -50133.845      78.875521     -0.012276431    0.4365        -0.024552863  
    874000   249.09387     -44106.478     -50188.307      180.88783     -0.018244487    0.437         -0.036488975  
    875000   243.39506     -44194.801     -50137.49       249.3202      -0.023301765    0.4375        -0.046603531  
    876000   248.08659     -44312.812     -50370.049      256.07658     -0.025809864    0.438         -0.051619728  
    877000   243.81646     -44281.524     -50234.502      15.284337     -0.0010414926   0.4385        -0.0020829852 
    878000   245.53779     -44184.952     -50179.958     -259.4318       0.026039371    0.439          0.052078741  
    879000   247.69185     -44155.734     -50203.333      38.299233     -0.0029564952   0.4395        -0.0059129905 
    880000   247.03106     -44061.679     -50093.144     -195.23364      0.018186742    0.44           0.036373484  
    881000   246.53425     -44220.663     -50239.997      45.152743      0.0012605946   0.4405         0.0025211892 
    882000   245.9426      -44148.296     -50153.185      119.08307     -0.010697951    0.441         -0.021395902  
    883000   245.04394     -44309.997     -50292.945      17.481583     -0.0030819896   0.4415        -0.0061639793 
    884000   244.85444     -44243.244     -50221.564     -381.04766      0.035727525    0.442          0.071455051  
    885000   249.10533     -44044.256     -50126.366     -168.78136      0.012402726    0.4425         0.024805451  
    886000   240.9319      -44430.332     -50312.88      -150.31547      0.011560115    0.443          0.023120231  
    887000   247.09971     -44170.685     -50203.825     -76.202618      0.0066182834   0.4435         0.013236567  
    888000   244.32781     -44269.428     -50234.89      -100.13961      0.01359978     0.444          0.02719956   
    889000   243.93021     -44507.114     -50462.869     -52.283456      0.0036169296   0.4445         0.0072338592 
    890000   246.84284     -44365.146     -50392.015     -138.01131      0.01318516     0.445          0.026370319  
    891000   248.03589     -44178.416     -50234.414     -273.88388      0.025794423    0.4455         0.051588846  
    892000   241.99024     -44377.352     -50285.741     -29.576874      0.0043647456   0.446          0.0087294912 
    893000   248.09329     -44161.823     -50219.223     -69.027146      0.0088350124   0.4465         0.017670025  
    894000   243.34007     -44436.053     -50377.399      89.528038     -0.0059082139   0.447         -0.011816428  
    895000   247.96032     -44237.032     -50291.185     -426.39397      0.043765053    0.4475         0.087530106  
    896000   245.82873     -44185.325     -50187.434      405.20446     -0.045713549    0.448         -0.091427099  
    897000   247.87654     -44124.948     -50177.056     -110.84179      0.013584753    0.4485         0.027169506  
    898000   247.62672     -44057.075     -50103.083     -240.96758      0.023440212    0.449          0.046880424  
    899000   245.59298     -44216.427     -50212.78      -175.6062       0.018602063    0.4495         0.037204125  
    900000   245.82637     -44218.109     -50220.161      251.59967     -0.02546965     0.45          -0.050939299  
Loop time of 478.149 on 56 procs for 100000 steps with 12288 atoms

Performance: 18.070 ns/day, 1.328 hours/ns, 209.140 timesteps/s, 2.570 Matom-step/s
99.8% CPU use with 56 MPI tasks x no OpenMP threads

MPI task timing breakdown:
Section |  min time  |  avg time  |  max time  |%varavg| %total
---------------------------------------------------------------
Pair    | 187.44     | 197.42     | 209.39     |  35.0 | 41.29
Bond    | 0.016817   | 0.026331   | 0.043889   |   3.4 |  0.01
Kspace  | 143.02     | 154.18     | 163.76     |  37.8 | 32.25
Neigh   | 21.534     | 21.545     | 21.555     |   0.1 |  4.51
Comm    | 15.811     | 17.16      | 18.965     |  18.3 |  3.59
Output  | 0.22063    | 0.39748    | 0.5677     |  16.3 |  0.08
Modify  | 72.319     | 76.854     | 85.441     |  35.1 | 16.07
Other   |            | 10.56      |            |       |  2.21

Nlocal:        219.429 ave         240 max         202 min
Histogram: 1 3 8 9 13 11 4 2 3 2
Nghost:        7207.79 ave        7269 max        7149 min
Histogram: 4 4 5 7 7 11 6 3 6 3
Neighs:        96060.9 ave      105981 max       88253 min
Histogram: 1 7 6 7 18 7 4 2 3 1

Total # of neighbors = 5379410
Ave neighs/atom = 437.77751
Ave special neighs/atom = 2
Neighbor list builds = 1871
Dangerous builds = 0
kspace_style pppm/tip4p 1.0e-5
next nloop
jump SELF loop_start
run 100000 # 100ps
PPPM initialization ...
  extracting TIP4P info from pair style
  using 12-bit tables for long-range coulomb
  G vector (1/distance) = 0.32789337
  grid = 50 72 50
  stencil order = 5
  estimated absolute RMS force accuracy = 0.0036365434
  estimated relative force accuracy = 1.0951342e-05
  using double precision KISS FFT
  3d grid and FFT values/proc = 14688 3600
Generated 0 of 1 mixed pair_coeff terms from geometric mixing rule
Per MPI rank memory allocation (min/avg/max) = 11.12 | 11.19 | 11.25 Mbytes
   Step          Temp          TotEng         PotEng          Pxy           v_sxy         v_strain     v_viscosity  
    900000   245.82676     -44218.095     -50220.155      252.82692     -0.025594814    0.45          -0.051189629  
    901000   248.97752     -44123.487     -50202.477     -11.559814      0.00015774103  0.4505         0.00031548206
    902000   246.22177     -44233.296     -50245.001     -54.149277      0.0086020735   0.451          0.017204147  
    903000   244.59817     -44350.047     -50322.11      -140.22335      0.010872709    0.4515         0.021745417  
    904000   247.7963      -44230.298     -50280.447     -160.16666      0.015351549    0.452          0.030703097  
    905000   248.61464     -44145.295     -50215.424     -6.2622838      0.0023348396   0.4525         0.0046696792 
    906000   244.79912     -44274.076     -50251.046     -295.51155      0.033423067    0.453          0.066846134  
    907000   244.81615     -44203.706     -50181.092      138.44369     -0.01164557     0.4535        -0.02329114   
    908000   247.26864     -44111.492     -50148.757     -3.030303       0.002586386    0.454          0.005172772  
    909000   244.26867     -44329.791     -50293.809     -167.50106      0.013465892    0.4545         0.026931783  
    910000   243.1038      -44255.989     -50191.566      101.92881     -0.01209606     0.455         -0.024192121  
    911000   247.32413     -44157.435     -50196.056      209.90267     -0.01823743     0.4555        -0.03647486   
    912000   243.58692     -44263.028     -50210.402     -29.070925      0.0063524502   0.456          0.0127049    
    913000   242.16129     -44348.852     -50261.417      104.16568     -0.010753034    0.4565        -0.021506069  
    914000   249.36831     -44171.497     -50260.027      96.965169     -0.010226811    0.457         -0.020453621  
    915000   248.97041     -44116.443     -50195.259     -206.88396      0.020106343    0.4575         0.040212686  
    916000   243.87713     -44260.467     -50214.926     -37.98513       0.0042497158   0.458          0.0084994317 
    917000   243.11319     -44317.586     -50253.393     -135.23157      0.016307727    0.4585         0.032615453  
    918000   246.49709     -44243.678     -50262.105     -52.103086      0.0079855042   0.459          0.015971008  
    919000   245.07871     -44354.809     -50338.605      130.22909     -0.012320481    0.4595        -0.024640961  
    920000   242.69092     -44409.928     -50335.424     -76.20363       0.0068396034   0.46           0.013679207  
    921000   248.85107     -44128.658     -50204.56       331.53492     -0.030258771    0.4605        -0.060517541  
    922000   244.80655     -44301.103     -50278.254      45.696323     -0.0066375328   0.461         -0.013275066  
    923000   246.26208     -44288.119     -50300.809     -7.1337265      0.0071663908   0.4615         0.014332782  
    924000   243.48068     -44287.369     -50232.148     -170.60365      0.012919198    0.462          0.025838396  
    925000   247.01095     -44183.932     -50214.905     -210.10384      0.020539911    0.4625         0.041079823  
    926000   247.88138     -44276.463     -50328.689      95.825153     -0.015285945    0.463         -0.03057189   
    927000   240.37767     -44398.98      -50267.997     -75.617146      0.0062943556   0.4635         0.012588711  
    928000   245.8524      -44171.746     -50174.432      65.642778     -0.0094121928   0.464         -0.018824386  
    929000   243.25252     -44370.15      -50309.359      23.54255      -0.0020411876   0.4645        -0.0040823752 
    930000   247.98263     -44176.02      -50230.718     -139.71731      0.017000559    0.465          0.034001117  
    931000   245.53857     -44263.151     -50258.175     -52.80064       0.0070677004   0.4655         0.014135401  
    932000   244.3131      -44253.156     -50218.26       130.22534     -0.013729062    0.466         -0.027458125  
    933000   241.57537     -44571.046     -50469.305      35.469193     -0.0018039741   0.4665        -0.0036079483 
    934000   252.1507      -44081.189     -50237.654      9.4565192      0.0012857676   0.467          0.0025715352 
    935000   244.18809     -44468.52      -50430.571     -26.863518      0.0069488612   0.4675         0.013897722  
    936000   247.14558     -44412.331     -50446.592      220.81528     -0.021930009    0.468         -0.043860017  
    937000   248.21511     -44428.576     -50488.95       39.26841      -0.0035856617   0.4685        -0.0071713233 
    938000   248.89149     -44278.057     -50354.946      413.86823     -0.038859785    0.469         -0.077719571  
    939000   243.76277     -44477.97      -50429.636      142.17049     -0.011735484    0.4695        -0.023470968  
    940000   246.38828     -44338.632     -50354.403     -15.752181      0.0028820758   0.47           0.0057641517 
    941000   244.75233     -44567.205     -50543.033      192.87757     -0.02000408     0.4705        -0.040008159  
    942000   244.46854     -44453.822     -50422.721     -65.4427        0.0074081681   0.471          0.014816336  
    943000   249.19239     -44175.284     -50259.52      -18.7167        0.0051586028   0.4715         0.010317206  
    944000   244.17611     -44414.945     -50376.704     -11.988171     -0.00083822727  0.472         -0.0016764545 
    945000   249.63054     -44298.174     -50393.107     -296.55781      0.030184464    0.4725         0.060368928  
    946000   243.48431     -44427.238     -50372.106     -199.83253      0.020247197    0.473          0.040494393  
    947000   245.35746     -44280.169     -50270.771     -53.528275      0.0045747516   0.4735         0.0091495033 
    948000   243.81296     -44366.531     -50319.423     -7.6869188      0.0032943823   0.474          0.0065887646 
    949000   246.68415     -44310.858     -50333.853      192.48495     -0.017523306    0.4745        -0.035046612  
    950000   245.87183     -44281.343     -50284.505     -7.6218813     -0.0027356891   0.475         -0.0054713782 
    951000   244.65404     -44299.132     -50272.56       50.13832      -0.0069522449   0.4755        -0.01390449   
    952000   246.94706     -44394.308     -50423.721     -354.97372      0.036828714    0.476          0.073657428  
    953000   243.86298     -44379.066     -50333.18       23.045743      0.0045146524   0.4765         0.0090293047 
    954000   246.80486     -44254.954     -50280.896      267.49871     -0.025983677    0.477         -0.051967353  
    955000   247.63637     -44278.127     -50324.371      108.11794     -0.012249221    0.4775        -0.024498443  
    956000   242.57845     -44415.087     -50337.838     -58.522728      0.0083667822   0.478          0.016733564  
    957000   245.60634     -44302.371     -50299.05      -17.237816      0.00089803826  0.4785         0.0017960765 
    958000   243.14814     -44527.828     -50464.488      163.18658     -0.017055756    0.479         -0.034111513  
    959000   249.20632     -44166.955     -50251.531     -525.7065       0.052950267    0.4795         0.10590053   
    960000   240.73171     -44520.238     -50397.899     -124.39206      0.015960489    0.48           0.031920977  
    961000   252.67145     -44203.003     -50372.182      25.379667     -0.00031093342  0.4805        -0.00062186683
    962000   245.64434     -44414.957     -50412.564     -168.69694      0.016148063    0.481          0.032296127  
    963000   244.28813     -44262.247     -50226.741      93.487237     -0.0099921154   0.4815        -0.019984231  
    964000   245.44952     -44297.659     -50290.509     -190.73294      0.020624985    0.482          0.041249969  
    965000   247.21185     -44257.829     -50293.708     -119.29312      0.01185212     0.4825         0.02370424   
    966000   246.65558     -44405.927     -50428.224      78.084073     -0.0091740908   0.483         -0.018348182  
    967000   249.73009     -44193.802     -50291.166     -308.11083      0.033247816    0.4835         0.066495632  
    968000   244.44865     -44303.626     -50272.039     -151.95534      0.012913737    0.484          0.025827475  
    969000   241.64231     -44497.064     -50396.958     -334.96978      0.033538416    0.4845         0.067076831  
    970000   246.84705     -44343.118     -50370.09       397.49131     -0.039951879    0.485         -0.079903758  
    971000   243.98127     -44403.312     -50360.314     -51.040009      0.0064257892   0.4855         0.012851578  
    972000   246.25262     -44283.258     -50295.716      444.50611     -0.038589648    0.486         -0.077179295  
    973000   245.10291     -44336.667     -50321.055     -95.729806      0.008458858    0.4865         0.016917716  
    974000   244.42268     -44246.748     -50214.527     -38.573927      0.0059050345   0.487          0.011810069  
    975000   245.60763     -44465.88      -50462.59      -156.35744      0.015038878    0.4875         0.030077755  
    976000   244.38014     -44447.706     -50414.446      4.986389      -0.0035845447   0.488         -0.0071690894 
    977000   245.58931     -44444.429     -50440.692     -404.40333      0.039322718    0.4885         0.078645437  
    978000   244.68117     -44338.713     -50312.804     -274.39394      0.029486338    0.489          0.058972676  
    979000   243.47659     -44394.878     -50339.558     -236.2693       0.024744432    0.4895         0.049488864  
    980000   245.28712     -44337.646     -50326.531     -244.82505      0.026747221    0.49           0.053494442  
    981000   249.15302     -44272.457     -50355.731     -109.3286       0.012756828    0.4905         0.025513657  
    982000   248.67269     -44321.589     -50393.135     -75.449425      0.0067383167   0.491          0.013476633  
    983000   247.22489     -44253.102     -50289.299     -25.242294      0.0015552301   0.4915         0.0031104602 
    984000   248.40016     -44290.773     -50355.665     -230.41274      0.025298132    0.492          0.050596264  
    985000   246.57969     -44225.063     -50245.507     -72.720729      0.0054825856   0.4925         0.010965171  
    986000   247.58733     -44271.07      -50316.116     -174.88018      0.015971711    0.493          0.031943422  
    987000   244.9289      -44382.716     -50362.855     -343.48342      0.028350524    0.4935         0.056701047  
    988000   247.92045     -44286.233     -50339.413     -80.766472      0.0025945847   0.494          0.0051891695 
    989000   246.46333     -44355.614     -50373.218      0.69147343    -0.0023682646   0.4945        -0.0047365291 
    990000   247.17209     -44345.946     -50380.854     -123.01589      0.012877462    0.495          0.025754923  
    991000   248.14532     -44417.895     -50476.565      155.53232     -0.012278477    0.4955        -0.024556954  
    992000   246.00951     -44334.475     -50340.998     -109.37438      0.009735924    0.496          0.019471848  
    993000   242.22458     -44525.269     -50439.379     -276.81687      0.029317565    0.4965         0.058635131  
    994000   250.97405     -44197.837     -50325.573     -16.11823       0.0018944957   0.497          0.0037889915 
    995000   246.58768     -44391.251     -50411.891     -2.4250927     -0.0011940615   0.4975        -0.002388123  
    996000   246.93439     -44217.884     -50246.989     -48.138384      0.0043258511   0.498          0.0086517022 
    997000   241.17732     -44386.958     -50275.499      0.54845121     0.0019664094   0.4985         0.0039328187 
    998000   249.57368     -44202.405     -50295.949     -188.12434      0.017563528    0.499          0.035127055  
    999000   244.08615     -44331.068     -50290.631     -60.97428       0.0062003895   0.4995         0.012400779  
   1000000   245.44142     -44306.344     -50298.996     -230.47001      0.02371816     0.5            0.047436319  
Loop time of 477.065 on 56 procs for 100000 steps with 12288 atoms

Performance: 18.111 ns/day, 1.325 hours/ns, 209.615 timesteps/s, 2.576 Matom-step/s
99.8% CPU use with 56 MPI tasks x no OpenMP threads

MPI task timing breakdown:
Section |  min time  |  avg time  |  max time  |%varavg| %total
---------------------------------------------------------------
Pair    | 187.35     | 197.59     | 205.76     |  31.3 | 41.42
Bond    | 0.016739   | 0.026325   | 0.044041   |   3.4 |  0.01
Kspace  | 145.06     | 152.35     | 160.81     |  33.8 | 31.94
Neigh   | 21.434     | 21.444     | 21.453     |   0.1 |  4.50
Comm    | 16.08      | 17.425     | 19.409     |  19.5 |  3.65
Output  | 0.22062    | 0.39689    | 0.56675    |  16.3 |  0.08
Modify  | 72.705     | 77.047     | 86.056     |  35.4 | 16.15
Other   |            | 10.78      |            |       |  2.26

Nlocal:        219.429 ave         245 max         206 min
Histogram: 4 4 16 14 6 8 3 0 0 1
Nghost:        7286.43 ave        7339 max        7233 min
Histogram: 2 1 6 12 9 6 8 5 5 2
Neighs:        96062.1 ave      109541 max       90497 min
Histogram: 7 14 9 11 6 7 1 0 0 1

Total # of neighbors = 5379480
Ave neighs/atom = 437.7832
Ave special neighs/atom = 2
Neighbor list builds = 1865
Dangerous builds = 0
kspace_style pppm/tip4p 1.0e-5
next nloop
jump SELF loop_start
run 100000 # 100ps
PPPM initialization ...
  extracting TIP4P info from pair style
  using 12-bit tables for long-range coulomb
  G vector (1/distance) = 0.32815664
  grid = 50 75 50
  stencil order = 5
  estimated absolute RMS force accuracy = 0.0035802102
  estimated relative force accuracy = 1.0781697e-05
  using double precision KISS FFT
  3d grid and FFT values/proc = 15776 4000
Generated 0 of 1 mixed pair_coeff terms from geometric mixing rule
Per MPI rank memory allocation (min/avg/max) = 11.17 | 11.25 | 11.32 Mbytes
   Step          Temp          TotEng         PotEng          Pxy           v_sxy         v_strain     v_viscosity  
   1000000   245.44141     -44306.346     -50298.998     -229.38985      0.023607815    0.5            0.047215631  
   1001000   242.69817     -44258.859     -50184.533     -257.95701      0.029106836    0.5005         0.058213671  
   1002000   244.28689     -44433.001     -50397.465      70.180195     -0.013413889    0.501         -0.026827778  
   1003000   244.29613     -44292.751     -50257.441     -276.96112      0.030251492    0.5015         0.060502984  
   1004000   245.96232     -44351.874     -50357.244     -97.336168      0.0058684531   0.502          0.011736906  
   1005000   247.86144     -44220.927     -50272.667      152.03578     -0.014595206    0.5025        -0.029190411  
   1006000   243.48147     -44344.91      -50289.709     -133.14132      0.0083423247   0.503          0.016684649  
   1007000   246.16156     -44330.831     -50341.067      380.08914     -0.038057179    0.5035        -0.076114359  
   1008000   247.95121     -44329.093     -50383.024     -102.38758      0.0093574862   0.504          0.018714972  
   1009000   242.50742     -44333.623     -50254.64       340.21118     -0.03416792     0.5045        -0.068335839  
   1010000   244.31938     -44280.793     -50246.05      -287.49689      0.028439271    0.505          0.056878542  
   1011000   247.04541     -44264.661     -50296.476      17.559285     -0.0010407665   0.5055        -0.0020815331 
   1012000   242.48319     -44439.966     -50360.391      193.93499     -0.019880781    0.506         -0.039761561  
   1013000   249.11008     -44302.644     -50384.87       444.39759     -0.047656708    0.5065        -0.095313416  
   1014000   244.57512     -44276.105     -50247.606     -123.94955      0.011289246    0.507          0.022578493  
   1015000   246.28912     -44435.837     -50449.186      107.67475     -0.012291162    0.5075        -0.024582323  
   1016000   244.36568     -44419.389     -50385.776     -178.55433      0.020204705    0.508          0.040409411  
   1017000   248.40493     -44291.407     -50356.416      127.53362     -0.010926947    0.5085        -0.021853895  
   1018000   241.814       -44483.293     -50387.379     -51.071239      0.010156558    0.509          0.020313116  
   1019000   248.87105     -44291.871     -50368.26      -129.46853      0.014206666    0.5095         0.028413331  
   1020000   248.43227     -44247.555     -50313.231      216.50064     -0.022124672    0.51          -0.044249344  
   1021000   250.15851     -44264.01      -50371.834      24.664974     -2.2713825e-05  0.5105        -4.5427651e-05
   1022000   242.27135     -44404.68      -50319.933      196.80629     -0.020886165    0.511         -0.04177233   
   1023000   245.55816     -44339.758     -50335.261     -219.715        0.022718019    0.5115         0.045436038  
   1024000   246.09598     -44258.269     -50266.903      54.257303     -0.0054737692   0.512         -0.010947538  
   1025000   245.74165     -44343.587     -50343.57       11.127003     -0.0019060544   0.5125        -0.0038121089 
   1026000   243.41004     -44359.135     -50302.19      -98.874133      0.008813608    0.513          0.017627216  
   1027000   246.32173     -44292.629     -50306.775     -93.722148      0.0089900118   0.5135         0.017980024  
   1028000   247.62986     -44382.949     -50429.034     -203.52878      0.018661879    0.514          0.037323759  
   1029000   242.87811     -44421.45      -50351.518      90.084308     -0.011995579    0.5145        -0.023991158  
   1030000   248.18818     -44265.942     -50325.658     -140.9182       0.015410618    0.515          0.030821237  
   1031000   247.98152     -44161.851     -50216.522      241.22671     -0.022380553    0.5155        -0.044761107  
   1032000   243.2563      -44412.283     -50351.584      193.53894     -0.019788684    0.516         -0.039577369  
   1033000   246.73429     -44386.393     -50410.612      151.43855     -0.013469225    0.5165        -0.02693845   
   1034000   242.82831     -44413.303     -50342.154     -38.230982      0.0032199205   0.517          0.0064398409 
   1035000   247.4021      -44221.978     -50262.502     -235.73175      0.020811994    0.5175         0.041623988  
   1036000   245.41926     -44269.021     -50261.132      57.515024     -0.0074192526   0.518         -0.014838505  
   1037000   249.70025     -44190.691     -50287.326      18.303375     -0.002260224    0.5185        -0.004520448  
   1038000   244.24278     -44183.939     -50147.325      334.19861     -0.033188866    0.519         -0.066377733  
   1039000   245.77309     -44356.934     -50357.685     -16.707925      0.0032890137   0.5195         0.0065780273 
   1040000   245.73712     -44336.974     -50336.846     -62.476649      0.0019066595   0.52           0.0038133191 
   1041000   244.88043     -44471.051     -50450.006     -40.465232      0.0051349856   0.5205         0.010269971  
   1042000   246.20627     -44200.859     -50212.185      59.203835     -0.0044639037   0.521         -0.0089278073 
   1043000   242.67352     -44539.888     -50464.96      -116.05673      0.0091229992   0.5215         0.018245998  
   1044000   248.84296     -44239.786     -50315.49      -217.27472      0.023887056    0.522          0.047774112  
   1045000   241.83462     -44396.203     -50300.792      114.68698     -0.0079802323   0.5225        -0.015960465  
   1046000   241.61198     -44377.754     -50276.907      135.34681     -0.019128616    0.523         -0.038257232  
   1047000   247.56135     -44385.723     -50430.135     -112.21805      0.010387212    0.5235         0.020774425  
   1048000   244.65537     -44542.123     -50515.583     -276.58279      0.029554934    0.524          0.059109868  
   1049000   243.61472     -44386.87      -50334.922      90.129985     -0.0093324765   0.5245        -0.018664953  
   1050000   250.40025     -44268.613     -50382.339      33.192459      0.0014874363   0.525          0.0029748726 
   1051000   249.04582     -44286.172     -50366.829      5.5758725     -0.00126099     0.5255        -0.00252198   
   1052000   243.86062     -44548.212     -50502.268     -119.34175      0.0099753981   0.526          0.019950796  
   1053000   246.8508      -44229.648     -50256.711     -13.07506       0.00065083269  0.5265         0.0013016654 
   1054000   238.08428     -44722.089     -50535.111     -66.133552      0.0066385344   0.527          0.013277069  
   1055000   250.23922     -44145.737     -50255.531     -28.494189     -0.00052868152  0.5275        -0.001057363  
   1056000   245.72279     -44369.638     -50369.16      -174.46357      0.014237596    0.528          0.028475192  
   1057000   246.65326     -44261.384     -50283.624      166.12482     -0.013775191    0.5285        -0.027550382  
   1058000   247.18132     -44258.665     -50293.799     -0.27828404    -0.00014700235  0.529         -0.0002940047 
   1059000   246.04674     -44233.798     -50241.23       265.87759     -0.023382163    0.5295        -0.046764327  
   1060000   244.07614     -44268.39      -50227.708      30.426038     -0.0020865467   0.53          -0.0041730935 
   1061000   245.77967     -44253.23      -50254.141      114.59854     -0.0065575933   0.5305        -0.013115187  
   1062000   245.54807     -44232.426     -50227.682     -264.78942      0.026146373    0.531          0.052292745  
   1063000   245.52492     -44401.329     -50396.02      -256.76613      0.025402565    0.5315         0.050805131  
   1064000   241.84019     -44527.037     -50431.763     -12.258226      0.0019236507   0.532          0.0038473014 
   1065000   245.73196     -44379.283     -50379.03      -57.081772      0.005332898    0.5325         0.010665796  
   1066000   242.50404     -44472.006     -50392.94       124.98296     -0.014877617    0.533         -0.029755234  
   1067000   247.50613     -44307.604     -50350.668     -302.10903      0.030400824    0.5335         0.060801648  
   1068000   245.37094     -44443.875     -50434.807     -221.45345      0.022669801    0.534          0.045339603  
   1069000   248.53276     -44417.406     -50485.536     -168.69348      0.016805333    0.5345         0.033610666  
   1070000   242.04311     -44412.423     -50322.103      109.81456     -0.0097636287   0.535         -0.019527257  
   1071000   249.30506     -44178.518     -50265.504     -302.8603       0.034805845    0.5355         0.069611689  
   1072000   243.76555     -44460.394     -50412.128     -286.52918      0.029337503    0.536          0.058675007  
   1073000   245.33752     -44273.168     -50263.284     -275.39267      0.026617418    0.5365         0.053234836  
   1074000   247.35472     -44302.773     -50342.14      -301.26642      0.034159859    0.537          0.068319718  
   1075000   246.83575     -44380.752     -50407.448     -70.546518      0.0046233827   0.5375         0.0092467655 
   1076000   248.21223     -44252.284     -50312.587     -286.79952      0.028981569    0.538          0.057963138  
   1077000   244.66203     -44435.637     -50409.26       204.93483     -0.022657756    0.5385        -0.045315512  
   1078000   245.2266      -44448.74      -50436.147     -119.53388      0.0162534      0.539          0.0325068    
   1079000   244.96138     -44439.367     -50420.299      132.44394     -0.015676907    0.5395        -0.031353814  
   1080000   246.56877     -44356.25      -50376.427      14.33844       8.3904725e-05  0.54           0.00016780945
   1081000   247.72184     -44387.998     -50436.329     -262.02814      0.027955972    0.5405         0.055911944  
   1082000   243.22651     -44511.871     -50450.444      180.25242     -0.020834255    0.541         -0.041668509  
   1083000   246.22682     -44420.99      -50432.818      12.559354     -0.005751892    0.5415        -0.011503784  
   1084000   245.36162     -44438.888     -50429.592     -113.34679      0.013327468    0.542          0.026654935  
   1085000   250.58995     -44401.662     -50520.02       174.21345     -0.016795378    0.5425        -0.033590757  
   1086000   244.53127     -44455.603     -50426.034     -285.3882       0.026632506    0.543          0.053265012  
   1087000   244.05181     -44557.133     -50515.856     -87.052131      0.0044335111   0.5435         0.0088670222 
   1088000   244.85899     -44338.864     -50317.296      100.85365     -0.010700759    0.544         -0.021401518  
   1089000   245.75721     -44442.577     -50442.94      -138.82685      0.01725153     0.5445         0.034503061  
   1090000   249.75275     -44484.294     -50582.211     -20.995249      0.0015250226   0.545          0.0030500453 
   1091000   241.05615     -44497.539     -50383.122     -335.572        0.034335312    0.5455         0.068670625  
   1092000   246.82153     -44358.522     -50384.87       42.005109     -0.0051160923   0.546         -0.010232185  
   1093000   246.20989     -44331.966     -50343.381     -27.014984      0.0033030419   0.5465         0.0066060839 
   1094000   247.10927     -44342.758     -50376.132     -74.656922      0.0075200372   0.547          0.015040074  
   1095000   245.40302     -44278.161     -50269.876      53.801741     -0.0086022168   0.5475        -0.017204434  
   1096000   245.92003     -44329.621     -50333.959     -97.397705      0.013952453    0.548          0.027904906  
   1097000   245.21144     -44490.29      -50477.327     -126.69958      0.012850076    0.5485         0.025700152  
   1098000   245.82243     -44391.081     -50393.036     -120.43458      0.0085933501   0.549          0.0171867    
   1099000   243.2295      -44536.792     -50475.438     -197.88917      0.01937591     0.5495         0.038751819  
   1100000   244.5956      -44452.065     -50424.066      225.8961      -0.022015358    0.55          -0.044030715  
Loop time of 491.161 on 56 procs for 100000 steps with 12288 atoms

Performance: 17.591 ns/day, 1.364 hours/ns, 203.599 timesteps/s, 2.502 Matom-step/s
99.8% CPU use with 56 MPI tasks x no OpenMP threads

MPI task timing breakdown:
Section |  min time  |  avg time  |  max time  |%varavg| %total
---------------------------------------------------------------
Pair    | 188.75     | 197.73     | 206.86     |  33.4 | 40.26
Bond    | 0.016436   | 0.027359   | 0.045675   |   3.2 |  0.01
Kspace  | 148.49     | 157.79     | 166.52     |  36.1 | 32.13
Neigh   | 21.383     | 21.394     | 21.402     |   0.1 |  4.36
Comm    | 16.162     | 18.164     | 20.408     |  23.0 |  3.70
Output  | 0.22351    | 0.39821    | 0.56631    |  16.1 |  0.08
Modify  | 73.194     | 80.116     | 93.091     |  51.6 | 16.31
Other   |            | 15.54      |            |       |  3.16

Nlocal:        219.429 ave         236 max         197 min
Histogram: 1 1 2 8 7 10 11 9 5 2
Nghost:        7182.54 ave        7270 max        7136 min
Histogram: 9 8 11 5 11 4 3 1 3 1
Neighs:          96076 ave      104556 max       85543 min
Histogram: 1 0 6 4 11 11 11 5 5 2

Total # of neighbors = 5380256
Ave neighs/atom = 437.84635
Ave special neighs/atom = 2
Neighbor list builds = 1858
Dangerous builds = 0
kspace_style pppm/tip4p 1.0e-5
next nloop
jump SELF loop_start
run 100000 # 100ps
PPPM initialization ...
  extracting TIP4P info from pair style
  using 12-bit tables for long-range coulomb
  G vector (1/distance) = 0.33070112
  grid = 50 72 50
  stencil order = 5
  estimated absolute RMS force accuracy = 0.0030756936
  estimated relative force accuracy = 9.26236e-06
  using double precision KISS FFT
  3d grid and FFT values/proc = 14688 3600
Generated 0 of 1 mixed pair_coeff terms from geometric mixing rule
Per MPI rank memory allocation (min/avg/max) = 11.16 | 11.28 | 11.38 Mbytes
   Step          Temp          TotEng         PotEng          Pxy           v_sxy         v_strain     v_viscosity  
   1100000   244.59592     -44452.08      -50424.089      227.01409     -0.022129482    0.55          -0.044258963  
   1101000   246.88964     -44394.372     -50422.383     -321.04252      0.032643496    0.5505         0.065286991  
   1102000   245.58935     -44410.884     -50407.148     -127.38112      0.014569718    0.551          0.029139436  
   1103000   253.43195     -44122.481     -50310.229      118.66101     -0.012532049    0.5515        -0.025064099  
   1104000   244.43809     -44415.357     -50383.512      140.64785     -0.015739373    0.552         -0.031478746  
   1105000   243.22257     -44468.269     -50406.746      169.6148      -0.017342356    0.5525        -0.034684711  
   1106000   249.49768     -44386.029     -50477.718     -169.88904      0.01418912     0.553          0.028378241  
   1107000   246.51641     -44372.056     -50390.955     -285.7875       0.03170965     0.5535         0.0634193    
   1108000   245.48363     -44447.526     -50441.209     -136.49751      0.015231439    0.554          0.030462878  
   1109000   244.37483     -44332.067     -50298.677     -4.3180247     -0.0027035633   0.5545        -0.0054071265 
   1110000   248.71871     -44176.963     -50249.633      71.643719     -0.0082316551   0.555         -0.01646331   
   1111000   244.46076     -44454.064     -50422.773     -90.274603      0.012773708    0.5555         0.025547416  
   1112000   244.32762     -44330.92      -50296.378      386.13466     -0.038081932    0.556         -0.076163864  
   1113000   245.89358     -44256.244     -50259.936     -24.958408      0.0037119042   0.5565         0.0074238084 
   1114000   242.70185     -44430.645     -50356.408      165.51167     -0.022147486    0.557         -0.044294972  
   1115000   247.29937     -44261.392     -50299.407      42.447124     -0.0055880036   0.5575        -0.011176007  
   1116000   244.77735     -44389.003     -50365.442      137.93654     -0.014569636    0.558         -0.029139272  
   1117000   243.1793      -44415.462     -50352.883     -172.02723      0.018501671    0.5585         0.037003341  
   1118000   245.59533     -44296.483     -50292.893      48.181678     -0.00034559932  0.559         -0.00069119865
   1119000   246.84073     -44439.325     -50466.142     -140.18744      0.014033847    0.5595         0.028067694  
   1120000   247.98832     -44357.227     -50412.064      36.301892     -0.0041487242   0.56          -0.0082974484 
   1121000   250.92088     -44135.688     -50262.126      330.5959      -0.028851582    0.5605        -0.057703163  
   1122000   247.4622      -44353.004     -50394.995      21.059567     -0.0059039445   0.561         -0.011807889  
   1123000   246.17533     -44240.788     -50251.359     -64.404131      0.0048977869   0.5615         0.0097955738 
   1124000   244.50308     -44269.252     -50238.994      155.57838     -0.017231287    0.562         -0.034462574  
   1125000   248.15272     -44280.405     -50339.257      133.09357     -0.011960951    0.5625        -0.023921902  
   1126000   248.11862     -44190.718     -50248.736      106.88753     -0.010925264    0.563         -0.021850527  
   1127000   244.44523     -44496.019     -50464.348      120.3496      -0.013874617    0.5635        -0.027749235  
   1128000   248.50562     -44323.466     -50390.934      286.58946     -0.027580242    0.564         -0.055160484  
   1129000   250.6132      -44265.737     -50384.662      88.050531     -0.0076172159   0.5645        -0.015234432  
   1130000   244.71295     -44454.363     -50429.23      -109.50699      0.012025237    0.565          0.024050474  
   1131000   245.28646     -44465.952     -50454.821      109.04935     -0.016661524    0.5655        -0.033323048  
   1132000   246.7432      -44333.842     -50358.279      148.8679      -0.016631661    0.566         -0.033263321  
   1133000   245.64452     -44461.746     -50459.358     -82.001756      0.0064970213   0.5665         0.012994043  
   1134000   244.30829     -44448.836     -50413.822     -16.84494       0.00024553583  0.567          0.00049107166
   1135000   245.84152     -44329.666     -50332.087     -163.48886      0.015584107    0.5675         0.031168214  
   1136000   244.64546     -44484.824     -50458.042     -233.5537       0.022699804    0.568          0.045399608  
   1137000   247.20452     -44468.176     -50503.876     -88.592378      0.010831954    0.5685         0.021663907  
   1138000   249.20005     -44154.521     -50238.944     -183.95908      0.018003849    0.569          0.036007698  
   1139000   241.27794     -44531.134     -50422.132      29.417817     -0.0007872074   0.5695        -0.0015744148 
   1140000   245.68591     -44325.569     -50324.19      -39.861779      0.0071514458   0.57           0.014302892  
   1141000   245.46295     -44386.313     -50379.49       223.94741     -0.020453314    0.5705        -0.040906627  
   1142000   244.85563     -44397.067     -50375.417     -76.022989      0.0048201086   0.571          0.0096402172 
   1143000   247.06419     -44439.451     -50471.725     -190.9191       0.017081422    0.5715         0.034162844  
   1144000   244.91912     -44400.761     -50380.661     -22.296068      0.0013642267   0.572          0.0027284534 
   1145000   242.79687     -44358.448     -50286.531     -10.876735      0.00021277118  0.5725         0.00042554235
   1146000   248.6708      -44217.361     -50288.861     -123.87011      0.010926894    0.573          0.021853789  
   1147000   246.47824     -44361.533     -50379.5       -328.7513       0.033521582    0.5735         0.067043164  
   1148000   247.93111     -44215.421     -50268.861      190.9631      -0.020293416    0.574         -0.040586832  
   1149000   245.75591     -44358.051     -50358.382     -12.445328     -0.0011575945   0.5745        -0.002315189  
   1150000   243.31681     -44401.209     -50341.987      434.62127     -0.041422264    0.575         -0.082844529  
   1151000   248.82389     -44180.408     -50255.646      142.68744     -0.016941207    0.5755        -0.033882414  
   1152000   246.10353     -44271.975     -50280.793     -323.44972      0.033651589    0.576          0.067303178  
   1153000   250.10095     -44240.597     -50347.016      50.590276     -0.0067845913   0.5765        -0.013569183  
   1154000   245.44276     -44364.875     -50357.56       6.6693942      8.2696122e-05  0.577          0.00016539224
   1155000   247.09008     -44233.541     -50266.447      162.84955     -0.013066519    0.5775        -0.026133039  
   1156000   248.90662     -44232.319     -50309.577      141.76623     -0.016597754    0.578         -0.033195508  
   1157000   245.13411     -44263.266     -50248.415      103.71976     -0.012502882    0.5785        -0.025005764  
   1158000   246.86708     -44334.067     -50361.528      23.704946     -0.0022844647   0.579         -0.0045689294 
   1159000   245.81229     -44246.257     -50247.964      201.1009      -0.019648368    0.5795        -0.039296735  
   1160000   247.5322      -44122.476     -50166.176     -73.434266      0.0051779939   0.58           0.010355988  
   1161000   245.23627     -44226.677     -50214.32      -247.86021      0.027957581    0.5805         0.055915163  
   1162000   245.9116      -44225.43      -50229.562     -162.65505      0.016804765    0.581          0.033609529  
   1163000   244.25458     -44290.156     -50253.831      56.806706     -0.0072391426   0.5815        -0.014478285  
   1164000   243.44089     -44281.227     -50225.034     -71.068347      0.0047413673   0.582          0.0094827346 
   1165000   245.0215      -44280.856     -50263.256     -4.4154099      0.0023466653   0.5825         0.0046933307 
   1166000   245.78878     -44294.805     -50295.938      179.69362     -0.01892249     0.583         -0.03784498   
   1167000   248.48976     -44224.644     -50291.724      64.0507       -0.0069585809   0.5835        -0.013917162  
   1168000   247.98646     -44151.192     -50205.983      78.811698     -0.0089426494   0.584         -0.017885299  
   1169000   244.43635     -44363.5       -50331.613     -184.63452      0.015844766    0.5845         0.031689532  
   1170000   246.88724     -44155.456     -50183.409      79.547483     -0.0095555424   0.585         -0.019111085  
   1171000   248.94869     -44037.647     -50115.932     -36.847959      0.0034599484   0.5855         0.0069198968 
   1172000   244.9644      -44384.01      -50365.016     -193.15985      0.012773415    0.586          0.02554683   
   1173000   247.64429     -44216.935     -50263.372      34.692224     -0.006237271    0.5865        -0.012474542  
   1174000   251.3792      -44151.424     -50289.052     -154.27333      0.019678173    0.587          0.039356347  
   1175000   244.66987     -44361.843     -50335.657     -243.87605      0.026409862    0.5875         0.052819724  
   1176000   242.98352     -44344.023     -50276.663     -289.82508      0.031065101    0.588          0.062130202  
   1177000   243.17617     -44387.856     -50325.2       -150.1451       0.015793175    0.5885         0.031586351  
   1178000   249.11137     -44244.56      -50326.817     -33.948189      0.004741943    0.589          0.009483886  
   1179000   241.68936     -44396.477     -50297.52      -225.49269      0.0222752      0.5895         0.044550399  
   1180000   246.1376      -44375.963     -50385.613      86.836125     -0.0079298171   0.59          -0.015859634  
   1181000   248.22896     -44271.166     -50331.878      152.60537     -0.013859211    0.5905        -0.027718422  
   1182000   243.40011     -44433.896     -50376.708      104.28189     -0.010976601    0.591         -0.021953202  
   1183000   250.4692      -44216.741     -50332.15      -54.384911      0.0077930414   0.5915         0.015586083  
   1184000   246.84142     -44250.415     -50277.25       30.234163     -0.003351258    0.592         -0.006702516  
   1185000   245.12421     -44369.502     -50354.41      -155.89942      0.016276698    0.5925         0.032553396  
   1186000   247.39792     -44291.206     -50331.628     -8.0307798      0.00030407682  0.593          0.00060815364
   1187000   246.60065     -44274.307     -50295.263     -15.215155      0.0040375439   0.5935         0.0080750878 
   1188000   245.26227     -44352.886     -50341.164     -267.53462      0.026379545    0.594          0.052759091  
   1189000   244.20371     -44367.966     -50330.398     -116.17191      0.01040138     0.5945         0.02080276   
   1190000   244.6515      -44256.217     -50229.583     -103.97769      0.010640949    0.595          0.021281898  
   1191000   243.38964     -44241.248     -50183.804      184.8155      -0.016834279    0.5955        -0.033668559  
   1192000   243.60499     -44404.896     -50352.71      -65.180283      0.0082286796   0.596          0.016457359  
   1193000   249.6181      -44261.406     -50356.036     -141.51275      0.015699297    0.5965         0.031398594  
   1194000   244.33374     -44413.128     -50378.735     -215.49854      0.019256419    0.597          0.038512839  
   1195000   246.99367     -44355.52      -50386.071     -344.0747       0.03261463     0.5975         0.065229259  
   1196000   249.30531     -44141.934     -50228.927      149.52081     -0.01638873     0.598         -0.03277746   
   1197000   243.66675     -44273.994     -50223.316      9.8556358     -0.0043769832   0.5985        -0.0087539664 
   1198000   245.293       -44289.233     -50278.262      61.272375     -0.011408138    0.599         -0.022816276  
   1199000   246.15408     -44426.987     -50437.04       238.07889     -0.024566745    0.5995        -0.04913349   
   1200000   246.6618      -44359.879     -50382.327     -181.19945      0.020089347    0.6            0.040178694  
Loop time of 476.557 on 56 procs for 100000 steps with 12288 atoms

Performance: 18.130 ns/day, 1.324 hours/ns, 209.838 timesteps/s, 2.578 Matom-step/s
99.8% CPU use with 56 MPI tasks x no OpenMP threads

MPI task timing breakdown:
Section |  min time  |  avg time  |  max time  |%varavg| %total
---------------------------------------------------------------
Pair    | 188.74     | 196.48     | 208.06     |  29.3 | 41.23
Bond    | 0.01585    | 0.025403   | 0.041882   |   3.0 |  0.01
Kspace  | 143.84     | 154.04     | 162.04     |  32.0 | 32.32
Neigh   | 21.327     | 21.337     | 21.346     |   0.1 |  4.48
Comm    | 15.994     | 17.051     | 18.833     |  14.5 |  3.58
Output  | 0.22092    | 0.39616    | 0.56471    |  16.2 |  0.08
Modify  | 72.629     | 76.799     | 85.237     |  34.8 | 16.12
Other   |            | 10.43      |            |       |  2.19

Nlocal:        219.429 ave         244 max         201 min
Histogram: 3 3 8 10 15 7 6 2 1 1
Nghost:        7136.68 ave        7202 max        7074 min
Histogram: 1 5 13 8 5 3 6 4 7 4
Neighs:        96054.1 ave      106773 max       87399 min
Histogram: 2 5 7 5 17 9 6 2 2 1

Total # of neighbors = 5379030
Ave neighs/atom = 437.74658
Ave special neighs/atom = 2
Neighbor list builds = 1854
Dangerous builds = 0
kspace_style pppm/tip4p 1.0e-5
next nloop
jump SELF loop_start
run 100000 # 100ps
PPPM initialization ...
  extracting TIP4P info from pair style
  using 12-bit tables for long-range coulomb
  G vector (1/distance) = 0.33070031
  grid = 50 72 50
  stencil order = 5
  estimated absolute RMS force accuracy = 0.0030758446
  estimated relative force accuracy = 9.2628147e-06
  using double precision KISS FFT
  3d grid and FFT values/proc = 14688 3600
Generated 0 of 1 mixed pair_coeff terms from geometric mixing rule
Per MPI rank memory allocation (min/avg/max) = 11.16 | 11.28 | 11.38 Mbytes
   Step          Temp          TotEng         PotEng          Pxy           v_sxy         v_strain     v_viscosity  
   1200000   246.66186     -44359.875     -50382.326     -180.13654      0.019980136    0.6            0.039960272  
   1201000   244.51616     -44272.591     -50242.652      94.230609     -0.009967688    0.6005        -0.019935376  
   1202000   246.16242     -44356.533     -50366.789     -4.1284594     -0.0022358386   0.601         -0.0044716772 
   1203000   248.02567     -44437.892     -50493.64      -235.52365      0.021166204    0.6015         0.042332407  
   1204000   243.9194      -44332.652     -50288.143      260.2961      -0.028436115    0.602         -0.05687223   
   1205000   244.19079     -44457.048     -50419.165      46.57377      -0.0058119661   0.6025        -0.011623932  
   1206000   245.99932     -44368.005     -50374.279     -102.60516      0.0065644034   0.603          0.013128807  
   1207000   247.83504     -44261.985     -50313.079      12.871925     -0.0025788427   0.6035        -0.0051576853 
   1208000   248.87584     -44306.824     -50383.331     -107.60536      0.012033446    0.604          0.024066893  
   1209000   249.16372     -44316.705     -50400.24      -41.669001      0.0078261621   0.6045         0.015652324  
   1210000   244.539       -44454.784     -50425.403      111.04693     -0.013873939    0.605         -0.027747879  
   1211000   247.46162     -44244.334     -50286.311      24.69252       0.0010791235   0.6055         0.0021582469 
   1212000   249.68272     -44292.493     -50388.7       -73.138155      0.01012094     0.606          0.020241879  
   1213000   244.92946     -44419.616     -50399.769     -45.766051      0.0011787736   0.6065         0.0023575472 
   1214000   252.00669     -44328.804     -50481.753     -452.61995      0.042993803    0.607          0.085987607  
   1215000   242.42799     -44409.293     -50328.37       66.559843     -0.0093760749   0.6075        -0.01875215   
   1216000   248.93895     -44245.957     -50324.004     -93.105275      0.008334321    0.608          0.016668642  
   1217000   247.67287     -44404.034     -50451.169      20.652609     -0.0025304017   0.6085        -0.0050608034 
   1218000   242.14284     -44382.935     -50295.05       11.280288     -0.00066396421  0.609         -0.0013279284 
   1219000   251.0517      -44272.951     -50402.583      24.874852     -0.0045569936   0.6095        -0.0091139872 
   1220000   244.8459      -44562.84      -50540.953     -244.78821      0.022256016    0.61           0.044512032  
   1221000   248.48494     -44241.282     -50308.245      187.23472     -0.018922903    0.6105        -0.037845807  
   1222000   245.99465     -44414.474     -50420.634     -104.69059      0.010629179    0.611          0.021258358  
   1223000   244.15172     -44471.313     -50432.477     -368.43545      0.03383032     0.6115         0.06766064   
   1224000   247.10935     -44383.804     -50417.18      -164.81519      0.014811414    0.612          0.029622827  
   1225000   246.734       -44425.809     -50450.02      -90.424745      0.014548989    0.6125         0.029097978  
   1226000   244.11844     -44336.157     -50296.507     -129.59699      0.012065485    0.613          0.024130969  
   1227000   245.59335     -44506.1       -50502.462     -143.10781      0.01661155     0.6135         0.033223101  
   1228000   245.27668     -44437.912     -50426.543      265.58034     -0.028170485    0.614         -0.05634097   
   1229000   243.1655      -44403.517     -50340.601     -27.323508      0.0052122623   0.6145         0.010424525  
   1230000   242.51707     -44442.932     -50364.184      184.2932      -0.020602706    0.615         -0.041205411  
   1231000   247.25506     -44275.761     -50312.695      16.687427     -0.0035045868   0.6155        -0.0070091736 
   1232000   249.65104     -44245.834     -50341.268     -8.4249985      0.0021151417   0.616          0.0042302834 
   1233000   244.15887     -44435.235     -50396.573     -58.629787      0.0067927997   0.6165         0.013585599  
   1234000   244.47848     -44384.276     -50353.418     -241.33471      0.026701452    0.617          0.053402903  
   1235000   248.30027     -44202.313     -50264.766     -143.14049      0.016629467    0.6175         0.033258935  
   1236000   243.80246     -44600.845     -50553.48      -116.82308      0.009831873    0.618          0.019663746  
   1237000   251.04561     -44393.785     -50523.268     -107.93289      0.008603412    0.6185         0.017206824  
   1238000   246.16079     -44406.251     -50416.467     -210.07063      0.021939334    0.619          0.043878668  
   1239000   245.00055     -44442.924     -50424.812      20.827987     -0.0033929571   0.6195        -0.0067859142 
   1240000   245.6929      -44289.004     -50287.797      221.31997     -0.01948643     0.62          -0.038972859  
   1241000   246.82017     -44443.588     -50469.904     -65.794939      0.0056362361   0.6205         0.011272472  
   1242000   248.04754     -44342.481     -50398.764     -81.638826      0.0049199437   0.621          0.0098398874 
   1243000   241.25486     -44444.748     -50335.182      4.1812675     -0.00035890372  0.6215        -0.00071780745
   1244000   249.614       -44391.301     -50485.83      -282.16431      0.027737516    0.622          0.055475032  
   1245000   244.27868     -44330.568     -50294.831      85.174651     -0.0075098919   0.6225        -0.015019784  
   1246000   245.9571      -44311.503     -50316.746      111.79088     -0.013160534    0.623         -0.026321068  
   1247000   245.73079     -44497.426     -50497.144     -104.41758      0.0093371032   0.6235         0.018674206  
   1248000   243.99478     -44437.453     -50394.784      245.7495      -0.027540411    0.624         -0.055080822  
   1249000   245.61819     -44416.921     -50413.889      64.695793     -0.0039407214   0.6245        -0.0078814428 
   1250000   248.17349     -44319.354     -50378.712      150.55359     -0.014445499    0.625         -0.028890998  
   1251000   243.55976     -44515.966     -50462.676     -19.329285      0.0025028465   0.6255         0.005005693  
   1252000   248.27904     -44247.882     -50309.818     -373.07028      0.036516786    0.626          0.073033573  
   1253000   247.64278     -44313.468     -50359.868     -103.32872      0.01029205     0.6265         0.0205841    
   1254000   244.1396      -44405.831     -50366.699     -147.99176      0.013693344    0.627          0.027386689  
   1255000   245.79007     -44319.697     -50320.862     -236.23661      0.023583899    0.6275         0.047167798  
   1256000   246.22147     -44308.311     -50320.009     -88.901828      0.0062125467   0.628          0.012425093  
   1257000   243.11101     -44421.125     -50356.878     -38.999052      0.0040316081   0.6285         0.0080632162 
   1258000   247.74365     -44303.232     -50352.096     -162.35695      0.012609673    0.629          0.025219347  
   1259000   243.01343     -44422.68      -50356.051      173.37837     -0.016768635    0.6295        -0.033537269  
   1260000   244.14278     -44433.41      -50394.355     -38.460471      0.0060715921   0.63           0.012143184  
   1261000   245.11784     -44400.823     -50385.574     -177.72045      0.017749983    0.6305         0.035499965  
   1262000   244.8404      -44355.577     -50333.554     -67.924796      0.012031367    0.631          0.024062735  
   1263000   242.1095      -44480.817     -50392.118     -83.464321      0.012882752    0.6315         0.025765505  
   1264000   248.80884     -44265.108     -50339.979     -9.8612272      0.0021665405   0.632          0.004333081  
   1265000   243.0437      -44431.015     -50365.125     -56.104839      0.0075632025   0.6325         0.015126405  
   1266000   243.72408     -44354.852     -50305.575     -308.48805      0.030769294    0.633          0.061538588  
   1267000   245.20204     -44458.511     -50445.319     -209.35366      0.020870871    0.6335         0.041741742  
   1268000   244.17439     -44349.643     -50311.36      -19.015923      0.0037592226   0.634          0.0075184451 
   1269000   248.11432     -44329.595     -50387.508     -366.63116      0.039526065    0.6345         0.079052131  
   1270000   250.37072     -44204.124     -50317.129      125.08071     -0.014705174    0.635         -0.029410348  
   1271000   244.3444      -44303.612     -50269.48      -69.643885      0.0076918053   0.6355         0.015383611  
   1272000   246.16797     -44416.148     -50426.539      42.383373     -0.0054775023   0.636         -0.010955005  
   1273000   242.56907     -44327.12      -50249.642     -43.720836      0.0015366539   0.6365         0.0030733077 
   1274000   246.9352      -44322.858     -50351.983     -304.95356      0.03173093     0.637          0.06346186   
   1275000   245.51195     -44408.368     -50402.742     -259.3697       0.029555262    0.6375         0.059110525  
   1276000   246.53932     -44422.614     -50442.073     -46.502134      0.0041758723   0.638          0.0083517446 
   1277000   246.19186     -44263.512     -50274.487     -404.03867      0.041936879    0.6385         0.083873758  
   1278000   248.29408     -44207.71      -50270.012     -470.96499      0.048401886    0.639          0.096803772  
   1279000   248.46528     -44269.473     -50335.955      132.67583     -0.013338209    0.6395        -0.026676418  
   1280000   245.55121     -44253.151     -50248.484     -246.59994      0.022919621    0.64           0.045839242  
   1281000   246.40674     -44191.61      -50207.832      123.09172     -0.015623749    0.6405        -0.031247498  
   1282000   244.97861     -44236.355     -50217.707     -36.075086      0.0029484648   0.641          0.0058969295 
   1283000   243.27732     -44541.883     -50481.697     -26.550165      0.0022192305   0.6415         0.004438461  
   1284000   243.93678     -44345.524     -50301.439     -113.31681      0.0069033241   0.642          0.013806648  
   1285000   244.15391     -44283.815     -50245.032      43.424738     -0.0065331711   0.6425        -0.013066342  
   1286000   249.36006     -44210.584     -50298.913     -165.50227      0.018236539    0.643          0.036473078  
   1287000   246.29402     -44358.656     -50372.126      171.13299     -0.019667073    0.6435        -0.039334146  
   1288000   247.80835     -44193.671     -50244.114     -240.09012      0.024043189    0.644          0.048086379  
   1289000   246.69362     -44295.494     -50318.72       78.100527     -0.0052801913   0.6445        -0.010560383  
   1290000   243.18824     -44365.673     -50303.312      120.78194     -0.014446302    0.645         -0.028892605  
   1291000   244.46031     -44386.595     -50355.293     -160.55168      0.015834359    0.6455         0.031668719  
   1292000   248.84693     -44174.959     -50250.759      92.512588     -0.010212963    0.646         -0.020425926  
   1293000   243.83942     -44317.841     -50271.379     -111.08254      0.011364548    0.6465         0.022729097  
   1294000   246.29167     -44254.826     -50268.238      83.736947     -0.010291728    0.647         -0.020583455  
   1295000   246.29879     -44135.131     -50148.716     -98.350804      0.0095480629   0.6475         0.019096126  
   1296000   247.83055     -44333.732     -50384.717     -102.11507      0.0097631757   0.648          0.019526351  
   1297000   247.18774     -44231.193     -50266.483     -69.090087      0.0069672578   0.6485         0.013934516  
   1298000   250.19316     -44148.943     -50257.613      195.65711     -0.021076643    0.649         -0.042153287  
   1299000   249.59376     -44216.731     -50310.766      4.8107716     -0.0011817462   0.6495        -0.0023634925 
   1300000   245.90575     -44155.52      -50159.509     -74.410695      0.0082642293   0.65           0.016528459  
Loop time of 474.591 on 56 procs for 100000 steps with 12288 atoms

Performance: 18.205 ns/day, 1.318 hours/ns, 210.708 timesteps/s, 2.589 Matom-step/s
99.8% CPU use with 56 MPI tasks x no OpenMP threads

MPI task timing breakdown:
Section |  min time  |  avg time  |  max time  |%varavg| %total
---------------------------------------------------------------
Pair    | 187.41     | 195.9      | 207.1      |  31.0 | 41.28
Bond    | 0.0148     | 0.025406   | 0.041392   |   3.0 |  0.01
Kspace  | 142.31     | 152.42     | 160.94     |  34.3 | 32.12
Neigh   | 21.755     | 21.766     | 21.774     |   0.1 |  4.59
Comm    | 15.886     | 16.898     | 18.807     |  16.6 |  3.56
Output  | 0.22147    | 0.39647    | 0.56466    |  16.1 |  0.08
Modify  | 72.028     | 76.666     | 85.437     |  36.2 | 16.15
Other   |            | 10.52      |            |       |  2.22

Nlocal:        219.429 ave         242 max         204 min
Histogram: 5 6 7 7 11 10 5 3 0 2
Nghost:        7072.89 ave        7168 max        6985 min
Histogram: 3 2 8 11 6 8 11 1 1 5
Neighs:        96100.3 ave      107830 max       87604 min
Histogram: 4 5 10 8 9 9 5 3 1 2

Total # of neighbors = 5381616
Ave neighs/atom = 437.95703
Ave special neighs/atom = 2
Neighbor list builds = 1853
Dangerous builds = 0
kspace_style pppm/tip4p 1.0e-5
next nloop
jump SELF loop_start
run 100000 # 100ps
PPPM initialization ...
  extracting TIP4P info from pair style
  using 12-bit tables for long-range coulomb
  G vector (1/distance) = 0.33069918
  grid = 50 72 50
  stencil order = 5
  estimated absolute RMS force accuracy = 0.0030760529
  estimated relative force accuracy = 9.2634419e-06
  using double precision KISS FFT
  3d grid and FFT values/proc = 14688 3600
Generated 0 of 1 mixed pair_coeff terms from geometric mixing rule
Per MPI rank memory allocation (min/avg/max) = 11.16 | 11.28 | 11.38 Mbytes
   Step          Temp          TotEng         PotEng          Pxy           v_sxy         v_strain     v_viscosity  
   1300000   245.90545     -44155.527     -50159.509     -73.404844      0.0081607412   0.65           0.016321482  
   1301000   243.5355      -44242.305     -50188.423     -153.96675      0.016452146    0.6505         0.032904291  
   1302000   245.61563     -44248.195     -50245.101     -334.65113      0.030953887    0.651          0.061907774  
   1303000   250.64961     -44197.936     -50317.75       152.14524     -0.010915994    0.6515        -0.021831988  
   1304000   245.59255     -44371.027     -50367.37      -90.853801      0.0066825562   0.652          0.013365112  
   1305000   245.56113     -44204.999     -50200.574      72.324502     -0.0095182486   0.6525        -0.019036497  
   1306000   246.2161      -44173.449     -50185.016      190.04435     -0.022344541    0.653         -0.044689082  
   1307000   245.53712     -44171.89      -50166.878      31.211475     -0.00146017     0.6535        -0.00292034   
   1308000   243.89419     -44369.154     -50324.029     -227.60572      0.022281349    0.654          0.044562697  
   1309000   245.25883     -44294.837     -50283.032     -115.00956      0.014464053    0.6545         0.028928105  
   1310000   246.8066      -44169.39      -50195.374     -103.0934       0.013858121    0.655          0.027716242  
   1311000   244.54272     -44384.901     -50355.611     -236.81301      0.025680725    0.6555         0.051361449  
   1312000   245.4701      -44329.821     -50323.174      224.72372     -0.019779529    0.656         -0.039559058  
   1313000   247.00605     -44310.648     -50341.502     -403.13681      0.043466764    0.6565         0.086933528  
   1314000   250.05839     -44179.976     -50285.355     -274.9095       0.032609197    0.657          0.065218394  
   1315000   244.4488      -44498.825     -50467.242     -30.439895      0.0034002433   0.6575         0.0068004866 
   1316000   244.33672     -44255.897     -50221.577      126.42438     -0.011846156    0.658         -0.023692311  
   1317000   247.11851     -44241.453     -50275.053      254.88997     -0.023671858    0.6585        -0.047343716  
   1318000   248.00004     -44220.915     -50276.038     -92.038265      0.0031982131   0.659          0.0063964262 
   1319000   249.91577     -44243.823     -50345.72       56.613906     -0.0049680442   0.6595        -0.0099360885 
   1320000   245.74191     -44309.714     -50309.703     -285.64722      0.028525802    0.66           0.057051603  
   1321000   245.05783     -44410.837     -50394.124     -81.026533      0.0065620611   0.6605         0.013124122  
   1322000   246.03757     -44324.987     -50332.195     -4.6331514      0.00040003537  0.661          0.00080007074
   1323000   244.17757     -44333.917     -50295.711      204.52613     -0.024827413    0.6615        -0.049654826  
   1324000   243.85653     -44262.798     -50216.754     -251.00889      0.02393575     0.662          0.0478715    
   1325000   248.32465     -44168.249     -50231.298     -152.56045      0.013730363    0.6625         0.027460726  
   1326000   244.54822     -44343.012     -50313.857     -187.9857       0.019840074    0.663          0.039680148  
   1327000   244.72682     -44352.387     -50327.592     -286.84075      0.029772778    0.6635         0.059545556  
   1328000   248.76256     -44387.159     -50460.9       -2.3246866     -0.00028883075  0.664         -0.00057766149
   1329000   242.61901     -44520.028     -50443.769     -96.512705      0.0079732952   0.6645         0.01594659   
   1330000   247.35444     -44334.76      -50374.121      180.53937     -0.011897956    0.665         -0.023795912  
   1331000   247.97268     -44331.816     -50386.271     -242.94383      0.019461391    0.6655         0.038922782  
   1332000   243.7247      -44374.384     -50325.121     -9.2484204      0.00096593877  0.666          0.0019318775 
   1333000   240.04418     -44401.736     -50262.611      205.00042     -0.018207695    0.6665        -0.036415389  
   1334000   245.16852     -44305.315     -50291.304      273.45011     -0.025894024    0.667         -0.051788049  
   1335000   246.41517     -44444.487     -50460.914      40.931731     -0.0061376892   0.6675        -0.012275378  
   1336000   249.17854     -44279.322     -50363.219      62.583626     -0.0097257755   0.668         -0.019451551  
   1337000   246.45257     -44199.118     -50216.459      94.237172     -0.0098263908   0.6685        -0.019652782  
   1338000   246.27978     -44320.096     -50333.217     -38.135163      0.0031129167   0.669          0.0062258335 
   1339000   245.33844     -44335.788     -50325.926      8.4360026     -0.00090593553  0.6695        -0.0018118711 
   1340000   247.86112     -44204.424     -50256.156      33.789339     -0.0034623544   0.67          -0.0069247089 
   1341000   243.46812     -44423.419     -50367.892     -100.6245       0.0099078563   0.6705         0.019815713  
   1342000   246.81093     -44208.886     -50234.976     -189.98009      0.018856913    0.671          0.037713826  
   1343000   245.13741     -44227.497     -50212.727      156.80604     -0.020957816    0.6715        -0.041915632  
   1344000   244.38461     -44281.205     -50248.055      118.66587     -0.012237353    0.672         -0.024474705  
   1345000   244.58304     -44365.043     -50336.737     -185.57549      0.017439979    0.6725         0.034879959  
   1346000   246.09766     -44461.956     -50470.631     -452.19025      0.045501382    0.673          0.091002765  
   1347000   246.69483     -44291.038     -50314.294     -254.64393      0.026506417    0.6735         0.053012835  
   1348000   238.44601     -44356.914     -50178.768     -119.87826      0.011198044    0.674          0.022396088  
   1349000   244.63957     -44332.935     -50306.01       0.82785655     0.00067192622  0.6745         0.0013438524 
   1350000   247.03353     -44461.088     -50492.613     -148.7414       0.016507026    0.675          0.033014053  
   1351000   249.93034     -44299.505     -50401.758     -106.84293      0.0091920068   0.6755         0.018384014  
   1352000   245.32627     -44332.874     -50322.715      99.127039     -0.010597841    0.676         -0.021195682  
   1353000   249.34343     -44196.366     -50284.289      349.00222     -0.036699465    0.6765        -0.07339893   
   1354000   247.30475     -44227.209     -50265.356     -309.43748      0.034767787    0.677          0.069535574  
   1355000   242.96503     -44404.099     -50336.288     -336.04141      0.035249653    0.6775         0.070499306  
   1356000   248.81657     -44239.946     -50315.006      12.783153      0.0008213288   0.678          0.0016426576 
   1357000   243.44162     -44289.358     -50233.184     -295.20276      0.034182605    0.6785         0.06836521   
   1358000   243.18511     -44240.008     -50177.571      87.22792      -0.0039798412   0.679         -0.0079596824 
   1359000   247.61998     -44217.854     -50263.698      41.719536     -0.005093052    0.6795        -0.010186104  
   1360000   245.98        -44189.858     -50195.66      -331.93088      0.033678579    0.68           0.067357159  
   1361000   247.05302     -44154.71      -50186.71      -270.47048      0.031320889    0.6805         0.062641777  
   1362000   251.59877     -44189.951     -50332.94       212.50003     -0.01820493     0.681         -0.03640986   
   1363000   246.43931     -44106.631     -50123.648     -4.0604573      0.0018105163   0.6815         0.0036210326 
   1364000   248.34709     -44096.334     -50159.93       46.379072     -0.0057398955   0.682         -0.011479791  
   1365000   245.26223     -44208.706     -50196.984     -137.68426      0.012389535    0.6825         0.02477907   
   1366000   247.19992     -44320.426     -50356.014     -182.2248       0.013922412    0.683          0.027844823  
   1367000   246.27979     -44204.249     -50217.371      145.7776      -0.0082359597   0.6835        -0.016471919  
   1368000   248.27399     -44226.488     -50288.3        65.837767     -0.0054813057   0.684         -0.010962611  
   1369000   242.60194     -44316.383     -50239.707     -113.11032      0.013567768    0.6845         0.027135535  
   1370000   245.6135      -44263.563     -50260.417      112.22766     -0.01441094     0.685         -0.028821881  
   1371000   244.48591     -44317.174     -50286.497     -2.1916714      0.00098575392  0.6855         0.0019715078 
   1372000   243.79042     -44446.535     -50398.877     -200.12624      0.016815375    0.686          0.03363075   
   1373000   249.16298     -44126.86      -50210.377      224.80124     -0.02276406     0.6865        -0.045528119  
   1374000   242.82631     -44425.118     -50353.92      -134.1362       0.013143062    0.687          0.026286124  
   1375000   245.31241     -44296.763     -50286.266     -33.622993      0.0041246682   0.6875         0.0082493365 
   1376000   244.62516     -44370.382     -50343.104     -97.425389      0.0078018742   0.688          0.015603748  
   1377000   250.97216     -44189.914     -50317.603      71.45089      -0.0078561808   0.6885        -0.015712362  
   1378000   247.69749     -44277.219     -50324.955     -37.189878      0.0028384029   0.689          0.0056768057 
   1379000   247.57646     -44322.179     -50366.96      -210.74673      0.021609571    0.6895         0.043219142  
   1380000   246.55738     -44290.568     -50310.467     -160.50063      0.012385663    0.69           0.024771326  
   1381000   243.16485     -44396.518     -50333.586     -326.63364      0.033469713    0.6905         0.066939426  
   1382000   246.07356     -44336.381     -50344.468      150.54138     -0.015906052    0.691         -0.031812104  
   1383000   246.97491     -44334.519     -50364.613      94.520464     -0.008119367    0.6915        -0.016238734  
   1384000   247.28426     -44449.173     -50486.82      -143.58819      0.014901084    0.692          0.029802167  
   1385000   246.01682     -44289.74      -50296.441      85.608302     -0.0088241848   0.6925        -0.01764837   
   1386000   248.5519      -44288.682     -50357.279     -30.588934     -0.0015473438   0.693         -0.0030946877 
   1387000   242.07985     -44398.412     -50308.989     -218.01152      0.022001156    0.6935         0.044002312  
   1388000   245.22258     -44408.777     -50396.086     -46.116939      0.0065080674   0.694          0.013016135  
   1389000   246.67149     -44336.728     -50359.413      5.9592897      0.0020115242   0.6945         0.0040230485 
   1390000   245.48769     -44294.259     -50288.041     -76.323533      0.0077477599   0.695          0.01549552   
   1391000   240.21656     -44467.617     -50332.7        69.804132     -0.0049408947   0.6955        -0.0098817894 
   1392000   247.12101     -44142.746     -50176.407     -151.02036      0.014459481    0.696          0.028918962  
   1393000   246.25133     -44380.814     -50393.241     -99.015668      0.0096595197   0.6965         0.019319039  
   1394000   249.15321     -44148.222     -50231.501      40.492748     -0.003324865    0.697         -0.0066497299 
   1395000   244.42321     -44417.431     -50385.223      164.84168     -0.015031858    0.6975        -0.030063716  
   1396000   244.48118     -44372.412     -50341.619     -107.20317      0.010036331    0.698          0.020072662  
   1397000   245.28749     -44335.256     -50324.15       28.288705     -0.00050897767  0.6985        -0.0010179553 
   1398000   243.02945     -44387.294     -50321.056      110.48577     -0.011252821    0.699         -0.022505641  
   1399000   247.47687     -44131.493     -50173.842     -13.595991      0.0034514519   0.6995         0.0069029038 
   1400000   251.4132      -44136.088     -50274.546      183.31201     -0.01910968     0.7           -0.03821936   
Loop time of 473.465 on 56 procs for 100000 steps with 12288 atoms

Performance: 18.248 ns/day, 1.315 hours/ns, 211.209 timesteps/s, 2.595 Matom-step/s
99.8% CPU use with 56 MPI tasks x no OpenMP threads

MPI task timing breakdown:
Section |  min time  |  avg time  |  max time  |%varavg| %total
---------------------------------------------------------------
Pair    | 185.94     | 195.18     | 207.77     |  28.9 | 41.22
Bond    | 0.015489   | 0.024705   | 0.043407   |   2.8 |  0.01
Kspace  | 140.43     | 152.44     | 162.2      |  33.1 | 32.20
Neigh   | 21.446     | 21.456     | 21.464     |   0.1 |  4.53
Comm    | 15.803     | 16.754     | 18.802     |  15.4 |  3.54
Output  | 0.22255    | 0.39867    | 0.56771    |  16.2 |  0.08
Modify  | 72.278     | 76.695     | 85.277     |  36.1 | 16.20
Other   |            | 10.51      |            |       |  2.22

Nlocal:        219.429 ave         241 max         200 min
Histogram: 2 1 7 12 12 8 6 4 2 2
Nghost:        7001.79 ave        7091 max        6938 min
Histogram: 5 8 8 11 4 3 10 3 2 2
Neighs:        96068.2 ave      107171 max       86738 min
Histogram: 1 2 8 14 9 8 8 3 2 1

Total # of neighbors = 5379818
Ave neighs/atom = 437.81071
Ave special neighs/atom = 2
Neighbor list builds = 1876
Dangerous builds = 0
kspace_style pppm/tip4p 1.0e-5
next nloop
jump SELF loop_start
run 100000 # 100ps
PPPM initialization ...
  extracting TIP4P info from pair style
  using 12-bit tables for long-range coulomb
  G vector (1/distance) = 0.33068657
  grid = 50 64 50
  stencil order = 5
  estimated absolute RMS force accuracy = 0.0030783844
  estimated relative force accuracy = 9.2704631e-06
  using double precision KISS FFT
  3d grid and FFT values/proc = 13600 3200
Generated 0 of 1 mixed pair_coeff terms from geometric mixing rule
Per MPI rank memory allocation (min/avg/max) = 11.07 | 11.19 | 11.29 Mbytes
   Step          Temp          TotEng         PotEng          Pxy           v_sxy         v_strain     v_viscosity  
   1400000   251.41309     -44136.093     -50274.549      184.36861     -0.019217544    0.7           -0.038435087  
   1401000   245.43339     -44363.963     -50356.419     -289.93225      0.028088887    0.7005         0.056177774  
   1402000   248.16612     -44149.681     -50208.859     -191.9405       0.015394253    0.701          0.030788507  
   1403000   247.83485     -44232.883     -50283.972     -68.51269       0.0082349307   0.7015         0.016469861  
   1404000   247.63062     -44192.955     -50239.058     -375.44238      0.036381573    0.702          0.072763146  
   1405000   244.41067     -44273.68      -50241.166     -240.96567      0.020627393    0.7025         0.041254785  
   1406000   244.71054     -44375.458     -50350.265     -322.61376      0.031096344    0.703          0.062192688  
   1407000   243.69413     -44513.422     -50463.413     -172.71978      0.015189613    0.7035         0.030379226  
   1408000   244.9813      -44404.946     -50386.364     -128.87525      0.016139447    0.704          0.032278893  
   1409000   244.04232     -44381.205     -50339.697      28.726038     -0.0010167604   0.7045        -0.0020335208 
   1410000   244.24035     -44359.316     -50322.643      85.188284     -0.0092769697   0.705         -0.018553939  
   1411000   245.68008     -44359.28      -50357.759     -21.861676      0.0046277528   0.7055         0.0092555056 
   1412000   247.93371     -44257.968     -50311.472      26.328377     -0.0039205993   0.706         -0.0078411986 
   1413000   242.56465     -44242.289     -50164.702      21.805149      0.00070136288  0.7065         0.0014027258 
   1414000   247.60806     -44209.132     -50254.684     -10.946769      0.00082587319  0.707          0.0016517464 
   1415000   244.61686     -44448.032     -50420.552     -30.37445       0.0013641368   0.7075         0.0027282737 
   1416000   244.53299     -44270.347     -50240.819     -304.4704       0.031258646    0.708          0.062517292  
   1417000   245.11416     -44321.174     -50305.836     -188.80234      0.018735065    0.7085         0.03747013   
   1418000   245.62564     -44213.31      -50210.46       36.473353     -0.0043474269   0.709         -0.0086948539 
   1419000   246.81491     -44293.045     -50319.232     -114.40432      0.013317532    0.7095         0.026635064  
   1420000   245.90247     -44344.013     -50347.922     -131.49251      0.01138549     0.71           0.02277098   
   1421000   243.29336     -44349.81      -50290.015     -37.936619      0.0022733149   0.7105         0.0045466298 
   1422000   248.85513     -44291.545     -50367.546     -285.7924       0.029580118    0.711          0.059160236  
   1423000   246.2215      -44209.548     -50221.246     -183.51363      0.016436989    0.7115         0.032873977  
   1424000   251.02382     -44190.569     -50319.52       56.660963     -0.0050583455   0.712         -0.010116691  
   1425000   245.93962     -44414.779     -50419.596      28.59866       0.0017678675   0.7125         0.0035357349 
   1426000   247.7328      -44205.278     -50253.877      135.90098     -0.017290138    0.713         -0.034580275  
   1427000   247.60449     -44196.565     -50242.031      332.33423     -0.033443759    0.7135        -0.066887519  
   1428000   243.76104     -44411.926     -50363.55      -9.9035067      0.004535164    0.714          0.0090703279 
   1429000   247.94828     -44160.072     -50213.931     -113.39472      0.0093607812   0.7145         0.018721562  
   1430000   244.25606     -44377.216     -50340.927     -107.44222      0.0066488958   0.715          0.013297792  
   1431000   249.54546     -44187.083     -50279.939     -46.27744       0.002589595    0.7155         0.00517919   
   1432000   244.77006     -44266.03      -50242.29      -32.411713      0.0025645733   0.716          0.0051291466 
   1433000   247.74547     -44247.502     -50296.409     -267.44239      0.026855557    0.7165         0.053711115  
   1434000   248.25801     -44219.256     -50280.678     -133.17596      0.013287601    0.717          0.026575202  
   1435000   248.38854     -44328.259     -50392.867     -294.2519       0.028492903    0.7175         0.056985807  
   1436000   245.78879     -44346.716     -50347.849     -42.921095      0.0054837905   0.718          0.010967581  
   1437000   244.36692     -44233.019     -50199.436      156.82972     -0.014990803    0.7185        -0.029981605  
   1438000   242.51865     -44188.587     -50109.877     -108.1137       0.010268859    0.719          0.020537717  
   1439000   244.55955     -44425.064     -50396.184     -164.3946       0.013488662    0.7195         0.026977323  
   1440000   248.52944     -44282.617     -50350.666     -165.78928      0.015784206    0.72           0.031568412  
   1441000   249.41606     -44345.129     -50434.825     -46.73244       0.0061775469   0.7205         0.012355094  
   1442000   245.65085     -44343.293     -50341.059      131.8047      -0.010060568    0.721         -0.020121137  
   1443000   250.79246     -44189.306     -50312.609     -93.61356       0.0077924934   0.7215         0.015584987  
   1444000   246.70241     -44386.507     -50409.948      1.0127631     -0.0023197214   0.722         -0.0046394427 
   1445000   246.43906     -44207.378     -50224.388      114.46156     -0.012607851    0.7225        -0.025215701  
   1446000   248.97739     -44194.626     -50273.612      40.878772     -0.0035099425   0.723         -0.0070198851 
   1447000   242.95187     -44312.993     -50244.861     -107.62503      0.011004984    0.7235         0.022009968  
   1448000   246.28138     -44287.982     -50301.143     -265.2037       0.026157668    0.724          0.052315337  
   1449000   243.90378     -44320.824     -50275.933     -162.56866      0.014291303    0.7245         0.028582606  
   1450000   245.80258     -44170.679     -50172.149     -270.89578      0.029869276    0.725          0.059738553  
   1451000   245.13197     -44323.3       -50308.397      3.8764091      0.00095419665  0.7255         0.0019083933 
   1452000   248.48846     -44353.158     -50420.206      107.61146     -0.011986045    0.726         -0.02397209   
   1453000   246.69488     -44242.342     -50265.599      305.42789     -0.032514153    0.7265        -0.065028307  
   1454000   247.23595     -44354.63      -50391.097     -104.35292      0.013997534    0.727          0.027995068  
   1455000   250.98537     -44147.315     -50275.328      161.35284     -0.017208813    0.7275        -0.034417626  
   1456000   245.15029     -44352.607     -50338.151     -299.31149      0.027860884    0.728          0.055721768  
   1457000   249.6357      -44052.124     -50147.183      39.521252     -0.0025772673   0.7285        -0.0051545346 
   1458000   245.8844      -44083.042     -50086.51       196.89739     -0.020149789    0.729         -0.040299578  
   1459000   245.47695     -44363.538     -50357.058      39.119999     -0.0059664648   0.7295        -0.01193293   
   1460000   243.75569     -44321.299     -50272.793      25.938036      0.00013173242  0.73           0.00026346483
   1461000   243.12763     -44319.631     -50255.791      182.25771     -0.021395895    0.7305        -0.042791791  
   1462000   247.19898     -44234.391     -50269.956     -26.734482      0.0042138158   0.731          0.0084276316 
   1463000   251.2765      -44212.681     -50347.801     -213.00969      0.020858733    0.7315         0.041717465  
   1464000   246.28704     -44454.019     -50467.317     -11.332955      0.0027306551   0.732          0.0054613102 
   1465000   247.0431      -44293.006     -50324.764     -120.77141      0.0128992      0.7325         0.025798399  
   1466000   247.97966     -44243.209     -50297.834     -353.73403      0.031937277    0.733          0.063874553  
   1467000   246.81531     -44360.626     -50386.823     -7.8660952     -0.0004749135   0.7335        -0.00094982699
   1468000   251.51284     -44119.034     -50259.925      28.627216     -0.0029612907   0.734         -0.0059225814 
   1469000   243.52883     -44514.58      -50460.535      232.85742     -0.022212823    0.7345        -0.044425646  
   1470000   246.32543     -44398.049     -50412.285     -37.452698      0.00055864979  0.735          0.0011172996 
   1471000   245.42531     -44351.535     -50343.794      296.7119      -0.027624981    0.7355        -0.055249961  
   1472000   245.21714     -44443.293     -50430.469     -249.06         0.0223698      0.736          0.0447396    
   1473000   243.75975     -44378.463     -50330.056      39.937301     -0.0056204441   0.7365        -0.011240888  
   1474000   247.41486     -44209.732     -50250.567     -499.87649      0.049601028    0.737          0.099202056  
   1475000   248.18113     -44281.267     -50340.812     -100.80582      0.010931059    0.7375         0.021862119  
   1476000   246.80471     -44218.428     -50244.366     -169.47716      0.016377019    0.738          0.032754039  
   1477000   250.73551     -44109.957     -50231.869      57.168209     -0.0019681092   0.7385        -0.0039362183 
   1478000   240.76181     -44423.779     -50302.175      175.77514     -0.021361176    0.739         -0.042722352  
   1479000   249.39065     -44130.525     -50219.601     -156.88585      0.016545331    0.7395         0.033090662  
   1480000   243.47934     -44220.226     -50164.973     -133.72873      0.011752633    0.74           0.023505265  
   1481000   250.09399     -44144.429     -50250.677     -232.30432      0.025197981    0.7405         0.050395962  
   1482000   245.47921     -44432.934     -50426.509      5.8106913     -0.001691315    0.741         -0.0033826299 
   1483000   252.28397     -44082.235     -50241.953      8.1907521      0.00095496492  0.7415         0.0019099298 
   1484000   239.8168      -44486.335     -50341.657      135.02356     -0.015119283    0.742         -0.030238566  
   1485000   250.70044     -44139.737     -50260.792     -101.83793      0.0074179238   0.7425         0.014835848  
   1486000   243.81383     -44391.087     -50344         -85.449656      0.0091707998   0.743          0.0183416    
   1487000   249.55933     -44054.916     -50148.111     -62.743708      0.0049206907   0.7435         0.0098413815 
   1488000   244.99632     -44293.869     -50275.654      337.73415     -0.031790798    0.744         -0.063581595  
   1489000   244.159       -44243.587     -50204.928      144.43673     -0.012922132    0.7445        -0.025844264  
   1490000   246.44811     -44232.974     -50250.206     -182.49345      0.021491396    0.745          0.042982791  
   1491000   245.25315     -44302.539     -50290.594      15.272948      0.00014063133  0.7455         0.00028126265
   1492000   247.16461     -44268.291     -50303.016     -177.28794      0.018291923    0.746          0.036583847  
   1493000   244.16169     -44277.482     -50238.889     -29.944554      0.0012591051   0.7465         0.0025182103 
   1494000   246.93037     -44180.085     -50209.091     -85.982936      0.0059936448   0.747          0.01198729   
   1495000   245.26366     -44186.886     -50175.199     -224.44114      0.023974065    0.7475         0.047948129  
   1496000   243.73961     -44264.431     -50215.532      190.51686     -0.020991664    0.748         -0.041983327  
   1497000   245.44595     -44275.725     -50268.488     -451.84665      0.047315436    0.7485         0.094630871  
   1498000   242.31398     -44335.545     -50251.838     -334.50447      0.034601021    0.749          0.069202043  
   1499000   245.76343     -44149.883     -50150.398      25.702303      0.0022988054   0.7495         0.0045976107 
   1500000   249.91079     -44145.97      -50247.746     -62.299493      0.0063921411   0.75           0.012784282  
Loop time of 449.36 on 56 procs for 100000 steps with 12288 atoms

Performance: 19.227 ns/day, 1.248 hours/ns, 222.539 timesteps/s, 2.735 Matom-step/s
99.8% CPU use with 56 MPI tasks x no OpenMP threads

MPI task timing breakdown:
Section |  min time  |  avg time  |  max time  |%varavg| %total
---------------------------------------------------------------
Pair    | 185.67     | 193.95     | 201.01     |  25.1 | 43.16
Bond    | 0.016118   | 0.023516   | 0.041503   |   2.5 |  0.01
Kspace  | 130.75     | 137.71     | 145.59     |  29.3 | 30.65
Neigh   | 22.034     | 22.044     | 22.052     |   0.1 |  4.91
Comm    | 15.293     | 16.187     | 17.547     |  15.5 |  3.60
Output  | 0.22173    | 0.39766    | 0.56664    |  16.2 |  0.09
Modify  | 65.553     | 69.235     | 76.915     |  33.3 | 15.41
Other   |            | 9.808      |            |       |  2.18

Nlocal:        219.429 ave         236 max         205 min
Histogram: 4 6 3 5 16 9 5 3 3 2
Nghost:        6959.66 ave        7010 max        6913 min
Histogram: 4 6 7 4 5 9 8 9 2 2
Neighs:        96041.9 ave      104453 max       89417 min
Histogram: 3 7 5 7 10 13 4 3 3 1

Total # of neighbors = 5378349
Ave neighs/atom = 437.69116
Ave special neighs/atom = 2
Neighbor list builds = 1874
Dangerous builds = 0
kspace_style pppm/tip4p 1.0e-5
next nloop
jump SELF loop_start
run 100000 # 100ps
PPPM initialization ...
  extracting TIP4P info from pair style
  using 12-bit tables for long-range coulomb
  G vector (1/distance) = 0.3306794
  grid = 50 64 50
  stencil order = 5
  estimated absolute RMS force accuracy = 0.0030797115
  estimated relative force accuracy = 9.2744596e-06
  using double precision KISS FFT
  3d grid and FFT values/proc = 13600 3200
Generated 0 of 1 mixed pair_coeff terms from geometric mixing rule
Per MPI rank memory allocation (min/avg/max) = 11.07 | 11.19 | 11.29 Mbytes
   Step          Temp          TotEng         PotEng          Pxy           v_sxy         v_strain     v_viscosity  
   1500000   249.91051     -44145.974     -50247.743     -61.207364      0.0062807007   0.75           0.012561401  
   1501000   247.44416     -44325.406     -50366.957     -63.951095      0.0086448361   0.7505         0.017289672  
   1502000   249.07651     -44278.656     -50360.062     -165.44881      0.016075051    0.751          0.032150103  
   1503000   250.52464     -44174.321     -50291.084      39.589568     -0.0035918994   0.7515        -0.0071837987 
   1504000   244.81956     -44303.524     -50280.993      204.95612     -0.019711958    0.752         -0.039423915  
   1505000   244.76435     -44248.545     -50224.666      49.0375       -0.0044823374   0.7525        -0.0089646747 
   1506000   245.19665     -44363.164     -50349.84      -195.28447      0.017923637    0.753          0.035847274  
   1507000   244.11247     -44256.188     -50216.393      5.6325208     -0.002100713    0.7535        -0.0042014261 
   1508000   248.49735     -44180.418     -50247.684      19.348108     -0.0028545397   0.754         -0.0057090795 
   1509000   244.34907     -44336.992     -50302.974      29.860994     -0.001790171    0.7545        -0.0035803419 
   1510000   247.85724     -44034.004     -50085.641      68.734837     -0.0015769751   0.755         -0.0031539501 
   1511000   246.08078     -44229.632     -50237.895     -235.45705      0.026890207    0.7555         0.053780415  
   1512000   244.42624     -44343.928     -50311.793     -11.828984      0.00059120543  0.756          0.0011824109 
   1513000   248.49426     -44119.901     -50187.091     -205.13055      0.022264545    0.7565         0.04452909   
   1514000   245.77848     -44284.804     -50285.686     -89.004666      0.0078140665   0.757          0.015628133  
   1515000   246.55788     -44127.54      -50147.452      12.006735     -0.00039826924  0.7575        -0.00079653848
   1516000   243.45302     -44300.006     -50244.11       74.850739     -0.006427968    0.758         -0.012855936  
   1517000   243.50002     -44212.31      -50157.562     -85.098464      0.0078115769   0.7585         0.015623154  
   1518000   245.81505     -44351.199     -50352.974     -5.138618       0.0016888307   0.759          0.0033776614 
   1519000   247.0457      -44148.936     -50180.758     -125.79481      0.012820956    0.7595         0.025641912  
   1520000   247.23316     -44307.777     -50344.177     -56.029292      0.0052863275   0.76           0.010572655  
   1521000   248.09262     -44200.018     -50257.402     -16.233975      0.0020837063   0.7605         0.0041674127 
   1522000   248.88728     -44211.639     -50288.425      37.70571      -0.0042712292   0.761         -0.0085424584 
   1523000   243.83701     -44370.837     -50324.316     -61.849722      0.0027316434   0.7615         0.0054632869 
   1524000   246.76558     -44370.305     -50395.288     -325.5197       0.035794639    0.762          0.071589278  
   1525000   244.46588     -44399.625     -50368.459      205.64754     -0.020753717    0.7625        -0.041507435  
   1526000   242.73178     -44189.73      -50116.224     -100.22063      0.011374541    0.763          0.022749083  
   1527000   244.71784     -44228.18      -50203.166      73.224865     -0.0042222453   0.7635        -0.0084444906 
   1528000   244.27191     -44290.873     -50254.971     -96.045779      0.0093076306   0.764          0.018615261  
   1529000   247.73559     -44288.089     -50336.755     -3.2614815      0.0015935653   0.7645         0.0031871306 
   1530000   244.5093      -44465.317     -50435.211     -103.84047      0.0089534492   0.765          0.017906898  
   1531000   246.39259     -44299.427     -50315.303      39.152095     -0.0037376476   0.7655        -0.0074752952 
   1532000   244.75335     -44318.434     -50294.287     -12.020325      0.0025944508   0.766          0.0051889015 
   1533000   243.79318     -44376.587     -50328.996     -121.96763      0.012339646    0.7665         0.024679293  
   1534000   246.56321     -44282.979     -50303.021     -233.19541      0.022648467    0.767          0.045296934  
   1535000   246.41123     -44312.447     -50328.778     -31.294671      0.0042434309   0.7675         0.0084868617 
   1536000   245.64587     -44352.648     -50350.292      33.929243     -0.0026969694   0.768         -0.0053939388 
   1537000   245.04306     -44349.369     -50332.295     -214.62244      0.02107555     0.7685         0.0421511    
   1538000   246.3535      -44268.096     -50283.018      66.742977     -0.0095220343   0.769         -0.019044069  
   1539000   244.01412     -44275.633     -50233.436     -523.49013      0.048853098    0.7695         0.097706196  
   1540000   244.70071     -44349.089     -50323.656     -38.206582      0.0028231382   0.77           0.0056462764 
   1541000   246.65659     -44254.832     -50277.154     -319.9485       0.032832932    0.7705         0.065665865  
   1542000   243.58923     -44436.599     -50384.028     -330.26118      0.03217182     0.771          0.06434364   
   1543000   248.53164     -44196.82      -50264.923     -135.19751      0.013308001    0.7715         0.026616001  
   1544000   249.70503     -44322.74      -50419.492     -24.699471      0.0026154154   0.772          0.0052308307 
   1545000   247.47292     -44360.184     -50402.437     -122.93288      0.009469896    0.7725         0.018939792  
   1546000   244.54303     -44393.472     -50364.19      -48.763124      0.0057513316   0.773          0.011502663  
   1547000   244.55811     -44400.818     -50371.903     -59.492948      0.0064159114   0.7735         0.012831823  
   1548000   242.12665     -44435.418     -50347.138     -85.506563      0.0067269498   0.774          0.0134539    
   1549000   249.01105     -44166.674     -50246.482     -276.33738      0.028841149    0.7745         0.057682298  
   1550000   243.19436     -44458.733     -50396.522     -106.00197      0.01434552     0.775          0.02869104   
   1551000   245.7124      -44368.297     -50367.566     -107.98361      0.0074450833   0.7755         0.014890167  
   1552000   248.714       -44305.39      -50377.945      307.67926     -0.028852642    0.776         -0.057705283  
   1553000   244.21539     -44435.1       -50397.817     -257.7533       0.029106061    0.7765         0.058212123  
   1554000   246.32195     -44281.404     -50295.556     -37.083688      0.0078741111   0.777          0.015748222  
   1555000   246.12026     -44272.051     -50281.278      146.83154     -0.015802793    0.7775        -0.031605586  
   1556000   246.38746     -44335.462     -50351.213     -112.59854      0.0093632786   0.778          0.018726557  
   1557000   241.85558     -44426.063     -50331.164      47.259394     -0.0040155181   0.7785        -0.0080310362 
   1558000   241.91952     -44367.045     -50273.707     -339.01417      0.034599642    0.779          0.069199283  
   1559000   245.12574     -44307.625     -50292.569     -49.990617      0.01044242     0.7795         0.020884839  
   1560000   246.26611     -44328.621     -50341.409      83.632268     -0.0042530115   0.78          -0.008506023  
   1561000   246.63949     -44319.33      -50341.235      178.95326     -0.012779584    0.7805        -0.025559168  
   1562000   244.68041     -44289.107     -50263.179     -121.08747      0.010918689    0.781          0.021837378  
   1563000   250.60808     -44327.12      -50445.921     -129.81741      0.015288339    0.7815         0.030576677  
   1564000   248.2251      -44421.037     -50481.655     -199.19355      0.018987644    0.782          0.037975287  
   1565000   244.60241     -44469.23      -50441.397      261.88754     -0.021704727    0.7825        -0.043409454  
   1566000   246.76166     -44367.904     -50392.791     -62.562394      0.0049951356   0.783          0.0099902712 
   1567000   247.91919     -44382.002     -50435.151     -166.96915      0.013958369    0.7835         0.027916739  
   1568000   245.00993     -44336.435     -50318.552     -7.9018394      0.0033635424   0.784          0.0067270849 
   1569000   243.99681     -44361.573     -50318.955     -61.218588      0.0063026272   0.7845         0.012605254  
   1570000   249.54456     -44354.014     -50446.848     -94.252153      0.011541455    0.785          0.023082911  
   1571000   246.20818     -44330.259     -50341.632     -314.81586      0.029591464    0.7855         0.059182928  
   1572000   241.56634     -44533.48      -50431.519      107.21547     -0.0071542963   0.786         -0.014308593  
   1573000   247.7482      -44287.052     -50336.026      249.70334     -0.021305924    0.7865        -0.042611847  
   1574000   247.87951     -44153.63      -50205.811     -36.383287      0.0034949523   0.787          0.0069899046 
   1575000   247.17703     -44302.832     -50337.86      -145.37007      0.016288906    0.7875         0.032577811  
   1576000   246.98386     -44333.484     -50363.797      244.31443     -0.027779345    0.788         -0.055558689  
   1577000   246.58396     -44205.884     -50226.432     -0.85377021     0.0012920403   0.7885         0.0025840806 
   1578000   245.90802     -44373.782     -50377.827      69.206433     -0.0070853104   0.789         -0.014170621  
   1579000   250.27575     -44251.816     -50362.502      184.254       -0.019112776    0.7895        -0.038225552  
   1580000   244.8672      -44328.153     -50306.785      241.0007      -0.026600389    0.79          -0.053200777  
   1581000   246.09389     -44392.567     -50401.15      -145.19581      0.012223065    0.7905         0.024446129  
   1582000   245.41105     -44447.749     -50439.66       214.97042     -0.020309399    0.791         -0.040618798  
   1583000   244.88311     -44410.125     -50389.146     -15.597397      0.0027341513   0.7915         0.0054683026 
   1584000   251.38146     -44186.125     -50323.809      125.0415      -0.013457832    0.792         -0.026915663  
   1585000   247.69768     -44277.624     -50325.365     -197.31578      0.019344679    0.7925         0.038689359  
   1586000   242.94439     -44377.849     -50309.534     -369.54712      0.034198335    0.793          0.06839667   
   1587000   244.06391     -44335.63      -50294.65      -284.67138      0.031034509    0.7935         0.062069018  
   1588000   249.57505     -44275.518     -50369.096     -181.44316      0.014654399    0.794          0.029308798  
   1589000   242.13996     -44635.858     -50547.903     -249.61906      0.026902592    0.7945         0.053805185  
   1590000   245.81833     -44231.335     -50233.19       213.18187     -0.023540733    0.795         -0.047081465  
   1591000   246.58671     -44204.015     -50224.63      -75.058819      0.0085594964   0.7955         0.017118993  
   1592000   245.85826     -44309.851     -50312.681      41.825776     -0.0054637234   0.796         -0.010927447  
   1593000   249.12515     -44236.751     -50319.344     -269.43673      0.025925292    0.7965         0.051850583  
   1594000   243.45663     -44339.857     -50284.049     -293.53059      0.031919878    0.797          0.063839756  
   1595000   244.35754     -44276.728     -50242.917      103.60797     -0.0066708354   0.7975        -0.013341671  
   1596000   249.66564     -44133.354     -50229.144     -116.50055      0.013993081    0.798          0.027986162  
   1597000   244.2052      -44424.759     -50387.228     -192.54379      0.016933697    0.7985         0.033867393  
   1598000   246.74076     -44238.201     -50262.578     -100.82124      0.011090523    0.799          0.022181046  
   1599000   245.56549     -44255.736     -50251.418     -258.74641      0.022652983    0.7995         0.045305967  
   1600000   245.0541      -44295.128     -50278.323     -221.96735      0.019554943    0.8            0.039109887  
Loop time of 449.767 on 56 procs for 100000 steps with 12288 atoms

Performance: 19.210 ns/day, 1.249 hours/ns, 222.337 timesteps/s, 2.732 Matom-step/s
99.8% CPU use with 56 MPI tasks x no OpenMP threads

MPI task timing breakdown:
Section |  min time  |  avg time  |  max time  |%varavg| %total
---------------------------------------------------------------
Pair    | 182.67     | 193.62     | 203.68     |  27.4 | 43.05
Bond    | 0.015876   | 0.023466   | 0.042045   |   2.5 |  0.01
Kspace  | 129.04     | 138.66     | 148.13     |  32.5 | 30.83
Neigh   | 21.912     | 21.92      | 21.927     |   0.1 |  4.87
Comm    | 15.125     | 16.053     | 17.476     |  13.8 |  3.57
Output  | 0.22256    | 0.39912    | 0.56959    |  16.2 |  0.09
Modify  | 65.593     | 69.231     | 77.008     |  33.6 | 15.39
Other   |            | 9.866      |            |       |  2.19

Nlocal:        219.429 ave         241 max         197 min
Histogram: 1 2 6 9 6 13 10 5 1 3
Nghost:        6929.23 ave        7012 max        6864 min
Histogram: 4 3 7 9 11 12 4 3 2 1
Neighs:        96066.3 ave      106509 max       86810 min
Histogram: 3 5 4 10 8 10 8 4 1 3

Total # of neighbors = 5379713
Ave neighs/atom = 437.80216
Ave special neighs/atom = 2
Neighbor list builds = 1876
Dangerous builds = 0
kspace_style pppm/tip4p 1.0e-5
next nloop
jump SELF loop_start
run 100000 # 100ps
PPPM initialization ...
  extracting TIP4P info from pair style
  using 12-bit tables for long-range coulomb
  G vector (1/distance) = 0.3306392
  grid = 50 60 50
  stencil order = 5
  estimated absolute RMS force accuracy = 0.0030871586
  estimated relative force accuracy = 9.2968865e-06
  using double precision KISS FFT
  3d grid and FFT values/proc = 13056 3200
Generated 0 of 1 mixed pair_coeff terms from geometric mixing rule
Per MPI rank memory allocation (min/avg/max) = 11.03 | 11.15 | 11.23 Mbytes
   Step          Temp          TotEng         PotEng          Pxy           v_sxy         v_strain     v_viscosity  
   1600000   245.05415     -44295.123     -50278.319     -221.12584      0.019469443    0.8            0.038938886  
   1601000   245.57164     -44300.918     -50296.75       102.85164     -0.010453099    0.8005        -0.020906198  
   1602000   245.33415     -44390.265     -50380.299     -57.53043       0.006873373    0.801          0.013746746  
   1603000   245.78605     -44356.933     -50357.999     -212.1408       0.018271767    0.8015         0.036543535  
   1604000   244.21985     -44479.085     -50441.912     -24.673409     -0.0017399393   0.802         -0.0034798786 
   1605000   246.65355     -44266.407     -50288.655     -171.09501      0.017869994    0.8025         0.035739989  
   1606000   246.3689      -44528.264     -50543.562      188.30845     -0.019071024    0.803         -0.038142048  
   1607000   245.78962     -44383.851     -50385.005      37.314725     -0.0010155552   0.8035        -0.0020311104 
   1608000   246.8251      -44363.913     -50390.349     -127.25434      0.013202239    0.804          0.026404478  
   1609000   243.48113     -44450.688     -50395.478     -143.04364      0.014278055    0.8045         0.02855611   
   1610000   242.2218      -44439.546     -50353.589     -10.823996      0.00071736747  0.805          0.0014347349 
   1611000   247.55944     -44224.557     -50268.923      32.394677     -0.003075809    0.8055        -0.006151618  
   1612000   245.50251     -44413.274     -50407.418     -21.74213       0.0032676582   0.806          0.0065353163 
   1613000   241.77568     -44337.334     -50240.485     -175.87129      0.017329287    0.8065         0.034658573  
   1614000   249.33526     -44225.436     -50313.159      149.51589     -0.015593865    0.807         -0.03118773   
   1615000   247.9764      -44215.304     -50269.85      -164.40774      0.015633072    0.8075         0.031266145  
   1616000   243.32587     -44254.546     -50195.545      82.088206     -0.0064067449   0.808         -0.01281349   
   1617000   247.23509     -44050.361     -50086.807     -52.026527      0.000806617    0.8085         0.001613234  
   1618000   246.64287     -44070.318     -50092.305      363.3935      -0.035320774    0.809         -0.070641547  
   1619000   244.91197     -44282.883     -50262.608      23.082348     -0.0033633032   0.8095        -0.0067266065 
   1620000   242.58348     -44336.315     -50259.188      100.81146     -0.012137642    0.81          -0.024275284  
   1621000   247.07085     -44185.776     -50218.212     -536.88981      0.049339224    0.8105         0.098678448  
   1622000   243.82195     -44238.842     -50191.954      102.61867     -0.014152642    0.811         -0.028305285  
   1623000   245.31049     -44278.174     -50267.63      -97.109299      0.0092220449   0.8115         0.01844409   
   1624000   247.11755     -44207.806     -50241.382     -60.336603      0.0030152824   0.812          0.0060305648 
   1625000   242.49342     -44322.13      -50242.804     -210.909        0.021962846    0.8125         0.043925691  
   1626000   249.55495     -44015.353     -50108.44       135.63322     -0.010473431    0.813         -0.020946862  
   1627000   243.73282     -44276.398     -50227.334     -251.56156      0.029172919    0.8135         0.058345838  
   1628000   249.45454     -44056.856     -50147.492      75.957536     -0.0088634269   0.814         -0.017726854  
   1629000   244.26061     -44373.034     -50336.856      50.043765     -0.0084520619   0.8145        -0.016904124  
   1630000   244.34826     -44196.331     -50162.293      106.36187     -0.010514668    0.815         -0.021029336  
   1631000   239.71457     -44401.584     -50254.41       95.539279     -0.010772058    0.8155        -0.021544117  
   1632000   243.07565     -44287.276     -50222.167     -65.534013      0.0060000283   0.816          0.012000057  
   1633000   247.73587     -44176.077     -50224.75       194.22002     -0.018660845    0.8165        -0.037321691  
   1634000   246.15222     -44231.081     -50241.088     -268.50053      0.023390681    0.817          0.046781362  
   1635000   243.40692     -44371.628     -50314.606      117.50074     -0.0078556947   0.8175        -0.015711389  
   1636000   247.23747     -44254.704     -50291.208     -124.00583      0.015167554    0.818          0.030335108  
   1637000   247.64188     -44212.023     -50258.401      130.07175     -0.012618933    0.8185        -0.025237866  
   1638000   247.59743     -44306.176     -50351.469      201.83501     -0.017415173    0.819         -0.034830345  
   1639000   248.02014     -44256.267     -50311.881     -133.28353      0.012551911    0.8195         0.025103823  
   1640000   240.87107     -44531.565     -50412.629     -57.846186      0.0099517052   0.82           0.01990341   
   1641000   248.72242     -44113.114     -50185.875      156.23853     -0.012844994    0.8205        -0.025689988  
   1642000   242.14571     -44375.909     -50288.094      204.48005     -0.019985216    0.821         -0.039970432  
   1643000   242.82443     -44313.595     -50242.351     -329.65639      0.033922624    0.8215         0.067845248  
   1644000   246.54996     -44291.671     -50311.389     -162.52938      0.016658688    0.822          0.033317376  
   1645000   246.34333     -44331.509     -50346.183     -142.8357       0.019123532    0.8225         0.038247065  
   1646000   246.84547     -44318.007     -50344.94       40.169727     -0.0076821569   0.823         -0.015364314  
   1647000   247.58075     -44192.968     -50237.854     -138.35501      0.013894239    0.8235         0.027788479  
   1648000   245.94647     -44391.035     -50396.019      10.182167     -0.0022168859   0.824         -0.0044337718 
   1649000   246.06069     -44279.29      -50287.062      221.10761     -0.021719982    0.8245        -0.043439964  
   1650000   248.03165     -44328.532     -50384.426      42.390497     -0.0052256652   0.825         -0.01045133   
   1651000   248.23207     -44272.375     -50333.163     -283.51623      0.031414599    0.8255         0.062829199  
   1652000   242.75572     -44355.809     -50282.888      157.13782     -0.012476208    0.826         -0.024952415  
   1653000   244.97586     -44170.8       -50152.085     -152.7637       0.012905158    0.8265         0.025810316  
   1654000   245.51248     -44329.386     -50323.773     -56.040094      0.0045566922   0.827          0.0091133844 
   1655000   245.1409      -44239.243     -50224.558     -470.63295      0.044395641    0.8275         0.088791282  
   1656000   241.26421     -44322.55      -50213.212      246.88102     -0.025875505    0.828         -0.05175101   
   1657000   243.94912     -44355.015     -50311.231      99.866175     -0.011002759    0.8285        -0.022005518  
   1658000   243.03281     -44435.833     -50369.678      104.51678     -0.012897178    0.829         -0.025794356  
   1659000   245.44697     -44250.242     -50243.03      -155.53396      0.016094135    0.8295         0.03218827   
   1660000   244.34445     -44458.548     -50424.417      185.10683     -0.018658148    0.83          -0.037316296  
   1661000   248.80507     -44191.808     -50266.587      2.0579403     -0.0029720353   0.8305        -0.0059440706 
   1662000   241.27401     -44371.524     -50262.425     -378.67884      0.0393325      0.831          0.078665     
   1663000   247.80737     -44338.778     -50389.197      179.24003     -0.014847419    0.8315        -0.029694839  
   1664000   247.53199     -44403.327     -50447.023     -303.78145      0.030322323    0.832          0.060644646  
   1665000   243.7894      -44422.602     -50374.919     -94.949728      0.010158095    0.8325         0.020316191  
   1666000   245.18714     -44196.654     -50183.098     -203.38063      0.016289759    0.833          0.032579518  
   1667000   246.36127     -44229.238     -50244.349     -250.26396      0.026617655    0.8335         0.053235311  
   1668000   248.8171      -44218.047     -50293.119     -25.718339      0.0031329431   0.834          0.0062658862 
   1669000   246.99392     -44270.699     -50301.257      66.426134     -0.0078142589   0.8345        -0.015628518  
   1670000   243.81335     -44283.16      -50236.061     -116.73725      0.01239349     0.835          0.024786981  
   1671000   245.64374     -44335.968     -50333.561     -247.29285      0.023922071    0.8355         0.047844141  
   1672000   248.69696     -44186.054     -50258.193      322.31181     -0.029332931    0.836         -0.058665862  
   1673000   244.5871      -44368.529     -50340.323      96.823242     -0.012808345    0.8365        -0.02561669   
   1674000   245.17337     -44274.137     -50260.244      145.26854     -0.01457916     0.837         -0.029158321  
   1675000   249.17766     -44225.538     -50309.413     -175.12622      0.015562181    0.8375         0.031124362  
   1676000   248.24588     -44234.957     -50296.083     -71.235652      0.0086120382   0.838          0.017224076  
   1677000   247.81542     -44331.914     -50382.53       191.04914     -0.021440109    0.8385        -0.042880217  
   1678000   244.16784     -44322.671     -50284.228      50.759697     -0.0036481532   0.839         -0.0072963064 
   1679000   244.66757     -44218.32      -50192.078      1.9301694     -0.0011929582   0.8395        -0.0023859165 
   1680000   243.58671     -44337.344     -50284.712     -190.33571      0.020286423    0.84           0.040572846  
   1681000   247.40586     -44138.237     -50178.852      143.28088     -0.013406914    0.8405        -0.026813828  
   1682000   247.20492     -44259.79      -50295.5       -78.164753      0.0074304319   0.841          0.014860864  
   1683000   245.81079     -44336.732     -50338.403      66.123672     -0.0052236276   0.8415        -0.010447255  
   1684000   243.9908      -44356.921     -50314.155      251.00336     -0.024606125    0.842         -0.04921225   
   1685000   242.67906     -44388.344     -50313.551     -33.230531      0.001090432    0.8425         0.0021808639 
   1686000   247.80268     -44180.715     -50231.02      -67.363154      0.0079471509   0.843          0.015894302  
   1687000   247.03219     -44316.987     -50348.48      -238.27083      0.024095801    0.8435         0.048191601  
   1688000   245.78631     -44380.365     -50381.438     -208.94369      0.023128563    0.844          0.046257126  
   1689000   245.1036      -44314.029     -50298.433     -14.252435      0.004546815    0.8445         0.0090936301 
   1690000   245.89439     -44255.906     -50259.618     -20.051765      0.001462823    0.845          0.0029256461 
   1691000   245.55203     -44269.517     -50264.87      -194.60017      0.015547609    0.8455         0.031095218  
   1692000   246.82217     -44246.951     -50273.316      31.905336      0.00057555367  0.846          0.0011511073 
   1693000   248.60089     -44201.467     -50271.26      -116.95739      0.013567424    0.8465         0.027134847  
   1694000   247.82553     -44266.772     -50317.634     -406.37306      0.039208511    0.847          0.078417023  
   1695000   247.60339     -44181.895     -50227.333      169.65437     -0.020137319    0.8475        -0.040274639  
   1696000   243.98471     -44269.736     -50226.821     -137.85334      0.014076843    0.848          0.028153685  
   1697000   251.38621     -44233.266     -50371.065     -18.088839      0.004090354    0.8485         0.0081807081 
   1698000   244.4551      -44314.556     -50283.126      299.57577     -0.023357265    0.849         -0.04671453   
   1699000   248.6044      -44218.765     -50288.644     -230.93499      0.02151682     0.8495         0.043033639  
   1700000   244.24123     -44532.449     -50495.798     -117.43755      0.013412301    0.85           0.026824601  
Loop time of 442.419 on 56 procs for 100000 steps with 12288 atoms

Performance: 19.529 ns/day, 1.229 hours/ns, 226.030 timesteps/s, 2.777 Matom-step/s
99.8% CPU use with 56 MPI tasks x no OpenMP threads

MPI task timing breakdown:
Section |  min time  |  avg time  |  max time  |%varavg| %total
---------------------------------------------------------------
Pair    | 186.51     | 193.1      | 197.6      |  19.2 | 43.65
Bond    | 0.017364   | 0.023383   | 0.043363   |   2.7 |  0.01
Kspace  | 127.66     | 132.22     | 138.95     |  23.3 | 29.89
Neigh   | 21.556     | 21.565     | 21.574     |   0.1 |  4.87
Comm    | 14.759     | 15.92      | 17.111     |  13.7 |  3.60
Output  | 0.22366    | 0.40002    | 0.56932    |  16.2 |  0.09
Modify  | 58.444     | 65.687     | 77.203     |  52.8 | 14.85
Other   |            | 13.5       |            |       |  3.05

Nlocal:        219.429 ave         235 max         196 min
Histogram: 2 0 5 6 9 2 8 15 3 6
Nghost:        6892.23 ave        6976 max        6828 min
Histogram: 4 5 9 5 8 12 7 4 0 2
Neighs:        96057.9 ave      103813 max       84174 min
Histogram: 2 0 4 5 7 8 6 15 3 6

Total # of neighbors = 5379245
Ave neighs/atom = 437.76408
Ave special neighs/atom = 2
Neighbor list builds = 1886
Dangerous builds = 0
kspace_style pppm/tip4p 1.0e-5
next nloop
jump SELF loop_start
run 100000 # 100ps
PPPM initialization ...
  extracting TIP4P info from pair style
  using 12-bit tables for long-range coulomb
  G vector (1/distance) = 0.33060714
  grid = 50 60 50
  stencil order = 5
  estimated absolute RMS force accuracy = 0.0030931089
  estimated relative force accuracy = 9.3148057e-06
  using double precision KISS FFT
  3d grid and FFT values/proc = 13056 3200
Generated 0 of 1 mixed pair_coeff terms from geometric mixing rule
Per MPI rank memory allocation (min/avg/max) = 11.03 | 11.15 | 11.23 Mbytes
   Step          Temp          TotEng         PotEng          Pxy           v_sxy         v_strain     v_viscosity  
   1700000   244.24073     -44532.461     -50495.798     -116.4052       0.013305996    0.85           0.026611993  
   1701000   247.58794     -44076.803     -50121.864      30.228253     -0.0025188418   0.8505        -0.0050376836 
   1702000   246.09635     -44356.998     -50365.641      183.34416     -0.015647558    0.851         -0.031295116  
   1703000   249.53567     -44206.001     -50298.618     -120.84383      0.01535158     0.8515         0.030703159  
   1704000   247.08772     -44161.065     -50193.913      19.84131       0.0023554321   0.852          0.0047108642 
   1705000   240.25615     -44560.345     -50426.394     -203.57888      0.019455664    0.8525         0.038911327  
   1706000   247.95968     -44109.718     -50163.856     -18.488831      0.0023893086   0.853          0.0047786173 
   1707000   241.81769     -44370.685     -50274.861     -76.031153      0.0062211731   0.8535         0.012442346  
   1708000   244.28684     -44382.168     -50346.63      -100.38247      0.010080203    0.854          0.020160406  
   1709000   246.566       -44291.513     -50311.623     -181.38052      0.019893681    0.8545         0.039787362  
   1710000   247.70994     -44255.582     -50303.622     -131.94134      0.017892082    0.855          0.035784164  
   1711000   246.47177     -44312.044     -50329.853     -48.26606       0.0033082593   0.8555         0.0066165185 
   1712000   246.78448     -44273.66      -50299.104     -265.83452      0.024203534    0.856          0.048407067  
   1713000   244.49899     -44351.798     -50321.44       266.42852     -0.028584412    0.8565        -0.057168823  
   1714000   241.9605      -44498.293     -50405.955     -179.50955      0.017055698    0.857          0.034111397  
   1715000   245.88408     -44306.365     -50309.826     -211.2756       0.018491457    0.8575         0.036982915  
   1716000   248.78441     -44177.781     -50252.056     -250.17203      0.024739409    0.858          0.049478818  
   1717000   244.63563     -44279.554     -50252.532      134.57907     -0.012983378    0.8585        -0.025966755  
   1718000   244.25789     -44298.921     -50262.677      61.571423     -0.0076223407   0.859         -0.015244681  
   1719000   245.46472     -44323.26      -50316.481     -183.75748      0.019481054    0.8595         0.038962109  
   1720000   246.78435     -44288.406     -50313.847      173.86195     -0.014648867    0.86          -0.029297735  
   1721000   251.26662     -44064.279     -50199.159     -44.43015       0.0044145335   0.8605         0.0088290669 
   1722000   243.56925     -44363.81      -50310.752      168.01829     -0.022120355    0.861         -0.04424071   
   1723000   244.86624     -44423.181     -50401.789     -126.42509      0.014154041    0.8615         0.028308082  
   1724000   247.78669     -44280.564     -50330.478      56.308013     -0.0060297946   0.862         -0.012059589  
   1725000   247.98437     -44189.242     -50243.982     -240.99422      0.025074314    0.8625         0.050148627  
   1726000   244.75169     -44435.776     -50411.588     -355.91274      0.033959079    0.863          0.067918159  
   1727000   242.36932     -44318.355     -50235.999      209.68172     -0.020096539    0.8635        -0.040193077  
   1728000   250.24869     -44250.732     -50360.758     -129.14763      0.01221509     0.864          0.024430179  
   1729000   243.72561     -44410.268     -50361.027      47.260203     -0.0040492555   0.8645        -0.008098511  
   1730000   247.04665     -44131.114     -50162.959      253.47808     -0.026882562    0.865         -0.053765124  
   1731000   247.38692     -44252.651     -50292.804      95.459468     -0.015823422    0.8655        -0.031646844  
   1732000   243.51451     -44409.904     -50355.509      107.98057     -0.012488042    0.866         -0.024976085  
   1733000   247.98493     -44131.308     -50186.062      227.15525     -0.02083079     0.8665        -0.041661581  
   1734000   244.66512     -44249.958     -50223.656     -279.99301      0.02369933     0.867          0.047398659  
   1735000   248.91999     -44318.838     -50396.422     -20.958239      0.0033387483   0.8675         0.0066774965 
   1736000   247.2808      -44046.205     -50083.767      75.268942     -0.0066239996   0.868         -0.013247999  
   1737000   245.17348     -44355.305     -50341.415     -130.69159      0.013365495    0.8685         0.026730991  
   1738000   247.69599     -44332.476     -50380.176     -2.5000798     -0.00072141164  0.869         -0.0014428233 
   1739000   244.13008     -44269.397     -50230.032     -192.26059      0.01754661     0.8695         0.03509322   
   1740000   247.48253     -44194.07      -50236.558     -226.38896      0.024973196    0.87           0.049946392  
   1741000   248.65249     -44061.668     -50132.721     -211.5713       0.021856273    0.8705         0.043712546  
   1742000   248.95878     -44236.844     -50315.375     -333.38943      0.030888037    0.871          0.061776074  
   1743000   247.18666     -44427.782     -50463.045      14.368603     -0.0018877333   0.8715        -0.0037754666 
   1744000   248.7931      -44211.635     -50286.121     -335.40112      0.033945758    0.872          0.067891515  
   1745000   245.9384      -44285.398     -50290.185     -35.619315      0.00078600427  0.8725         0.0015720085 
   1746000   249.29106     -44198.111     -50284.755      18.363798     -0.00036557595  0.873         -0.00073115189
   1747000   248.3436      -44279.651     -50343.163      58.202854     -0.0029535972   0.8735        -0.0059071944 
   1748000   242.77467     -44406.887     -50334.429      1.4839015      0.00086497593  0.874          0.0017299519 
   1749000   246.47611     -44351.86      -50369.775     -85.195388      0.0079994469   0.8745         0.015998894  
   1750000   251.53866     -44205.181     -50346.702     -160.84848      0.014088833    0.875          0.028177667  
   1751000   243.72021     -44418.001     -50368.629     -220.9539       0.02298113     0.8755         0.045962259  
   1752000   243.4139      -44296.918     -50240.067      136.15267     -0.01459778     0.876         -0.02919556   
   1753000   247.87871     -44180.294     -50232.455      110.48769     -0.011191977    0.8765        -0.022383954  
   1754000   244.17813     -44363.805     -50325.613     -161.12816      0.015435852    0.877          0.030871704  
   1755000   247.91372     -44217.406     -50270.422     -77.223895      0.0083543573   0.8775         0.016708715  
   1756000   247.29775     -44157.051     -50195.027      65.885321     -0.0074322157   0.878         -0.014864431  
   1757000   242.41689     -44368.082     -50286.888     -431.07548      0.043759665    0.8785         0.08751933   
   1758000   249.29798     -44337.416     -50424.23       96.099529     -0.0090148152   0.879         -0.01802963   
   1759000   246.62977     -44310.686     -50332.352     -178.57441      0.019155652    0.8795         0.038311304  
   1760000   245.90979     -44309.519     -50313.607     -251.42745      0.028072525    0.88           0.05614505   
   1761000   246.88211     -44363.312     -50391.14       63.122337     -0.0059698907   0.8805        -0.011939781  
   1762000   244.60322     -44291.1       -50263.287      54.49298      -0.0033195063   0.881         -0.0066390126 
   1763000   245.91074     -44317.996     -50322.107     -22.530756     -0.0015287014   0.8815        -0.0030574027 
   1764000   246.43596     -44225.086     -50242.021      212.08744     -0.019222521    0.882         -0.038445042  
   1765000   241.02955     -44448.245     -50333.178     -298.89327      0.030448793    0.8825         0.060897585  
   1766000   245.80625     -44368.845     -50370.405     -420.34622      0.042883247    0.883          0.085766494  
   1767000   244.93259     -44382.021     -50362.249     -232.37101      0.023512349    0.8835         0.047024698  
   1768000   245.06935     -44431.421     -50414.989      258.30478     -0.028115727    0.884         -0.056231454  
   1769000   247.6245      -44283.894     -50329.848      86.760209     -0.0097735164   0.8845        -0.019547033  
   1770000   246.64465     -44248.848     -50270.878      163.5141      -0.018147107    0.885         -0.036294214  
   1771000   245.7897      -44315.999     -50317.155      147.00603     -0.014625809    0.8855        -0.029251617  
   1772000   246.86836     -44280.187     -50307.679      51.020252     -0.0076897116   0.886         -0.015379423  
   1773000   245.99014     -44356.809     -50362.859     -132.70411      0.013286761    0.8865         0.026573522  
   1774000   242.5122      -44398.703     -50319.836     -92.748259      0.0090505272   0.887          0.018101054  
   1775000   245.75089     -44401.876     -50402.084     -235.1592       0.023276326    0.8875         0.046552652  
   1776000   244.82778     -44467.684     -50445.353      2.0946823     -0.00073925952  0.888         -0.001478519  
   1777000   246.05146     -44378.807     -50386.354     -228.92448      0.022044696    0.8885         0.044089392  
   1778000   247.59066     -44319.743     -50364.871      25.779976     -0.0012728165   0.889         -0.0025456329 
   1779000   247.57852     -44421.664     -50466.496      165.99301     -0.017249094    0.8895        -0.034498189  
   1780000   246.2037      -44335.744     -50347.008     -242.60688      0.023672322    0.89           0.047344644  
   1781000   244.71196     -44333.221     -50308.063     -78.871146      0.011026376    0.8905         0.022052753  
   1782000   248.51959     -44246.398     -50314.207     -380.40635      0.043228679    0.891          0.086457357  
   1783000   244.0334      -44419.078     -50377.352     -136.5112       0.011732679    0.8915         0.023465359  
   1784000   245.04647     -44327.143     -50310.152     -6.6098975     -0.0014730672   0.892         -0.0029461343 
   1785000   245.92942     -44393.335     -50397.902     -33.123293      0.0027131298   0.8925         0.0054262595 
   1786000   246.28767     -44370.271     -50383.585     -28.569987      0.006705235    0.893          0.01341047   
   1787000   246.76139     -44364.802     -50389.683      33.986884      0.0003810944   0.8935         0.0007621888 
   1788000   247.42706     -44335.823     -50376.956     -334.4999       0.03378195     0.894          0.0675639    
   1789000   242.83        -44296.891     -50225.783     -138.97655      0.012829684    0.8945         0.025659367  
   1790000   248.65116     -44310.265     -50381.285      141.44515     -0.014319885    0.895         -0.02863977   
   1791000   244.0332      -44427.675     -50385.944     -48.712561      0.0079548024   0.8955         0.015909605  
   1792000   246.0876      -44345.827     -50354.257     -17.855063      0.0047005348   0.896          0.0094010696 
   1793000   243.8015      -44303.536     -50256.149     -28.004682      0.0009630678   0.8965         0.0019261356 
   1794000   247.39184     -44272.705     -50312.978      101.71846     -0.0095021513   0.897         -0.019004303  
   1795000   248.68445     -44205.576     -50277.41      -80.016473      0.0098881321   0.8975         0.019776264  
   1796000   244.59149     -44500.901     -50472.802     -101.13766      0.00988467     0.898          0.01976934   
   1797000   246.17909     -44224.52      -50235.183      274.20085     -0.031576708    0.8985        -0.063153417  
   1798000   241.94076     -44392.261     -50299.442     -13.32674       0.0021103812   0.899          0.0042207624 
   1799000   242.76137     -44434.583     -50361.8        197.90359     -0.020569881    0.8995        -0.041139763  
   1800000   245.98329     -44612.674     -50618.557     -54.389994      0.0065202695   0.9            0.013040539  
Loop time of 443.51 on 56 procs for 100000 steps with 12288 atoms

Performance: 19.481 ns/day, 1.232 hours/ns, 225.474 timesteps/s, 2.771 Matom-step/s
99.8% CPU use with 56 MPI tasks x no OpenMP threads

MPI task timing breakdown:
Section |  min time  |  avg time  |  max time  |%varavg| %total
---------------------------------------------------------------
Pair    | 188.07     | 193.24     | 200.84     |  20.4 | 43.57
Bond    | 0.017925   | 0.023377   | 0.039924   |   2.6 |  0.01
Kspace  | 125.85     | 133.01     | 138.43     |  24.7 | 29.99
Neigh   | 22.375     | 22.384     | 22.391     |   0.1 |  5.05
Comm    | 15.159     | 15.826     | 16.885     |  11.4 |  3.57
Output  | 0.22344    | 0.40034    | 0.57035    |  16.3 |  0.09
Modify  | 58.411     | 65.486     | 76.65      |  53.0 | 14.77
Other   |            | 13.15      |            |       |  2.96

Nlocal:        219.429 ave         231 max         205 min
Histogram: 3 4 3 5 8 11 3 1 13 5
Nghost:        6865.34 ave        6909 max        6802 min
Histogram: 1 1 3 8 4 11 12 6 5 5
Neighs:        96064.4 ave      102798 max       89319 min
Histogram: 3 6 3 9 9 6 4 7 7 2

Total # of neighbors = 5379608
Ave neighs/atom = 437.79362
Ave special neighs/atom = 2
Neighbor list builds = 1875
Dangerous builds = 0
kspace_style pppm/tip4p 1.0e-5
next nloop
jump SELF loop_start
run 100000 # 100ps
PPPM initialization ...
  extracting TIP4P info from pair style
  using 12-bit tables for long-range coulomb
  G vector (1/distance) = 0.33027021
  grid = 50 54 50
  stencil order = 5
  estimated absolute RMS force accuracy = 0.0031562828
  estimated relative force accuracy = 9.5050519e-06
  using double precision KISS FFT
  3d grid and FFT values/proc = 11968 2800
Generated 0 of 1 mixed pair_coeff terms from geometric mixing rule
Per MPI rank memory allocation (min/avg/max) = 10.96 | 11.07 | 11.16 Mbytes
   Step          Temp          TotEng         PotEng          Pxy           v_sxy         v_strain     v_viscosity  
   1800000   245.98311     -44612.675     -50618.553     -53.611043      0.0064405532   0.9            0.012881106  
   1801000   245.54808     -44388.026     -50383.282     -72.027623      0.007226434    0.9005         0.014452868  
   1802000   240.76952     -44608.676     -50487.26      -79.282998      0.0065352974   0.901          0.013070595  
   1803000   247.94089     -44101.468     -50155.147     -159.59976      0.016127628    0.9015         0.032255257  
   1804000   247.51339     -44330.085     -50373.326      24.480724     -0.0042194742   0.902         -0.0084389483 
   1805000   245.64437     -44369.332     -50366.94      -307.30896      0.028320208    0.9025         0.056640416  
   1806000   244.61686     -44417.247     -50389.767     -55.485594      0.0081882916   0.903          0.016376583  
   1807000   245.27313     -44444.298     -50432.841      119.60745     -0.011232809    0.9035        -0.022465618  
   1808000   245.76074     -44465.088     -50465.537     -137.92508      0.014318262    0.904          0.028636524  
   1809000   244.386       -44434.882     -50401.765     -40.810567      0.0058882851   0.9045         0.01177657   
   1810000   249.53079     -44236.998     -50329.496      227.50944     -0.021147033    0.905         -0.042294067  
   1811000   243.57687     -44478.966     -50426.094     -270.68475      0.026662514    0.9055         0.053325029  
   1812000   242.97047     -44462.41      -50394.732      230.00616     -0.027606682    0.906         -0.055213364  
   1813000   250.53969     -44233.67      -50350.801     -1.3363448     -0.0053728708   0.9065        -0.010745742  
   1814000   245.44834     -44226.181     -50219.002     -49.348593      0.010175115    0.907          0.02035023   
   1815000   244.75643     -44385.41      -50361.338     -174.39575      0.017799999    0.9075         0.035599998  
   1816000   246.06365     -44319.164     -50327.009      50.668205     -0.003482771    0.908         -0.006965542  
   1817000   249.49081     -44250.398     -50341.92       5.4277505     -0.0034632337   0.9085        -0.0069264674 
   1818000   242.81771     -44382.758     -50311.351      15.316683     -0.0016032348   0.909         -0.0032064696 
   1819000   251.58848     -44325.308     -50468.045     -292.62099      0.031064372    0.9095         0.062128743  
   1820000   246.5603      -44447.287     -50467.257     -106.39832      0.013807371    0.91           0.027614742  
   1821000   244.16057     -44361.552     -50322.932     -239.11053      0.023833516    0.9105         0.047667031  
   1822000   241.59588     -44340.03      -50238.791     -139.53754      0.014931993    0.911          0.029863986  
   1823000   242.8126      -44285.468     -50213.935     -13.97853       0.0039798968   0.9115         0.0079597937 
   1824000   248.66364     -44133.503     -50204.829      228.15515     -0.01987702     0.912         -0.039754039  
   1825000   245.00712     -44357.154     -50339.203     -41.872152      0.0048573595   0.9125         0.009714719  
   1826000   247.72854     -44350.757     -50399.251      182.79385     -0.018642469    0.913         -0.037284938  
   1827000   247.26237     -44391.166     -50428.278      138.94129     -0.0088340986   0.9135        -0.017668197  
   1828000   249.14565     -44279.587     -50362.681      74.2697       -0.0051146805   0.914         -0.010229361  
   1829000   245.31397     -44328.957     -50318.497     -418.90325      0.041359706    0.9145         0.082719412  
   1830000   246.93853     -44309.66      -50338.866     -135.39144      0.013544687    0.915          0.027089374  
   1831000   250.87167     -44138.183     -50263.419      12.029403     -0.0022505084   0.9155        -0.0045010168 
   1832000   244.41354     -44226.011     -50193.567     -164.21796      0.01708292     0.916          0.03416584   
   1833000   245.81712     -44236.953     -50238.778     -234.78303      0.025641795    0.9165         0.051283591  
   1834000   245.49341     -44358.045     -50351.967     -184.18507      0.018005892    0.917          0.036011785  
   1835000   245.22919     -44270.119     -50257.59      -17.128085      0.0042995955   0.9175         0.008599191  
   1836000   246.85167     -44337.567     -50364.651      304.92535     -0.032654255    0.918         -0.06530851   
   1837000   249.72979     -44298.319     -50395.675      92.993013     -0.011341069    0.9185        -0.022682139  
   1838000   243.91846     -44379.537     -50335.005     -67.139337      0.0080851254   0.919          0.016170251  
   1839000   246.37402     -44248.277     -50263.7        258.53208     -0.028898255    0.9195        -0.057796509  
   1840000   245.1797      -44367.184     -50353.446     -102.47961      0.0080138454   0.92           0.016027691  
   1841000   249.94342     -44252.653     -50355.226      157.929       -0.019388251    0.9205        -0.038776501  
   1842000   244.86612     -44399.31      -50377.916      117.03505     -0.011028852    0.921         -0.022057704  
   1843000   245.45157     -44356.052     -50348.952     -149.50991      0.017596843    0.9215         0.035193686  
   1844000   247.62574     -44180.329     -50226.313      5.5363097     -0.0048333882   0.922         -0.0096667763 
   1845000   245.12325     -44313.533     -50298.417     -270.2614       0.025867872    0.9225         0.051735745  
   1846000   244.50386     -44436.008     -50405.769     -108.96799      0.012051998    0.923          0.024103995  
   1847000   248.44913     -44143.946     -50210.034     -113.72911      0.01125082     0.9235         0.022501639  
   1848000   246.51133     -44290.192     -50308.967      19.745517     -0.0017104313   0.924         -0.0034208627 
   1849000   244.82734     -44045.453     -50023.112      278.02651     -0.029434743    0.9245        -0.058869487  
   1850000   241.70002     -44403.623     -50304.926     -240.63111      0.022820182    0.925          0.045640364  
   1851000   243.83313     -44302.852     -50256.237     -129.72493      0.015048447    0.9255         0.030096894  
   1852000   248.32337     -44194.339     -50257.357     -414.51429      0.038936748    0.926          0.077873496  
   1853000   244.77811     -44258.259     -50234.716     -321.72115      0.031388664    0.9265         0.062777329  
   1854000   243.62373     -44365.771     -50314.043      62.999689     -0.0042333105   0.927         -0.008466621  
   1855000   243.91501     -44334.91      -50290.294      30.084924      0.0046097306   0.9275         0.0092194613 
   1856000   248.11992     -44250.067     -50308.117     -61.856117      0.0051627665   0.928          0.010325533  
   1857000   246.4199      -44336.329     -50352.871      111.50796     -0.011540485    0.9285        -0.023080971  
   1858000   245.45049     -44365.074     -50357.947     -24.911191      0.0026031778   0.929          0.0052063557 
   1859000   243.51353     -44220.337     -50165.919     -32.383683      0.0012299571   0.9295         0.0024599142 
   1860000   242.74863     -44445.18      -50372.085      75.341195     -0.011138828    0.93          -0.022277656  
   1861000   246.63407     -44251.522     -50273.293     -98.586468      0.0085091905   0.9305         0.017018381  
   1862000   244.11506     -44346.745     -50307.013     -164.07016      0.015156565    0.931          0.030313131  
   1863000   246.78289     -44244.941     -50270.346     -116.96142      0.0093434275   0.9315         0.018686855  
   1864000   244.24833     -44268.808     -50232.33       178.33083     -0.019457853    0.932         -0.038915706  
   1865000   248.8081      -44113.953     -50188.805     -3.9910238      0.0024123538   0.9325         0.0048247076 
   1866000   245.02863     -44332.495     -50315.069      191.38624     -0.021107347    0.933         -0.042214694  
   1867000   248.48649     -44185.085     -50252.085     -238.3508       0.025545899    0.9335         0.051091797  
   1868000   246.15673     -44251.145     -50261.262      282.76242     -0.027800407    0.934         -0.055600814  
   1869000   247.15061     -44173.638     -50208.022     -251.97306      0.027240171    0.9345         0.054480341  
   1870000   243.65158     -44264.829     -50213.781     -167.82216      0.019376286    0.935          0.038752573  
   1871000   248.95442     -44135.624     -50214.049      203.66435     -0.019219819    0.9355        -0.038439637  
   1872000   245.10321     -44141.391     -50125.785      395.38604     -0.040642669    0.936         -0.081285338  
   1873000   247.46397     -44180.753     -50222.787      119.6357      -0.011586892    0.9365        -0.023173784  
   1874000   246.21554     -44162.451     -50174.004      152.94587     -0.014315397    0.937         -0.028630795  
   1875000   245.10884     -44301.141     -50285.673     -216.35938      0.016464877    0.9375         0.032929754  
   1876000   242.2888      -44406.011     -50321.689     -37.259952      0.0031666098   0.938          0.0063332196 
   1877000   247.11098     -44287.101     -50320.517     -226.99446      0.02326681     0.9385         0.046533619  
   1878000   248.81084     -44350.838     -50425.758     -134.19628      0.015128481    0.939          0.030256962  
   1879000   250.11555     -44326.227     -50433.002     -19.066285      0.0037253022   0.9395         0.0074506044 
   1880000   245.14569     -44316.254     -50301.686     -316.76192      0.034366639    0.94           0.068733278  
   1881000   245.10209     -44193.941     -50178.309     -159.58849      0.015166203    0.9405         0.030332405  
   1882000   248.35911     -44152.352     -50216.242     -156.11558      0.015595078    0.941          0.031190157  
   1883000   244.75506     -44299.014     -50274.908     -180.22283      0.019220015    0.9415         0.03844003   
   1884000   251.312       -44065.257     -50201.244      42.755861     -0.004722026    0.942         -0.0094440521 
   1885000   246.38782     -44115.876     -50131.635     -192.50164      0.02227385     0.9425         0.0445477    
   1886000   241.86313     -44346.774     -50252.06       101.14415     -0.0090255346   0.943         -0.018051069  
   1887000   242.00154     -44262.672     -50171.337      141.77036     -0.015245504    0.9435        -0.030491008  
   1888000   247.58415     -44056.728     -50101.697      76.482802     -0.0037386229   0.944         -0.0074772459 
   1889000   245.06461     -44230.517     -50213.97      -238.99999      0.02429385     0.9445         0.0485877    
   1890000   248.02145     -44194.61      -50250.256     -141.7199       0.016087495    0.945          0.03217499   
   1891000   248.7462      -44105.971     -50179.312      76.505239     -0.0091028908   0.9455        -0.018205782  
   1892000   248.41699     -44165.402     -50230.705     -116.08479      0.012900586    0.946          0.025801172  
   1893000   245.56638     -44352.81      -50348.514     -19.106302      0.00088014175  0.9465         0.0017602835 
   1894000   250.71393     -44215.631     -50337.016     -24.006399      0.0024155175   0.947          0.0048310351 
   1895000   247.024       -44181.03      -50212.322     -55.631495      0.0046702314   0.9475         0.0093404628 
   1896000   246.3704      -44222.316     -50237.65       247.30732     -0.028198915    0.948         -0.056397829  
   1897000   246.0811      -44067.69      -50075.96      -22.378807      0.0052366882   0.9485         0.010473376  
   1898000   242.65357     -44373.069     -50297.654     -72.84375       0.010548965    0.949          0.02109793   
   1899000   248.46085     -44186.984     -50253.358     -89.092397      0.0061960029   0.9495         0.012392006  
   1900000   244.64431     -44218.676     -50191.866     -58.079609      0.0062407798   0.95           0.01248156   
Loop time of 422.085 on 56 procs for 100000 steps with 12288 atoms

Performance: 20.470 ns/day, 1.172 hours/ns, 236.919 timesteps/s, 2.911 Matom-step/s
99.8% CPU use with 56 MPI tasks x no OpenMP threads

MPI task timing breakdown:
Section |  min time  |  avg time  |  max time  |%varavg| %total
---------------------------------------------------------------
Pair    | 183.03     | 192.51     | 198.47     |  24.8 | 45.61
Bond    | 0.017046   | 0.022632   | 0.04003    |   2.6 |  0.01
Kspace  | 116.66     | 122.26     | 130.87     |  30.2 | 28.97
Neigh   | 21.656     | 21.669     | 21.677     |   0.1 |  5.13
Comm    | 14.637     | 15.583     | 16.896     |  14.7 |  3.69
Output  | 0.22328    | 0.4008     | 0.57158    |  16.3 |  0.09
Modify  | 51.819     | 59.787     | 67.224     |  51.5 | 14.16
Other   |            | 9.853      |            |       |  2.33

Nlocal:        219.429 ave         247 max         205 min
Histogram: 5 5 12 18 4 7 3 1 0 1
Nghost:        6857.57 ave        6922 max        6785 min
Histogram: 2 0 3 8 14 12 7 3 5 2
Neighs:        96043.2 ave      110980 max       89080 min
Histogram: 5 7 18 10 10 3 2 0 0 1

Total # of neighbors = 5378419
Ave neighs/atom = 437.69686
Ave special neighs/atom = 2
Neighbor list builds = 1871
Dangerous builds = 0
kspace_style pppm/tip4p 1.0e-5
next nloop
jump SELF loop_start
run 100000 # 100ps
PPPM initialization ...
  extracting TIP4P info from pair style
  using 12-bit tables for long-range coulomb
  G vector (1/distance) = 0.33000328
  grid = 50 54 50
  stencil order = 5
  estimated absolute RMS force accuracy = 0.0032071594
  estimated relative force accuracy = 9.6582652e-06
  using double precision KISS FFT
  3d grid and FFT values/proc = 11968 2800
Generated 0 of 1 mixed pair_coeff terms from geometric mixing rule
Per MPI rank memory allocation (min/avg/max) = 10.96 | 11.07 | 11.16 Mbytes
   Step          Temp          TotEng         PotEng          Pxy           v_sxy         v_strain     v_viscosity  
   1900000   244.64431     -44218.672     -50191.863     -56.931779      0.0061241471   0.95           0.012248294  
   1901000   246.02889     -44189.524     -50196.52       167.8514      -0.016303432    0.9505        -0.032606864  
   1902000   247.88774     -44264.991     -50317.372      192.85528     -0.018655742    0.951         -0.037311485  
   1903000   244.83109     -44306.778     -50284.529     -289.41366      0.027098141    0.9515         0.054196282  
   1904000   243.48923     -44263.827     -50208.815     -18.67768       0.0066281606   0.952          0.013256321  
   1905000   245.06369     -44170.033     -50153.463     -341.48969      0.030216377    0.9525         0.060432754  
   1906000   250.69854     -44203.889     -50324.898      46.823794     -0.0074247961   0.953         -0.014849592  
   1907000   246.53199     -44361.059     -50380.339      152.35199     -0.015166207    0.9535        -0.030332414  
   1908000   248.16374     -44390.716     -50449.836     -68.870986      0.0086033848   0.954          0.01720677   
   1909000   243.98732     -44401.7       -50358.849     -52.052257      0.0017141187   0.9545         0.0034282374 
   1910000   247.10989     -44230.4       -50263.79      -34.002365      0.00069820102  0.955          0.001396402  
   1911000   246.84641     -44221.269     -50248.226     -117.94255      0.0081132849   0.9555         0.01622657   
   1912000   244.98117     -44212.331     -50193.746     -156.68798      0.016134595    0.956          0.03226919   
   1913000   244.67673     -44322.019     -50296.001      157.17288     -0.015170703    0.9565        -0.030341406  
   1914000   244.29661     -44355.242     -50319.943      164.82712     -0.016021963    0.957         -0.032043925  
   1915000   249.51841     -44124.741     -50216.936     -52.779561     -0.00072476052  0.9575        -0.001449521  
   1916000   249.97227     -44108.009     -50211.286     -99.668224      0.0072635064   0.958          0.014527013  
   1917000   246.71956     -44140.575     -50164.434      45.28257      -0.0021344326   0.9585        -0.0042688652 
   1918000   247.70237     -44193.693     -50241.548     -28.447684      0.00255545     0.959          0.0051108999 
   1919000   248.20233     -44162.539     -50222.602      37.155464     -0.0029275934   0.9595        -0.0058551869 
   1920000   244.53111     -44239.763     -50210.19       245.12446     -0.026763976    0.96          -0.053527952  
   1921000   247.17754     -44211.988     -50247.029     -57.249076      0.0032551837   0.9605         0.0065103673 
   1922000   245.21985     -44227.529     -50214.772     -128.17056      0.014060442    0.961          0.028120885  
   1923000   244.91516     -44157.152     -50136.956     -42.347333      0.0060653423   0.9615         0.012130685  
   1924000   245.65646     -44253.614     -50251.516      186.25826     -0.018760033    0.962         -0.037520067  
   1925000   247.03518     -44233.388     -50264.954      104.06158     -0.0080543304   0.9625        -0.016108661  
   1926000   248.35043     -44310.306     -50373.984     -50.074301      0.0033912074   0.963          0.0067824148 
   1927000   248.43126     -44300.737     -50366.389      294.76763     -0.027182615    0.9635        -0.05436523   
   1928000   246.44344     -44304.559     -50321.676     -210.8486       0.021678091    0.964          0.043356182  
   1929000   248.51883     -44140.475     -50208.265     -142.01721      0.014488171    0.9645         0.028976341  
   1930000   245.97678     -44450.938     -50456.662      49.571404     -0.0035662713   0.965         -0.0071325427 
   1931000   246.08217     -44262.07      -50270.367      38.212274     -0.0041304787   0.9655        -0.0082609575 
   1932000   247.46633     -44042.993     -50085.085      276.09893     -0.025266193    0.966         -0.050532385  
   1933000   245.18507     -44279.807     -50266.2       -109.14054      0.016400368    0.9665         0.032800736  
   1934000   247.3023      -44170.065     -50208.152      219.19855     -0.020306716    0.967         -0.040613433  
   1935000   250.86486     -44120.022     -50245.092      23.979011     -0.0032165143   0.9675        -0.0064330285 
   1936000   242.28024     -44443.007     -50358.477     -107.10066      0.012832447    0.968          0.025664894  
   1937000   243.94513     -44367.037     -50323.156     -261.7056       0.026490186    0.9685         0.052980372  
   1938000   246.62145     -44155.512     -50176.976      85.129266     -0.0072141099   0.969         -0.01442822   
   1939000   247.83569     -44344.452     -50395.563      203.39567     -0.020182114    0.9695        -0.040364228  
   1940000   248.69634     -44195.051     -50267.175     -50.042978      0.003786851    0.97           0.0075737019 
   1941000   245.71584     -44266.78      -50266.133     -1.1108798      0.00057163011  0.9705         0.0011432602 
   1942000   245.78578     -44410.015     -50411.075      68.414363     -0.0052255464   0.971         -0.010451093  
   1943000   248.29154     -44043.782     -50106.023      10.33535      -0.0052060965   0.9715        -0.010412193  
   1944000   238.82984     -44451.801     -50283.027      36.754563      0.0003698089   0.972          0.0007396178 
   1945000   246.55824     -44289.637     -50309.558     -32.412375      0.0024185614   0.9725         0.0048371227 
   1946000   247.46834     -44108.427     -50150.569      12.32402      -0.0024046787   0.973         -0.0048093574 
   1947000   245.17401     -44359.285     -50345.408      132.12338     -0.010551312    0.9735        -0.021102624  
   1948000   244.02523     -44362.93      -50321.005      182.98802     -0.017025469    0.974         -0.034050939  
   1949000   245.59057     -44165.533     -50161.827     -4.531675      -0.0029891072   0.9745        -0.0059782144 
   1950000   246.94341     -44242.189     -50271.514     -31.011608     -0.003115291    0.975         -0.006230582  
   1951000   249.12581     -44287.105     -50369.715     -51.848234      0.0071253124   0.9755         0.014250625  
   1952000   248.42915     -44057.44      -50123.04       91.312255     -0.00777747     0.976         -0.01555494   
   1953000   247.70997     -44102.043     -50150.084      367.15967     -0.037955279    0.9765        -0.075910557  
   1954000   244.8139      -44240.062     -50217.393     -39.979794      0.0052090814   0.977          0.010418163  
   1955000   245.78029     -44117.188     -50118.114      174.68759     -0.016003202    0.9775        -0.032006404  
   1956000   246.97435     -44178.186     -50208.266     -32.896844      0.0018435146   0.978          0.0036870293 
   1957000   245.93018     -44211.816     -50216.402     -139.87861      0.014974719    0.9785         0.029949438  
   1958000   246.02071     -44138.145     -50144.941      28.003568     -0.0022307623   0.979         -0.0044615247 
   1959000   248.34924     -44176.935     -50240.584     -45.04318       0.0036959611   0.9795         0.0073919222 
   1960000   243.82571     -44339.42      -50292.623     -339.20069      0.032494449    0.98           0.064988898  
   1961000   251.25375     -44104.886     -50239.451     -5.3401513     -0.00060725562  0.9805        -0.0012145112 
   1962000   243.71477     -44414.57      -50365.065     -49.251743      0.0060470818   0.981          0.012094164  
   1963000   241.75665     -44384.306     -50286.991      154.76488     -0.020664884    0.9815        -0.041329769  
   1964000   247.27873     -44142.502     -50180.014     -138.58145      0.016188708    0.982          0.032377416  
   1965000   246.77816     -44218.008     -50243.298      307.88417     -0.029586902    0.9825        -0.059173804  
   1966000   244.5049      -44333.416     -50303.203      619.53883     -0.064483164    0.983         -0.12896633   
   1967000   245.41726     -44282.211     -50274.274      319.31146     -0.031703184    0.9835        -0.063406367  
   1968000   245.40567     -44265.779     -50257.558      240.19648     -0.021920707    0.984         -0.043841415  
   1969000   244.6782      -44306.518     -50280.535      2.6214551      0.00052693682  0.9845         0.0010538736 
   1970000   246.92208     -44238.785     -50267.589      11.818344     -0.0043917095   0.985         -0.008783419  
   1971000   245.4974      -44038.871     -50032.89       18.83458      -0.00013916694  0.9855        -0.00027833388
   1972000   246.12829     -44225.794     -50235.217     -32.428333      0.004158431    0.986          0.0083168621 
   1973000   244.30251     -44174.976     -50139.821     -85.558624      0.011887394    0.9865         0.023774787  
   1974000   247.4263      -44209.945     -50251.059     -249.54188      0.024805409    0.987          0.049610818  
   1975000   251.54732     -44066.444     -50208.176      103.61375     -0.0066855742   0.9875        -0.013371148  
   1976000   243.8587      -44197.777     -50151.786      183.01145     -0.018189381    0.988         -0.036378762  
   1977000   247.46271     -44172.772     -50214.776     -56.524336      0.0028994707   0.9885         0.0057989414 
   1978000   244.22504     -44366.389     -50329.343     -143.37596      0.011167577    0.989          0.022335155  
   1979000   246.77386     -44252.381     -50277.566     -96.338249      0.010734963    0.9895         0.021469927  
   1980000   244.31223     -44223.573     -50188.655     -347.79793      0.033492617    0.99           0.066985233  
   1981000   244.35899     -44421.533     -50387.757     -231.37795      0.022373228    0.9905         0.044746456  
   1982000   240.35169     -44388.024     -50256.407      131.24847     -0.008218974    0.991         -0.016437948  
   1983000   245.2375      -44227.555     -50215.228     -98.76039       0.00575026     0.9915         0.01150052   
   1984000   244.3542      -44283.07      -50249.177     -38.68605       0.003528546    0.992          0.0070570919 
   1985000   248.79231     -44164.299     -50238.766      157.98863     -0.015657381    0.9925        -0.031314762  
   1986000   243.44333     -44362.841     -50306.708     -76.461717      0.0047228067   0.993          0.0094456135 
   1987000   247.92738     -44135.725     -50189.074     -114.48286      0.0093609455   0.9935         0.018721891  
   1988000   242.19798     -44321.717     -50235.178     -117.4323       0.016103094    0.994          0.032206187  
   1989000   247.59749     -44151.692     -50196.986      98.099753     -0.010450052    0.9945        -0.020900104  
   1990000   247.44059     -44146.078     -50187.542      202.64453     -0.021419633    0.995         -0.042839266  
   1991000   240.97318     -44309.25      -50192.806      114.58799     -0.0070113642   0.9955        -0.014022728  
   1992000   248.66919     -44124.583     -50196.044     -84.271066      0.0063804444   0.996          0.012760889  
   1993000   242.5763      -44375.855     -50298.553      72.801582     -0.0078310748   0.9965        -0.01566215   
   1994000   249.4963      -44154.149     -50245.805     -83.287338      0.012174867    0.997          0.024349734  
   1995000   244.26818     -44253.183     -50217.189      7.1811194      0.00016839604  0.9975         0.00033679207
   1996000   245.99074     -44173.701     -50179.765      273.1109      -0.028121744    0.998         -0.056243489  
   1997000   246.48266     -44167.951     -50186.026     -3.5201986     -0.0053602781   0.9985        -0.010720556  
   1998000   244.8867      -44157.982     -50137.091      241.15449     -0.026752712    0.999         -0.053505424  
   1999000   245.48303     -44243.781     -50237.449      169.62536     -0.019688268    0.9995        -0.039376535  
   2000000   252.40576     -44212.32      -50375.013     -75.182133      0.0071105971   1              0.014221194  
Loop time of 424.734 on 56 procs for 100000 steps with 12288 atoms

Performance: 20.342 ns/day, 1.180 hours/ns, 235.442 timesteps/s, 2.893 Matom-step/s
99.8% CPU use with 56 MPI tasks x no OpenMP threads

MPI task timing breakdown:
Section |  min time  |  avg time  |  max time  |%varavg| %total
---------------------------------------------------------------
Pair    | 184.68     | 193.38     | 202.69     |  26.4 | 45.53
Bond    | 0.016672   | 0.022515   | 0.038771   |   2.4 |  0.01
Kspace  | 115.28     | 123.22     | 132.08     |  32.7 | 29.01
Neigh   | 22.422     | 22.432     | 22.439     |   0.1 |  5.28
Comm    | 14.528     | 15.622     | 17.119     |  16.5 |  3.68
Output  | 0.22171    | 0.40016    | 0.56983    |  16.3 |  0.09
Modify  | 51.842     | 59.731     | 67.123     |  51.3 | 14.06
Other   |            | 9.924      |            |       |  2.34

Nlocal:        219.429 ave         235 max         200 min
Histogram: 2 1 2 7 11 7 11 8 5 2
Nghost:        6847.16 ave        6909 max        6790 min
Histogram: 3 2 8 6 15 6 6 4 4 2
Neighs:        96059.5 ave      104282 max       86056 min
Histogram: 1 2 1 7 10 11 12 9 2 1

Total # of neighbors = 5379331
Ave neighs/atom = 437.77108
Ave special neighs/atom = 2
Neighbor list builds = 1885
Dangerous builds = 0
kspace_style pppm/tip4p 1.0e-5
next nloop
jump SELF loop_start
# run ${Ttotal}
# variable nloop loop ${nloops}
# label loop_start
# run ${stepsPerReset}
# kspace_style pppm/tip4p 1.0e-5
# next nloop
# jump SELF loop_start
Total wall time: 2:31:11
